p cnf 26639 51515
1 2 3 0
-15821 0
-1 15822 0
-2 15822 0
-1 -2 15823 0
-3 15824 0
-15821 15824 0
-3 -15821 15825 0
-15822 15826 0
-15824 15826 0
-15822 -15824 15827 0
-15823 15828 0
-15825 15828 0
-15823 -15825 15829 0
-15827 15830 0
-15828 15830 0
-15827 -15828 15831 0
-15830 0
421 422 423 0
-15832 0
-421 15833 0
-422 15833 0
-421 -422 15834 0
-423 15835 0
-15832 15835 0
-423 -15832 15836 0
-15833 15837 0
-15835 15837 0
-15833 -15835 15838 0
-15834 15839 0
-15836 15839 0
-15834 -15836 15840 0
-15838 15841 0
-15839 15841 0
-15838 -15839 15842 0
-15841 0
841 842 843 0
-15843 0
-841 15844 0
-842 15844 0
-841 -842 15845 0
-843 15846 0
-15843 15846 0
-843 -15843 15847 0
-15844 15848 0
-15846 15848 0
-15844 -15846 15849 0
-15845 15850 0
-15847 15850 0
-15845 -15847 15851 0
-15849 15852 0
-15850 15852 0
-15849 -15850 15853 0
-15852 0
1261 1262 1263 0
-15854 0
-1261 15855 0
-1262 15855 0
-1261 -1262 15856 0
-1263 15857 0
-15854 15857 0
-1263 -15854 15858 0
-15855 15859 0
-15857 15859 0
-15855 -15857 15860 0
-15856 15861 0
-15858 15861 0
-15856 -15858 15862 0
-15860 15863 0
-15861 15863 0
-15860 -15861 15864 0
-15863 0
1681 1682 1683 0
-15865 0
-1681 15866 0
-1682 15866 0
-1681 -1682 15867 0
-1683 15868 0
-15865 15868 0
-1683 -15865 15869 0
-15866 15870 0
-15868 15870 0
-15866 -15868 15871 0
-15867 15872 0
-15869 15872 0
-15867 -15869 15873 0
-15871 15874 0
-15872 15874 0
-15871 -15872 15875 0
-15874 0
2101 2102 2103 0
-15876 0
-2101 15877 0
-2102 15877 0
-2101 -2102 15878 0
-2103 15879 0
-15876 15879 0
-2103 -15876 15880 0
-15877 15881 0
-15879 15881 0
-15877 -15879 15882 0
-15878 15883 0
-15880 15883 0
-15878 -15880 15884 0
-15882 15885 0
-15883 15885 0
-15882 -15883 15886 0
-15885 0
2521 2522 2523 0
-15887 0
-2521 15888 0
-2522 15888 0
-2521 -2522 15889 0
-2523 15890 0
-15887 15890 0
-2523 -15887 15891 0
-15888 15892 0
-15890 15892 0
-15888 -15890 15893 0
-15889 15894 0
-15891 15894 0
-15889 -15891 15895 0
-15893 15896 0
-15894 15896 0
-15893 -15894 15897 0
-15896 0
4 5 6 0
-15898 0
-4 15899 0
-5 15899 0
-4 -5 15900 0
-6 15901 0
-15898 15901 0
-6 -15898 15902 0
-15899 15903 0
-15901 15903 0
-15899 -15901 15904 0
-15900 15905 0
-15902 15905 0
-15900 -15902 15906 0
-15904 15907 0
-15905 15907 0
-15904 -15905 15908 0
-15907 0
424 425 426 0
-15909 0
-424 15910 0
-425 15910 0
-424 -425 15911 0
-426 15912 0
-15909 15912 0
-426 -15909 15913 0
-15910 15914 0
-15912 15914 0
-15910 -15912 15915 0
-15911 15916 0
-15913 15916 0
-15911 -15913 15917 0
-15915 15918 0
-15916 15918 0
-15915 -15916 15919 0
-15918 0
844 845 846 0
-15920 0
-844 15921 0
-845 15921 0
-844 -845 15922 0
-846 15923 0
-15920 15923 0
-846 -15920 15924 0
-15921 15925 0
-15923 15925 0
-15921 -15923 15926 0
-15922 15927 0
-15924 15927 0
-15922 -15924 15928 0
-15926 15929 0
-15927 15929 0
-15926 -15927 15930 0
-15929 0
1264 1265 1266 0
-15931 0
-1264 15932 0
-1265 15932 0
-1264 -1265 15933 0
-1266 15934 0
-15931 15934 0
-1266 -15931 15935 0
-15932 15936 0
-15934 15936 0
-15932 -15934 15937 0
-15933 15938 0
-15935 15938 0
-15933 -15935 15939 0
-15937 15940 0
-15938 15940 0
-15937 -15938 15941 0
-15940 0
1684 1685 1686 0
-15942 0
-1684 15943 0
-1685 15943 0
-1684 -1685 15944 0
-1686 15945 0
-15942 15945 0
-1686 -15942 15946 0
-15943 15947 0
-15945 15947 0
-15943 -15945 15948 0
-15944 15949 0
-15946 15949 0
-15944 -15946 15950 0
-15948 15951 0
-15949 15951 0
-15948 -15949 15952 0
-15951 0
2104 2105 2106 0
-15953 0
-2104 15954 0
-2105 15954 0
-2104 -2105 15955 0
-2106 15956 0
-15953 15956 0
-2106 -15953 15957 0
-15954 15958 0
-15956 15958 0
-15954 -15956 15959 0
-15955 15960 0
-15957 15960 0
-15955 -15957 15961 0
-15959 15962 0
-15960 15962 0
-15959 -15960 15963 0
-15962 0
2524 2525 2526 0
-15964 0
-2524 15965 0
-2525 15965 0
-2524 -2525 15966 0
-2526 15967 0
-15964 15967 0
-2526 -15964 15968 0
-15965 15969 0
-15967 15969 0
-15965 -15967 15970 0
-15966 15971 0
-15968 15971 0
-15966 -15968 15972 0
-15970 15973 0
-15971 15973 0
-15970 -15971 15974 0
-15973 0
7 8 9 0
-15975 0
-7 15976 0
-8 15976 0
-7 -8 15977 0
-9 15978 0
-15975 15978 0
-9 -15975 15979 0
-15976 15980 0
-15978 15980 0
-15976 -15978 15981 0
-15977 15982 0
-15979 15982 0
-15977 -15979 15983 0
-15981 15984 0
-15982 15984 0
-15981 -15982 15985 0
-15984 0
427 428 429 0
-15986 0
-427 15987 0
-428 15987 0
-427 -428 15988 0
-429 15989 0
-15986 15989 0
-429 -15986 15990 0
-15987 15991 0
-15989 15991 0
-15987 -15989 15992 0
-15988 15993 0
-15990 15993 0
-15988 -15990 15994 0
-15992 15995 0
-15993 15995 0
-15992 -15993 15996 0
-15995 0
847 848 849 0
-15997 0
-847 15998 0
-848 15998 0
-847 -848 15999 0
-849 16000 0
-15997 16000 0
-849 -15997 16001 0
-15998 16002 0
-16000 16002 0
-15998 -16000 16003 0
-15999 16004 0
-16001 16004 0
-15999 -16001 16005 0
-16003 16006 0
-16004 16006 0
-16003 -16004 16007 0
-16006 0
1267 1268 1269 0
-16008 0
-1267 16009 0
-1268 16009 0
-1267 -1268 16010 0
-1269 16011 0
-16008 16011 0
-1269 -16008 16012 0
-16009 16013 0
-16011 16013 0
-16009 -16011 16014 0
-16010 16015 0
-16012 16015 0
-16010 -16012 16016 0
-16014 16017 0
-16015 16017 0
-16014 -16015 16018 0
-16017 0
1687 1688 1689 0
-16019 0
-1687 16020 0
-1688 16020 0
-1687 -1688 16021 0
-1689 16022 0
-16019 16022 0
-1689 -16019 16023 0
-16020 16024 0
-16022 16024 0
-16020 -16022 16025 0
-16021 16026 0
-16023 16026 0
-16021 -16023 16027 0
-16025 16028 0
-16026 16028 0
-16025 -16026 16029 0
-16028 0
2107 2108 2109 0
-16030 0
-2107 16031 0
-2108 16031 0
-2107 -2108 16032 0
-2109 16033 0
-16030 16033 0
-2109 -16030 16034 0
-16031 16035 0
-16033 16035 0
-16031 -16033 16036 0
-16032 16037 0
-16034 16037 0
-16032 -16034 16038 0
-16036 16039 0
-16037 16039 0
-16036 -16037 16040 0
-16039 0
2527 2528 2529 0
-16041 0
-2527 16042 0
-2528 16042 0
-2527 -2528 16043 0
-2529 16044 0
-16041 16044 0
-2529 -16041 16045 0
-16042 16046 0
-16044 16046 0
-16042 -16044 16047 0
-16043 16048 0
-16045 16048 0
-16043 -16045 16049 0
-16047 16050 0
-16048 16050 0
-16047 -16048 16051 0
-16050 0
10 11 12 0
-16052 0
-10 16053 0
-11 16053 0
-10 -11 16054 0
-12 16055 0
-16052 16055 0
-12 -16052 16056 0
-16053 16057 0
-16055 16057 0
-16053 -16055 16058 0
-16054 16059 0
-16056 16059 0
-16054 -16056 16060 0
-16058 16061 0
-16059 16061 0
-16058 -16059 16062 0
-16061 0
430 431 432 0
-16063 0
-430 16064 0
-431 16064 0
-430 -431 16065 0
-432 16066 0
-16063 16066 0
-432 -16063 16067 0
-16064 16068 0
-16066 16068 0
-16064 -16066 16069 0
-16065 16070 0
-16067 16070 0
-16065 -16067 16071 0
-16069 16072 0
-16070 16072 0
-16069 -16070 16073 0
-16072 0
850 851 852 0
-16074 0
-850 16075 0
-851 16075 0
-850 -851 16076 0
-852 16077 0
-16074 16077 0
-852 -16074 16078 0
-16075 16079 0
-16077 16079 0
-16075 -16077 16080 0
-16076 16081 0
-16078 16081 0
-16076 -16078 16082 0
-16080 16083 0
-16081 16083 0
-16080 -16081 16084 0
-16083 0
1270 1271 1272 0
-16085 0
-1270 16086 0
-1271 16086 0
-1270 -1271 16087 0
-1272 16088 0
-16085 16088 0
-1272 -16085 16089 0
-16086 16090 0
-16088 16090 0
-16086 -16088 16091 0
-16087 16092 0
-16089 16092 0
-16087 -16089 16093 0
-16091 16094 0
-16092 16094 0
-16091 -16092 16095 0
-16094 0
1690 1691 1692 0
-16096 0
-1690 16097 0
-1691 16097 0
-1690 -1691 16098 0
-1692 16099 0
-16096 16099 0
-1692 -16096 16100 0
-16097 16101 0
-16099 16101 0
-16097 -16099 16102 0
-16098 16103 0
-16100 16103 0
-16098 -16100 16104 0
-16102 16105 0
-16103 16105 0
-16102 -16103 16106 0
-16105 0
2110 2111 2112 0
-16107 0
-2110 16108 0
-2111 16108 0
-2110 -2111 16109 0
-2112 16110 0
-16107 16110 0
-2112 -16107 16111 0
-16108 16112 0
-16110 16112 0
-16108 -16110 16113 0
-16109 16114 0
-16111 16114 0
-16109 -16111 16115 0
-16113 16116 0
-16114 16116 0
-16113 -16114 16117 0
-16116 0
2530 2531 2532 0
-16118 0
-2530 16119 0
-2531 16119 0
-2530 -2531 16120 0
-2532 16121 0
-16118 16121 0
-2532 -16118 16122 0
-16119 16123 0
-16121 16123 0
-16119 -16121 16124 0
-16120 16125 0
-16122 16125 0
-16120 -16122 16126 0
-16124 16127 0
-16125 16127 0
-16124 -16125 16128 0
-16127 0
13 14 15 0
-16129 0
-13 16130 0
-14 16130 0
-13 -14 16131 0
-15 16132 0
-16129 16132 0
-15 -16129 16133 0
-16130 16134 0
-16132 16134 0
-16130 -16132 16135 0
-16131 16136 0
-16133 16136 0
-16131 -16133 16137 0
-16135 16138 0
-16136 16138 0
-16135 -16136 16139 0
-16138 0
433 434 435 0
-16140 0
-433 16141 0
-434 16141 0
-433 -434 16142 0
-435 16143 0
-16140 16143 0
-435 -16140 16144 0
-16141 16145 0
-16143 16145 0
-16141 -16143 16146 0
-16142 16147 0
-16144 16147 0
-16142 -16144 16148 0
-16146 16149 0
-16147 16149 0
-16146 -16147 16150 0
-16149 0
853 854 855 0
-16151 0
-853 16152 0
-854 16152 0
-853 -854 16153 0
-855 16154 0
-16151 16154 0
-855 -16151 16155 0
-16152 16156 0
-16154 16156 0
-16152 -16154 16157 0
-16153 16158 0
-16155 16158 0
-16153 -16155 16159 0
-16157 16160 0
-16158 16160 0
-16157 -16158 16161 0
-16160 0
1273 1274 1275 0
-16162 0
-1273 16163 0
-1274 16163 0
-1273 -1274 16164 0
-1275 16165 0
-16162 16165 0
-1275 -16162 16166 0
-16163 16167 0
-16165 16167 0
-16163 -16165 16168 0
-16164 16169 0
-16166 16169 0
-16164 -16166 16170 0
-16168 16171 0
-16169 16171 0
-16168 -16169 16172 0
-16171 0
1693 1694 1695 0
-16173 0
-1693 16174 0
-1694 16174 0
-1693 -1694 16175 0
-1695 16176 0
-16173 16176 0
-1695 -16173 16177 0
-16174 16178 0
-16176 16178 0
-16174 -16176 16179 0
-16175 16180 0
-16177 16180 0
-16175 -16177 16181 0
-16179 16182 0
-16180 16182 0
-16179 -16180 16183 0
-16182 0
2113 2114 2115 0
-16184 0
-2113 16185 0
-2114 16185 0
-2113 -2114 16186 0
-2115 16187 0
-16184 16187 0
-2115 -16184 16188 0
-16185 16189 0
-16187 16189 0
-16185 -16187 16190 0
-16186 16191 0
-16188 16191 0
-16186 -16188 16192 0
-16190 16193 0
-16191 16193 0
-16190 -16191 16194 0
-16193 0
2533 2534 2535 0
-16195 0
-2533 16196 0
-2534 16196 0
-2533 -2534 16197 0
-2535 16198 0
-16195 16198 0
-2535 -16195 16199 0
-16196 16200 0
-16198 16200 0
-16196 -16198 16201 0
-16197 16202 0
-16199 16202 0
-16197 -16199 16203 0
-16201 16204 0
-16202 16204 0
-16201 -16202 16205 0
-16204 0
16 17 18 0
-16206 0
-16 16207 0
-17 16207 0
-16 -17 16208 0
-18 16209 0
-16206 16209 0
-18 -16206 16210 0
-16207 16211 0
-16209 16211 0
-16207 -16209 16212 0
-16208 16213 0
-16210 16213 0
-16208 -16210 16214 0
-16212 16215 0
-16213 16215 0
-16212 -16213 16216 0
-16215 0
436 437 438 0
-16217 0
-436 16218 0
-437 16218 0
-436 -437 16219 0
-438 16220 0
-16217 16220 0
-438 -16217 16221 0
-16218 16222 0
-16220 16222 0
-16218 -16220 16223 0
-16219 16224 0
-16221 16224 0
-16219 -16221 16225 0
-16223 16226 0
-16224 16226 0
-16223 -16224 16227 0
-16226 0
856 857 858 0
-16228 0
-856 16229 0
-857 16229 0
-856 -857 16230 0
-858 16231 0
-16228 16231 0
-858 -16228 16232 0
-16229 16233 0
-16231 16233 0
-16229 -16231 16234 0
-16230 16235 0
-16232 16235 0
-16230 -16232 16236 0
-16234 16237 0
-16235 16237 0
-16234 -16235 16238 0
-16237 0
1276 1277 1278 0
-16239 0
-1276 16240 0
-1277 16240 0
-1276 -1277 16241 0
-1278 16242 0
-16239 16242 0
-1278 -16239 16243 0
-16240 16244 0
-16242 16244 0
-16240 -16242 16245 0
-16241 16246 0
-16243 16246 0
-16241 -16243 16247 0
-16245 16248 0
-16246 16248 0
-16245 -16246 16249 0
-16248 0
1696 1697 1698 0
-16250 0
-1696 16251 0
-1697 16251 0
-1696 -1697 16252 0
-1698 16253 0
-16250 16253 0
-1698 -16250 16254 0
-16251 16255 0
-16253 16255 0
-16251 -16253 16256 0
-16252 16257 0
-16254 16257 0
-16252 -16254 16258 0
-16256 16259 0
-16257 16259 0
-16256 -16257 16260 0
-16259 0
2116 2117 2118 0
-16261 0
-2116 16262 0
-2117 16262 0
-2116 -2117 16263 0
-2118 16264 0
-16261 16264 0
-2118 -16261 16265 0
-16262 16266 0
-16264 16266 0
-16262 -16264 16267 0
-16263 16268 0
-16265 16268 0
-16263 -16265 16269 0
-16267 16270 0
-16268 16270 0
-16267 -16268 16271 0
-16270 0
2536 2537 2538 0
-16272 0
-2536 16273 0
-2537 16273 0
-2536 -2537 16274 0
-2538 16275 0
-16272 16275 0
-2538 -16272 16276 0
-16273 16277 0
-16275 16277 0
-16273 -16275 16278 0
-16274 16279 0
-16276 16279 0
-16274 -16276 16280 0
-16278 16281 0
-16279 16281 0
-16278 -16279 16282 0
-16281 0
19 20 21 0
-16283 0
-19 16284 0
-20 16284 0
-19 -20 16285 0
-21 16286 0
-16283 16286 0
-21 -16283 16287 0
-16284 16288 0
-16286 16288 0
-16284 -16286 16289 0
-16285 16290 0
-16287 16290 0
-16285 -16287 16291 0
-16289 16292 0
-16290 16292 0
-16289 -16290 16293 0
-16292 0
439 440 441 0
-16294 0
-439 16295 0
-440 16295 0
-439 -440 16296 0
-441 16297 0
-16294 16297 0
-441 -16294 16298 0
-16295 16299 0
-16297 16299 0
-16295 -16297 16300 0
-16296 16301 0
-16298 16301 0
-16296 -16298 16302 0
-16300 16303 0
-16301 16303 0
-16300 -16301 16304 0
-16303 0
859 860 861 0
-16305 0
-859 16306 0
-860 16306 0
-859 -860 16307 0
-861 16308 0
-16305 16308 0
-861 -16305 16309 0
-16306 16310 0
-16308 16310 0
-16306 -16308 16311 0
-16307 16312 0
-16309 16312 0
-16307 -16309 16313 0
-16311 16314 0
-16312 16314 0
-16311 -16312 16315 0
-16314 0
1279 1280 1281 0
-16316 0
-1279 16317 0
-1280 16317 0
-1279 -1280 16318 0
-1281 16319 0
-16316 16319 0
-1281 -16316 16320 0
-16317 16321 0
-16319 16321 0
-16317 -16319 16322 0
-16318 16323 0
-16320 16323 0
-16318 -16320 16324 0
-16322 16325 0
-16323 16325 0
-16322 -16323 16326 0
-16325 0
1699 1700 1701 0
-16327 0
-1699 16328 0
-1700 16328 0
-1699 -1700 16329 0
-1701 16330 0
-16327 16330 0
-1701 -16327 16331 0
-16328 16332 0
-16330 16332 0
-16328 -16330 16333 0
-16329 16334 0
-16331 16334 0
-16329 -16331 16335 0
-16333 16336 0
-16334 16336 0
-16333 -16334 16337 0
-16336 0
2119 2120 2121 0
-16338 0
-2119 16339 0
-2120 16339 0
-2119 -2120 16340 0
-2121 16341 0
-16338 16341 0
-2121 -16338 16342 0
-16339 16343 0
-16341 16343 0
-16339 -16341 16344 0
-16340 16345 0
-16342 16345 0
-16340 -16342 16346 0
-16344 16347 0
-16345 16347 0
-16344 -16345 16348 0
-16347 0
2539 2540 2541 0
-16349 0
-2539 16350 0
-2540 16350 0
-2539 -2540 16351 0
-2541 16352 0
-16349 16352 0
-2541 -16349 16353 0
-16350 16354 0
-16352 16354 0
-16350 -16352 16355 0
-16351 16356 0
-16353 16356 0
-16351 -16353 16357 0
-16355 16358 0
-16356 16358 0
-16355 -16356 16359 0
-16358 0
22 23 24 0
-16360 0
-22 16361 0
-23 16361 0
-22 -23 16362 0
-24 16363 0
-16360 16363 0
-24 -16360 16364 0
-16361 16365 0
-16363 16365 0
-16361 -16363 16366 0
-16362 16367 0
-16364 16367 0
-16362 -16364 16368 0
-16366 16369 0
-16367 16369 0
-16366 -16367 16370 0
-16369 0
442 443 444 0
-16371 0
-442 16372 0
-443 16372 0
-442 -443 16373 0
-444 16374 0
-16371 16374 0
-444 -16371 16375 0
-16372 16376 0
-16374 16376 0
-16372 -16374 16377 0
-16373 16378 0
-16375 16378 0
-16373 -16375 16379 0
-16377 16380 0
-16378 16380 0
-16377 -16378 16381 0
-16380 0
862 863 864 0
-16382 0
-862 16383 0
-863 16383 0
-862 -863 16384 0
-864 16385 0
-16382 16385 0
-864 -16382 16386 0
-16383 16387 0
-16385 16387 0
-16383 -16385 16388 0
-16384 16389 0
-16386 16389 0
-16384 -16386 16390 0
-16388 16391 0
-16389 16391 0
-16388 -16389 16392 0
-16391 0
1282 1283 1284 0
-16393 0
-1282 16394 0
-1283 16394 0
-1282 -1283 16395 0
-1284 16396 0
-16393 16396 0
-1284 -16393 16397 0
-16394 16398 0
-16396 16398 0
-16394 -16396 16399 0
-16395 16400 0
-16397 16400 0
-16395 -16397 16401 0
-16399 16402 0
-16400 16402 0
-16399 -16400 16403 0
-16402 0
1702 1703 1704 0
-16404 0
-1702 16405 0
-1703 16405 0
-1702 -1703 16406 0
-1704 16407 0
-16404 16407 0
-1704 -16404 16408 0
-16405 16409 0
-16407 16409 0
-16405 -16407 16410 0
-16406 16411 0
-16408 16411 0
-16406 -16408 16412 0
-16410 16413 0
-16411 16413 0
-16410 -16411 16414 0
-16413 0
2122 2123 2124 0
-16415 0
-2122 16416 0
-2123 16416 0
-2122 -2123 16417 0
-2124 16418 0
-16415 16418 0
-2124 -16415 16419 0
-16416 16420 0
-16418 16420 0
-16416 -16418 16421 0
-16417 16422 0
-16419 16422 0
-16417 -16419 16423 0
-16421 16424 0
-16422 16424 0
-16421 -16422 16425 0
-16424 0
2542 2543 2544 0
-16426 0
-2542 16427 0
-2543 16427 0
-2542 -2543 16428 0
-2544 16429 0
-16426 16429 0
-2544 -16426 16430 0
-16427 16431 0
-16429 16431 0
-16427 -16429 16432 0
-16428 16433 0
-16430 16433 0
-16428 -16430 16434 0
-16432 16435 0
-16433 16435 0
-16432 -16433 16436 0
-16435 0
25 26 27 0
-16437 0
-25 16438 0
-26 16438 0
-25 -26 16439 0
-27 16440 0
-16437 16440 0
-27 -16437 16441 0
-16438 16442 0
-16440 16442 0
-16438 -16440 16443 0
-16439 16444 0
-16441 16444 0
-16439 -16441 16445 0
-16443 16446 0
-16444 16446 0
-16443 -16444 16447 0
-16446 0
445 446 447 0
-16448 0
-445 16449 0
-446 16449 0
-445 -446 16450 0
-447 16451 0
-16448 16451 0
-447 -16448 16452 0
-16449 16453 0
-16451 16453 0
-16449 -16451 16454 0
-16450 16455 0
-16452 16455 0
-16450 -16452 16456 0
-16454 16457 0
-16455 16457 0
-16454 -16455 16458 0
-16457 0
865 866 867 0
-16459 0
-865 16460 0
-866 16460 0
-865 -866 16461 0
-867 16462 0
-16459 16462 0
-867 -16459 16463 0
-16460 16464 0
-16462 16464 0
-16460 -16462 16465 0
-16461 16466 0
-16463 16466 0
-16461 -16463 16467 0
-16465 16468 0
-16466 16468 0
-16465 -16466 16469 0
-16468 0
1285 1286 1287 0
-16470 0
-1285 16471 0
-1286 16471 0
-1285 -1286 16472 0
-1287 16473 0
-16470 16473 0
-1287 -16470 16474 0
-16471 16475 0
-16473 16475 0
-16471 -16473 16476 0
-16472 16477 0
-16474 16477 0
-16472 -16474 16478 0
-16476 16479 0
-16477 16479 0
-16476 -16477 16480 0
-16479 0
1705 1706 1707 0
-16481 0
-1705 16482 0
-1706 16482 0
-1705 -1706 16483 0
-1707 16484 0
-16481 16484 0
-1707 -16481 16485 0
-16482 16486 0
-16484 16486 0
-16482 -16484 16487 0
-16483 16488 0
-16485 16488 0
-16483 -16485 16489 0
-16487 16490 0
-16488 16490 0
-16487 -16488 16491 0
-16490 0
2125 2126 2127 0
-16492 0
-2125 16493 0
-2126 16493 0
-2125 -2126 16494 0
-2127 16495 0
-16492 16495 0
-2127 -16492 16496 0
-16493 16497 0
-16495 16497 0
-16493 -16495 16498 0
-16494 16499 0
-16496 16499 0
-16494 -16496 16500 0
-16498 16501 0
-16499 16501 0
-16498 -16499 16502 0
-16501 0
2545 2546 2547 0
-16503 0
-2545 16504 0
-2546 16504 0
-2545 -2546 16505 0
-2547 16506 0
-16503 16506 0
-2547 -16503 16507 0
-16504 16508 0
-16506 16508 0
-16504 -16506 16509 0
-16505 16510 0
-16507 16510 0
-16505 -16507 16511 0
-16509 16512 0
-16510 16512 0
-16509 -16510 16513 0
-16512 0
28 29 30 0
-16514 0
-28 16515 0
-29 16515 0
-28 -29 16516 0
-30 16517 0
-16514 16517 0
-30 -16514 16518 0
-16515 16519 0
-16517 16519 0
-16515 -16517 16520 0
-16516 16521 0
-16518 16521 0
-16516 -16518 16522 0
-16520 16523 0
-16521 16523 0
-16520 -16521 16524 0
-16523 0
448 449 450 0
-16525 0
-448 16526 0
-449 16526 0
-448 -449 16527 0
-450 16528 0
-16525 16528 0
-450 -16525 16529 0
-16526 16530 0
-16528 16530 0
-16526 -16528 16531 0
-16527 16532 0
-16529 16532 0
-16527 -16529 16533 0
-16531 16534 0
-16532 16534 0
-16531 -16532 16535 0
-16534 0
868 869 870 0
-16536 0
-868 16537 0
-869 16537 0
-868 -869 16538 0
-870 16539 0
-16536 16539 0
-870 -16536 16540 0
-16537 16541 0
-16539 16541 0
-16537 -16539 16542 0
-16538 16543 0
-16540 16543 0
-16538 -16540 16544 0
-16542 16545 0
-16543 16545 0
-16542 -16543 16546 0
-16545 0
1288 1289 1290 0
-16547 0
-1288 16548 0
-1289 16548 0
-1288 -1289 16549 0
-1290 16550 0
-16547 16550 0
-1290 -16547 16551 0
-16548 16552 0
-16550 16552 0
-16548 -16550 16553 0
-16549 16554 0
-16551 16554 0
-16549 -16551 16555 0
-16553 16556 0
-16554 16556 0
-16553 -16554 16557 0
-16556 0
1708 1709 1710 0
-16558 0
-1708 16559 0
-1709 16559 0
-1708 -1709 16560 0
-1710 16561 0
-16558 16561 0
-1710 -16558 16562 0
-16559 16563 0
-16561 16563 0
-16559 -16561 16564 0
-16560 16565 0
-16562 16565 0
-16560 -16562 16566 0
-16564 16567 0
-16565 16567 0
-16564 -16565 16568 0
-16567 0
2128 2129 2130 0
-16569 0
-2128 16570 0
-2129 16570 0
-2128 -2129 16571 0
-2130 16572 0
-16569 16572 0
-2130 -16569 16573 0
-16570 16574 0
-16572 16574 0
-16570 -16572 16575 0
-16571 16576 0
-16573 16576 0
-16571 -16573 16577 0
-16575 16578 0
-16576 16578 0
-16575 -16576 16579 0
-16578 0
2548 2549 2550 0
-16580 0
-2548 16581 0
-2549 16581 0
-2548 -2549 16582 0
-2550 16583 0
-16580 16583 0
-2550 -16580 16584 0
-16581 16585 0
-16583 16585 0
-16581 -16583 16586 0
-16582 16587 0
-16584 16587 0
-16582 -16584 16588 0
-16586 16589 0
-16587 16589 0
-16586 -16587 16590 0
-16589 0
31 32 33 0
-16591 0
-31 16592 0
-32 16592 0
-31 -32 16593 0
-33 16594 0
-16591 16594 0
-33 -16591 16595 0
-16592 16596 0
-16594 16596 0
-16592 -16594 16597 0
-16593 16598 0
-16595 16598 0
-16593 -16595 16599 0
-16597 16600 0
-16598 16600 0
-16597 -16598 16601 0
-16600 0
451 452 453 0
-16602 0
-451 16603 0
-452 16603 0
-451 -452 16604 0
-453 16605 0
-16602 16605 0
-453 -16602 16606 0
-16603 16607 0
-16605 16607 0
-16603 -16605 16608 0
-16604 16609 0
-16606 16609 0
-16604 -16606 16610 0
-16608 16611 0
-16609 16611 0
-16608 -16609 16612 0
-16611 0
871 872 873 0
-16613 0
-871 16614 0
-872 16614 0
-871 -872 16615 0
-873 16616 0
-16613 16616 0
-873 -16613 16617 0
-16614 16618 0
-16616 16618 0
-16614 -16616 16619 0
-16615 16620 0
-16617 16620 0
-16615 -16617 16621 0
-16619 16622 0
-16620 16622 0
-16619 -16620 16623 0
-16622 0
1291 1292 1293 0
-16624 0
-1291 16625 0
-1292 16625 0
-1291 -1292 16626 0
-1293 16627 0
-16624 16627 0
-1293 -16624 16628 0
-16625 16629 0
-16627 16629 0
-16625 -16627 16630 0
-16626 16631 0
-16628 16631 0
-16626 -16628 16632 0
-16630 16633 0
-16631 16633 0
-16630 -16631 16634 0
-16633 0
1711 1712 1713 0
-16635 0
-1711 16636 0
-1712 16636 0
-1711 -1712 16637 0
-1713 16638 0
-16635 16638 0
-1713 -16635 16639 0
-16636 16640 0
-16638 16640 0
-16636 -16638 16641 0
-16637 16642 0
-16639 16642 0
-16637 -16639 16643 0
-16641 16644 0
-16642 16644 0
-16641 -16642 16645 0
-16644 0
2131 2132 2133 0
-16646 0
-2131 16647 0
-2132 16647 0
-2131 -2132 16648 0
-2133 16649 0
-16646 16649 0
-2133 -16646 16650 0
-16647 16651 0
-16649 16651 0
-16647 -16649 16652 0
-16648 16653 0
-16650 16653 0
-16648 -16650 16654 0
-16652 16655 0
-16653 16655 0
-16652 -16653 16656 0
-16655 0
2551 2552 2553 0
-16657 0
-2551 16658 0
-2552 16658 0
-2551 -2552 16659 0
-2553 16660 0
-16657 16660 0
-2553 -16657 16661 0
-16658 16662 0
-16660 16662 0
-16658 -16660 16663 0
-16659 16664 0
-16661 16664 0
-16659 -16661 16665 0
-16663 16666 0
-16664 16666 0
-16663 -16664 16667 0
-16666 0
34 35 36 0
-16668 0
-34 16669 0
-35 16669 0
-34 -35 16670 0
-36 16671 0
-16668 16671 0
-36 -16668 16672 0
-16669 16673 0
-16671 16673 0
-16669 -16671 16674 0
-16670 16675 0
-16672 16675 0
-16670 -16672 16676 0
-16674 16677 0
-16675 16677 0
-16674 -16675 16678 0
-16677 0
454 455 456 0
-16679 0
-454 16680 0
-455 16680 0
-454 -455 16681 0
-456 16682 0
-16679 16682 0
-456 -16679 16683 0
-16680 16684 0
-16682 16684 0
-16680 -16682 16685 0
-16681 16686 0
-16683 16686 0
-16681 -16683 16687 0
-16685 16688 0
-16686 16688 0
-16685 -16686 16689 0
-16688 0
874 875 876 0
-16690 0
-874 16691 0
-875 16691 0
-874 -875 16692 0
-876 16693 0
-16690 16693 0
-876 -16690 16694 0
-16691 16695 0
-16693 16695 0
-16691 -16693 16696 0
-16692 16697 0
-16694 16697 0
-16692 -16694 16698 0
-16696 16699 0
-16697 16699 0
-16696 -16697 16700 0
-16699 0
1294 1295 1296 0
-16701 0
-1294 16702 0
-1295 16702 0
-1294 -1295 16703 0
-1296 16704 0
-16701 16704 0
-1296 -16701 16705 0
-16702 16706 0
-16704 16706 0
-16702 -16704 16707 0
-16703 16708 0
-16705 16708 0
-16703 -16705 16709 0
-16707 16710 0
-16708 16710 0
-16707 -16708 16711 0
-16710 0
1714 1715 1716 0
-16712 0
-1714 16713 0
-1715 16713 0
-1714 -1715 16714 0
-1716 16715 0
-16712 16715 0
-1716 -16712 16716 0
-16713 16717 0
-16715 16717 0
-16713 -16715 16718 0
-16714 16719 0
-16716 16719 0
-16714 -16716 16720 0
-16718 16721 0
-16719 16721 0
-16718 -16719 16722 0
-16721 0
2134 2135 2136 0
-16723 0
-2134 16724 0
-2135 16724 0
-2134 -2135 16725 0
-2136 16726 0
-16723 16726 0
-2136 -16723 16727 0
-16724 16728 0
-16726 16728 0
-16724 -16726 16729 0
-16725 16730 0
-16727 16730 0
-16725 -16727 16731 0
-16729 16732 0
-16730 16732 0
-16729 -16730 16733 0
-16732 0
2554 2555 2556 0
-16734 0
-2554 16735 0
-2555 16735 0
-2554 -2555 16736 0
-2556 16737 0
-16734 16737 0
-2556 -16734 16738 0
-16735 16739 0
-16737 16739 0
-16735 -16737 16740 0
-16736 16741 0
-16738 16741 0
-16736 -16738 16742 0
-16740 16743 0
-16741 16743 0
-16740 -16741 16744 0
-16743 0
37 38 39 0
-16745 0
-37 16746 0
-38 16746 0
-37 -38 16747 0
-39 16748 0
-16745 16748 0
-39 -16745 16749 0
-16746 16750 0
-16748 16750 0
-16746 -16748 16751 0
-16747 16752 0
-16749 16752 0
-16747 -16749 16753 0
-16751 16754 0
-16752 16754 0
-16751 -16752 16755 0
-16754 0
457 458 459 0
-16756 0
-457 16757 0
-458 16757 0
-457 -458 16758 0
-459 16759 0
-16756 16759 0
-459 -16756 16760 0
-16757 16761 0
-16759 16761 0
-16757 -16759 16762 0
-16758 16763 0
-16760 16763 0
-16758 -16760 16764 0
-16762 16765 0
-16763 16765 0
-16762 -16763 16766 0
-16765 0
877 878 879 0
-16767 0
-877 16768 0
-878 16768 0
-877 -878 16769 0
-879 16770 0
-16767 16770 0
-879 -16767 16771 0
-16768 16772 0
-16770 16772 0
-16768 -16770 16773 0
-16769 16774 0
-16771 16774 0
-16769 -16771 16775 0
-16773 16776 0
-16774 16776 0
-16773 -16774 16777 0
-16776 0
1297 1298 1299 0
-16778 0
-1297 16779 0
-1298 16779 0
-1297 -1298 16780 0
-1299 16781 0
-16778 16781 0
-1299 -16778 16782 0
-16779 16783 0
-16781 16783 0
-16779 -16781 16784 0
-16780 16785 0
-16782 16785 0
-16780 -16782 16786 0
-16784 16787 0
-16785 16787 0
-16784 -16785 16788 0
-16787 0
1717 1718 1719 0
-16789 0
-1717 16790 0
-1718 16790 0
-1717 -1718 16791 0
-1719 16792 0
-16789 16792 0
-1719 -16789 16793 0
-16790 16794 0
-16792 16794 0
-16790 -16792 16795 0
-16791 16796 0
-16793 16796 0
-16791 -16793 16797 0
-16795 16798 0
-16796 16798 0
-16795 -16796 16799 0
-16798 0
2137 2138 2139 0
-16800 0
-2137 16801 0
-2138 16801 0
-2137 -2138 16802 0
-2139 16803 0
-16800 16803 0
-2139 -16800 16804 0
-16801 16805 0
-16803 16805 0
-16801 -16803 16806 0
-16802 16807 0
-16804 16807 0
-16802 -16804 16808 0
-16806 16809 0
-16807 16809 0
-16806 -16807 16810 0
-16809 0
2557 2558 2559 0
-16811 0
-2557 16812 0
-2558 16812 0
-2557 -2558 16813 0
-2559 16814 0
-16811 16814 0
-2559 -16811 16815 0
-16812 16816 0
-16814 16816 0
-16812 -16814 16817 0
-16813 16818 0
-16815 16818 0
-16813 -16815 16819 0
-16817 16820 0
-16818 16820 0
-16817 -16818 16821 0
-16820 0
40 41 42 0
-16822 0
-40 16823 0
-41 16823 0
-40 -41 16824 0
-42 16825 0
-16822 16825 0
-42 -16822 16826 0
-16823 16827 0
-16825 16827 0
-16823 -16825 16828 0
-16824 16829 0
-16826 16829 0
-16824 -16826 16830 0
-16828 16831 0
-16829 16831 0
-16828 -16829 16832 0
-16831 0
460 461 462 0
-16833 0
-460 16834 0
-461 16834 0
-460 -461 16835 0
-462 16836 0
-16833 16836 0
-462 -16833 16837 0
-16834 16838 0
-16836 16838 0
-16834 -16836 16839 0
-16835 16840 0
-16837 16840 0
-16835 -16837 16841 0
-16839 16842 0
-16840 16842 0
-16839 -16840 16843 0
-16842 0
880 881 882 0
-16844 0
-880 16845 0
-881 16845 0
-880 -881 16846 0
-882 16847 0
-16844 16847 0
-882 -16844 16848 0
-16845 16849 0
-16847 16849 0
-16845 -16847 16850 0
-16846 16851 0
-16848 16851 0
-16846 -16848 16852 0
-16850 16853 0
-16851 16853 0
-16850 -16851 16854 0
-16853 0
1300 1301 1302 0
-16855 0
-1300 16856 0
-1301 16856 0
-1300 -1301 16857 0
-1302 16858 0
-16855 16858 0
-1302 -16855 16859 0
-16856 16860 0
-16858 16860 0
-16856 -16858 16861 0
-16857 16862 0
-16859 16862 0
-16857 -16859 16863 0
-16861 16864 0
-16862 16864 0
-16861 -16862 16865 0
-16864 0
1720 1721 1722 0
-16866 0
-1720 16867 0
-1721 16867 0
-1720 -1721 16868 0
-1722 16869 0
-16866 16869 0
-1722 -16866 16870 0
-16867 16871 0
-16869 16871 0
-16867 -16869 16872 0
-16868 16873 0
-16870 16873 0
-16868 -16870 16874 0
-16872 16875 0
-16873 16875 0
-16872 -16873 16876 0
-16875 0
2140 2141 2142 0
-16877 0
-2140 16878 0
-2141 16878 0
-2140 -2141 16879 0
-2142 16880 0
-16877 16880 0
-2142 -16877 16881 0
-16878 16882 0
-16880 16882 0
-16878 -16880 16883 0
-16879 16884 0
-16881 16884 0
-16879 -16881 16885 0
-16883 16886 0
-16884 16886 0
-16883 -16884 16887 0
-16886 0
2560 2561 2562 0
-16888 0
-2560 16889 0
-2561 16889 0
-2560 -2561 16890 0
-2562 16891 0
-16888 16891 0
-2562 -16888 16892 0
-16889 16893 0
-16891 16893 0
-16889 -16891 16894 0
-16890 16895 0
-16892 16895 0
-16890 -16892 16896 0
-16894 16897 0
-16895 16897 0
-16894 -16895 16898 0
-16897 0
43 44 45 0
-16899 0
-43 16900 0
-44 16900 0
-43 -44 16901 0
-45 16902 0
-16899 16902 0
-45 -16899 16903 0
-16900 16904 0
-16902 16904 0
-16900 -16902 16905 0
-16901 16906 0
-16903 16906 0
-16901 -16903 16907 0
-16905 16908 0
-16906 16908 0
-16905 -16906 16909 0
-16908 0
463 464 465 0
-16910 0
-463 16911 0
-464 16911 0
-463 -464 16912 0
-465 16913 0
-16910 16913 0
-465 -16910 16914 0
-16911 16915 0
-16913 16915 0
-16911 -16913 16916 0
-16912 16917 0
-16914 16917 0
-16912 -16914 16918 0
-16916 16919 0
-16917 16919 0
-16916 -16917 16920 0
-16919 0
883 884 885 0
-16921 0
-883 16922 0
-884 16922 0
-883 -884 16923 0
-885 16924 0
-16921 16924 0
-885 -16921 16925 0
-16922 16926 0
-16924 16926 0
-16922 -16924 16927 0
-16923 16928 0
-16925 16928 0
-16923 -16925 16929 0
-16927 16930 0
-16928 16930 0
-16927 -16928 16931 0
-16930 0
1303 1304 1305 0
-16932 0
-1303 16933 0
-1304 16933 0
-1303 -1304 16934 0
-1305 16935 0
-16932 16935 0
-1305 -16932 16936 0
-16933 16937 0
-16935 16937 0
-16933 -16935 16938 0
-16934 16939 0
-16936 16939 0
-16934 -16936 16940 0
-16938 16941 0
-16939 16941 0
-16938 -16939 16942 0
-16941 0
1723 1724 1725 0
-16943 0
-1723 16944 0
-1724 16944 0
-1723 -1724 16945 0
-1725 16946 0
-16943 16946 0
-1725 -16943 16947 0
-16944 16948 0
-16946 16948 0
-16944 -16946 16949 0
-16945 16950 0
-16947 16950 0
-16945 -16947 16951 0
-16949 16952 0
-16950 16952 0
-16949 -16950 16953 0
-16952 0
2143 2144 2145 0
-16954 0
-2143 16955 0
-2144 16955 0
-2143 -2144 16956 0
-2145 16957 0
-16954 16957 0
-2145 -16954 16958 0
-16955 16959 0
-16957 16959 0
-16955 -16957 16960 0
-16956 16961 0
-16958 16961 0
-16956 -16958 16962 0
-16960 16963 0
-16961 16963 0
-16960 -16961 16964 0
-16963 0
2563 2564 2565 0
-16965 0
-2563 16966 0
-2564 16966 0
-2563 -2564 16967 0
-2565 16968 0
-16965 16968 0
-2565 -16965 16969 0
-16966 16970 0
-16968 16970 0
-16966 -16968 16971 0
-16967 16972 0
-16969 16972 0
-16967 -16969 16973 0
-16971 16974 0
-16972 16974 0
-16971 -16972 16975 0
-16974 0
46 47 48 0
-16976 0
-46 16977 0
-47 16977 0
-46 -47 16978 0
-48 16979 0
-16976 16979 0
-48 -16976 16980 0
-16977 16981 0
-16979 16981 0
-16977 -16979 16982 0
-16978 16983 0
-16980 16983 0
-16978 -16980 16984 0
-16982 16985 0
-16983 16985 0
-16982 -16983 16986 0
-16985 0
466 467 468 0
-16987 0
-466 16988 0
-467 16988 0
-466 -467 16989 0
-468 16990 0
-16987 16990 0
-468 -16987 16991 0
-16988 16992 0
-16990 16992 0
-16988 -16990 16993 0
-16989 16994 0
-16991 16994 0
-16989 -16991 16995 0
-16993 16996 0
-16994 16996 0
-16993 -16994 16997 0
-16996 0
886 887 888 0
-16998 0
-886 16999 0
-887 16999 0
-886 -887 17000 0
-888 17001 0
-16998 17001 0
-888 -16998 17002 0
-16999 17003 0
-17001 17003 0
-16999 -17001 17004 0
-17000 17005 0
-17002 17005 0
-17000 -17002 17006 0
-17004 17007 0
-17005 17007 0
-17004 -17005 17008 0
-17007 0
1306 1307 1308 0
-17009 0
-1306 17010 0
-1307 17010 0
-1306 -1307 17011 0
-1308 17012 0
-17009 17012 0
-1308 -17009 17013 0
-17010 17014 0
-17012 17014 0
-17010 -17012 17015 0
-17011 17016 0
-17013 17016 0
-17011 -17013 17017 0
-17015 17018 0
-17016 17018 0
-17015 -17016 17019 0
-17018 0
1726 1727 1728 0
-17020 0
-1726 17021 0
-1727 17021 0
-1726 -1727 17022 0
-1728 17023 0
-17020 17023 0
-1728 -17020 17024 0
-17021 17025 0
-17023 17025 0
-17021 -17023 17026 0
-17022 17027 0
-17024 17027 0
-17022 -17024 17028 0
-17026 17029 0
-17027 17029 0
-17026 -17027 17030 0
-17029 0
2146 2147 2148 0
-17031 0
-2146 17032 0
-2147 17032 0
-2146 -2147 17033 0
-2148 17034 0
-17031 17034 0
-2148 -17031 17035 0
-17032 17036 0
-17034 17036 0
-17032 -17034 17037 0
-17033 17038 0
-17035 17038 0
-17033 -17035 17039 0
-17037 17040 0
-17038 17040 0
-17037 -17038 17041 0
-17040 0
2566 2567 2568 0
-17042 0
-2566 17043 0
-2567 17043 0
-2566 -2567 17044 0
-2568 17045 0
-17042 17045 0
-2568 -17042 17046 0
-17043 17047 0
-17045 17047 0
-17043 -17045 17048 0
-17044 17049 0
-17046 17049 0
-17044 -17046 17050 0
-17048 17051 0
-17049 17051 0
-17048 -17049 17052 0
-17051 0
49 50 51 0
-17053 0
-49 17054 0
-50 17054 0
-49 -50 17055 0
-51 17056 0
-17053 17056 0
-51 -17053 17057 0
-17054 17058 0
-17056 17058 0
-17054 -17056 17059 0
-17055 17060 0
-17057 17060 0
-17055 -17057 17061 0
-17059 17062 0
-17060 17062 0
-17059 -17060 17063 0
-17062 0
469 470 471 0
-17064 0
-469 17065 0
-470 17065 0
-469 -470 17066 0
-471 17067 0
-17064 17067 0
-471 -17064 17068 0
-17065 17069 0
-17067 17069 0
-17065 -17067 17070 0
-17066 17071 0
-17068 17071 0
-17066 -17068 17072 0
-17070 17073 0
-17071 17073 0
-17070 -17071 17074 0
-17073 0
889 890 891 0
-17075 0
-889 17076 0
-890 17076 0
-889 -890 17077 0
-891 17078 0
-17075 17078 0
-891 -17075 17079 0
-17076 17080 0
-17078 17080 0
-17076 -17078 17081 0
-17077 17082 0
-17079 17082 0
-17077 -17079 17083 0
-17081 17084 0
-17082 17084 0
-17081 -17082 17085 0
-17084 0
1309 1310 1311 0
-17086 0
-1309 17087 0
-1310 17087 0
-1309 -1310 17088 0
-1311 17089 0
-17086 17089 0
-1311 -17086 17090 0
-17087 17091 0
-17089 17091 0
-17087 -17089 17092 0
-17088 17093 0
-17090 17093 0
-17088 -17090 17094 0
-17092 17095 0
-17093 17095 0
-17092 -17093 17096 0
-17095 0
1729 1730 1731 0
-17097 0
-1729 17098 0
-1730 17098 0
-1729 -1730 17099 0
-1731 17100 0
-17097 17100 0
-1731 -17097 17101 0
-17098 17102 0
-17100 17102 0
-17098 -17100 17103 0
-17099 17104 0
-17101 17104 0
-17099 -17101 17105 0
-17103 17106 0
-17104 17106 0
-17103 -17104 17107 0
-17106 0
2149 2150 2151 0
-17108 0
-2149 17109 0
-2150 17109 0
-2149 -2150 17110 0
-2151 17111 0
-17108 17111 0
-2151 -17108 17112 0
-17109 17113 0
-17111 17113 0
-17109 -17111 17114 0
-17110 17115 0
-17112 17115 0
-17110 -17112 17116 0
-17114 17117 0
-17115 17117 0
-17114 -17115 17118 0
-17117 0
2569 2570 2571 0
-17119 0
-2569 17120 0
-2570 17120 0
-2569 -2570 17121 0
-2571 17122 0
-17119 17122 0
-2571 -17119 17123 0
-17120 17124 0
-17122 17124 0
-17120 -17122 17125 0
-17121 17126 0
-17123 17126 0
-17121 -17123 17127 0
-17125 17128 0
-17126 17128 0
-17125 -17126 17129 0
-17128 0
52 53 54 0
-17130 0
-52 17131 0
-53 17131 0
-52 -53 17132 0
-54 17133 0
-17130 17133 0
-54 -17130 17134 0
-17131 17135 0
-17133 17135 0
-17131 -17133 17136 0
-17132 17137 0
-17134 17137 0
-17132 -17134 17138 0
-17136 17139 0
-17137 17139 0
-17136 -17137 17140 0
-17139 0
472 473 474 0
-17141 0
-472 17142 0
-473 17142 0
-472 -473 17143 0
-474 17144 0
-17141 17144 0
-474 -17141 17145 0
-17142 17146 0
-17144 17146 0
-17142 -17144 17147 0
-17143 17148 0
-17145 17148 0
-17143 -17145 17149 0
-17147 17150 0
-17148 17150 0
-17147 -17148 17151 0
-17150 0
892 893 894 0
-17152 0
-892 17153 0
-893 17153 0
-892 -893 17154 0
-894 17155 0
-17152 17155 0
-894 -17152 17156 0
-17153 17157 0
-17155 17157 0
-17153 -17155 17158 0
-17154 17159 0
-17156 17159 0
-17154 -17156 17160 0
-17158 17161 0
-17159 17161 0
-17158 -17159 17162 0
-17161 0
1312 1313 1314 0
-17163 0
-1312 17164 0
-1313 17164 0
-1312 -1313 17165 0
-1314 17166 0
-17163 17166 0
-1314 -17163 17167 0
-17164 17168 0
-17166 17168 0
-17164 -17166 17169 0
-17165 17170 0
-17167 17170 0
-17165 -17167 17171 0
-17169 17172 0
-17170 17172 0
-17169 -17170 17173 0
-17172 0
1732 1733 1734 0
-17174 0
-1732 17175 0
-1733 17175 0
-1732 -1733 17176 0
-1734 17177 0
-17174 17177 0
-1734 -17174 17178 0
-17175 17179 0
-17177 17179 0
-17175 -17177 17180 0
-17176 17181 0
-17178 17181 0
-17176 -17178 17182 0
-17180 17183 0
-17181 17183 0
-17180 -17181 17184 0
-17183 0
2152 2153 2154 0
-17185 0
-2152 17186 0
-2153 17186 0
-2152 -2153 17187 0
-2154 17188 0
-17185 17188 0
-2154 -17185 17189 0
-17186 17190 0
-17188 17190 0
-17186 -17188 17191 0
-17187 17192 0
-17189 17192 0
-17187 -17189 17193 0
-17191 17194 0
-17192 17194 0
-17191 -17192 17195 0
-17194 0
2572 2573 2574 0
-17196 0
-2572 17197 0
-2573 17197 0
-2572 -2573 17198 0
-2574 17199 0
-17196 17199 0
-2574 -17196 17200 0
-17197 17201 0
-17199 17201 0
-17197 -17199 17202 0
-17198 17203 0
-17200 17203 0
-17198 -17200 17204 0
-17202 17205 0
-17203 17205 0
-17202 -17203 17206 0
-17205 0
55 56 57 0
-17207 0
-55 17208 0
-56 17208 0
-55 -56 17209 0
-57 17210 0
-17207 17210 0
-57 -17207 17211 0
-17208 17212 0
-17210 17212 0
-17208 -17210 17213 0
-17209 17214 0
-17211 17214 0
-17209 -17211 17215 0
-17213 17216 0
-17214 17216 0
-17213 -17214 17217 0
-17216 0
475 476 477 0
-17218 0
-475 17219 0
-476 17219 0
-475 -476 17220 0
-477 17221 0
-17218 17221 0
-477 -17218 17222 0
-17219 17223 0
-17221 17223 0
-17219 -17221 17224 0
-17220 17225 0
-17222 17225 0
-17220 -17222 17226 0
-17224 17227 0
-17225 17227 0
-17224 -17225 17228 0
-17227 0
895 896 897 0
-17229 0
-895 17230 0
-896 17230 0
-895 -896 17231 0
-897 17232 0
-17229 17232 0
-897 -17229 17233 0
-17230 17234 0
-17232 17234 0
-17230 -17232 17235 0
-17231 17236 0
-17233 17236 0
-17231 -17233 17237 0
-17235 17238 0
-17236 17238 0
-17235 -17236 17239 0
-17238 0
1315 1316 1317 0
-17240 0
-1315 17241 0
-1316 17241 0
-1315 -1316 17242 0
-1317 17243 0
-17240 17243 0
-1317 -17240 17244 0
-17241 17245 0
-17243 17245 0
-17241 -17243 17246 0
-17242 17247 0
-17244 17247 0
-17242 -17244 17248 0
-17246 17249 0
-17247 17249 0
-17246 -17247 17250 0
-17249 0
1735 1736 1737 0
-17251 0
-1735 17252 0
-1736 17252 0
-1735 -1736 17253 0
-1737 17254 0
-17251 17254 0
-1737 -17251 17255 0
-17252 17256 0
-17254 17256 0
-17252 -17254 17257 0
-17253 17258 0
-17255 17258 0
-17253 -17255 17259 0
-17257 17260 0
-17258 17260 0
-17257 -17258 17261 0
-17260 0
2155 2156 2157 0
-17262 0
-2155 17263 0
-2156 17263 0
-2155 -2156 17264 0
-2157 17265 0
-17262 17265 0
-2157 -17262 17266 0
-17263 17267 0
-17265 17267 0
-17263 -17265 17268 0
-17264 17269 0
-17266 17269 0
-17264 -17266 17270 0
-17268 17271 0
-17269 17271 0
-17268 -17269 17272 0
-17271 0
2575 2576 2577 0
-17273 0
-2575 17274 0
-2576 17274 0
-2575 -2576 17275 0
-2577 17276 0
-17273 17276 0
-2577 -17273 17277 0
-17274 17278 0
-17276 17278 0
-17274 -17276 17279 0
-17275 17280 0
-17277 17280 0
-17275 -17277 17281 0
-17279 17282 0
-17280 17282 0
-17279 -17280 17283 0
-17282 0
58 59 60 0
-17284 0
-58 17285 0
-59 17285 0
-58 -59 17286 0
-60 17287 0
-17284 17287 0
-60 -17284 17288 0
-17285 17289 0
-17287 17289 0
-17285 -17287 17290 0
-17286 17291 0
-17288 17291 0
-17286 -17288 17292 0
-17290 17293 0
-17291 17293 0
-17290 -17291 17294 0
-17293 0
478 479 480 0
-17295 0
-478 17296 0
-479 17296 0
-478 -479 17297 0
-480 17298 0
-17295 17298 0
-480 -17295 17299 0
-17296 17300 0
-17298 17300 0
-17296 -17298 17301 0
-17297 17302 0
-17299 17302 0
-17297 -17299 17303 0
-17301 17304 0
-17302 17304 0
-17301 -17302 17305 0
-17304 0
898 899 900 0
-17306 0
-898 17307 0
-899 17307 0
-898 -899 17308 0
-900 17309 0
-17306 17309 0
-900 -17306 17310 0
-17307 17311 0
-17309 17311 0
-17307 -17309 17312 0
-17308 17313 0
-17310 17313 0
-17308 -17310 17314 0
-17312 17315 0
-17313 17315 0
-17312 -17313 17316 0
-17315 0
1318 1319 1320 0
-17317 0
-1318 17318 0
-1319 17318 0
-1318 -1319 17319 0
-1320 17320 0
-17317 17320 0
-1320 -17317 17321 0
-17318 17322 0
-17320 17322 0
-17318 -17320 17323 0
-17319 17324 0
-17321 17324 0
-17319 -17321 17325 0
-17323 17326 0
-17324 17326 0
-17323 -17324 17327 0
-17326 0
1738 1739 1740 0
-17328 0
-1738 17329 0
-1739 17329 0
-1738 -1739 17330 0
-1740 17331 0
-17328 17331 0
-1740 -17328 17332 0
-17329 17333 0
-17331 17333 0
-17329 -17331 17334 0
-17330 17335 0
-17332 17335 0
-17330 -17332 17336 0
-17334 17337 0
-17335 17337 0
-17334 -17335 17338 0
-17337 0
2158 2159 2160 0
-17339 0
-2158 17340 0
-2159 17340 0
-2158 -2159 17341 0
-2160 17342 0
-17339 17342 0
-2160 -17339 17343 0
-17340 17344 0
-17342 17344 0
-17340 -17342 17345 0
-17341 17346 0
-17343 17346 0
-17341 -17343 17347 0
-17345 17348 0
-17346 17348 0
-17345 -17346 17349 0
-17348 0
2578 2579 2580 0
-17350 0
-2578 17351 0
-2579 17351 0
-2578 -2579 17352 0
-2580 17353 0
-17350 17353 0
-2580 -17350 17354 0
-17351 17355 0
-17353 17355 0
-17351 -17353 17356 0
-17352 17357 0
-17354 17357 0
-17352 -17354 17358 0
-17356 17359 0
-17357 17359 0
-17356 -17357 17360 0
-17359 0
61 62 63 0
-17361 0
-61 17362 0
-62 17362 0
-61 -62 17363 0
-63 17364 0
-17361 17364 0
-63 -17361 17365 0
-17362 17366 0
-17364 17366 0
-17362 -17364 17367 0
-17363 17368 0
-17365 17368 0
-17363 -17365 17369 0
-17367 17370 0
-17368 17370 0
-17367 -17368 17371 0
-17370 0
481 482 483 0
-17372 0
-481 17373 0
-482 17373 0
-481 -482 17374 0
-483 17375 0
-17372 17375 0
-483 -17372 17376 0
-17373 17377 0
-17375 17377 0
-17373 -17375 17378 0
-17374 17379 0
-17376 17379 0
-17374 -17376 17380 0
-17378 17381 0
-17379 17381 0
-17378 -17379 17382 0
-17381 0
901 902 903 0
-17383 0
-901 17384 0
-902 17384 0
-901 -902 17385 0
-903 17386 0
-17383 17386 0
-903 -17383 17387 0
-17384 17388 0
-17386 17388 0
-17384 -17386 17389 0
-17385 17390 0
-17387 17390 0
-17385 -17387 17391 0
-17389 17392 0
-17390 17392 0
-17389 -17390 17393 0
-17392 0
1321 1322 1323 0
-17394 0
-1321 17395 0
-1322 17395 0
-1321 -1322 17396 0
-1323 17397 0
-17394 17397 0
-1323 -17394 17398 0
-17395 17399 0
-17397 17399 0
-17395 -17397 17400 0
-17396 17401 0
-17398 17401 0
-17396 -17398 17402 0
-17400 17403 0
-17401 17403 0
-17400 -17401 17404 0
-17403 0
1741 1742 1743 0
-17405 0
-1741 17406 0
-1742 17406 0
-1741 -1742 17407 0
-1743 17408 0
-17405 17408 0
-1743 -17405 17409 0
-17406 17410 0
-17408 17410 0
-17406 -17408 17411 0
-17407 17412 0
-17409 17412 0
-17407 -17409 17413 0
-17411 17414 0
-17412 17414 0
-17411 -17412 17415 0
-17414 0
2161 2162 2163 0
-17416 0
-2161 17417 0
-2162 17417 0
-2161 -2162 17418 0
-2163 17419 0
-17416 17419 0
-2163 -17416 17420 0
-17417 17421 0
-17419 17421 0
-17417 -17419 17422 0
-17418 17423 0
-17420 17423 0
-17418 -17420 17424 0
-17422 17425 0
-17423 17425 0
-17422 -17423 17426 0
-17425 0
2581 2582 2583 0
-17427 0
-2581 17428 0
-2582 17428 0
-2581 -2582 17429 0
-2583 17430 0
-17427 17430 0
-2583 -17427 17431 0
-17428 17432 0
-17430 17432 0
-17428 -17430 17433 0
-17429 17434 0
-17431 17434 0
-17429 -17431 17435 0
-17433 17436 0
-17434 17436 0
-17433 -17434 17437 0
-17436 0
64 65 66 0
-17438 0
-64 17439 0
-65 17439 0
-64 -65 17440 0
-66 17441 0
-17438 17441 0
-66 -17438 17442 0
-17439 17443 0
-17441 17443 0
-17439 -17441 17444 0
-17440 17445 0
-17442 17445 0
-17440 -17442 17446 0
-17444 17447 0
-17445 17447 0
-17444 -17445 17448 0
-17447 0
484 485 486 0
-17449 0
-484 17450 0
-485 17450 0
-484 -485 17451 0
-486 17452 0
-17449 17452 0
-486 -17449 17453 0
-17450 17454 0
-17452 17454 0
-17450 -17452 17455 0
-17451 17456 0
-17453 17456 0
-17451 -17453 17457 0
-17455 17458 0
-17456 17458 0
-17455 -17456 17459 0
-17458 0
904 905 906 0
-17460 0
-904 17461 0
-905 17461 0
-904 -905 17462 0
-906 17463 0
-17460 17463 0
-906 -17460 17464 0
-17461 17465 0
-17463 17465 0
-17461 -17463 17466 0
-17462 17467 0
-17464 17467 0
-17462 -17464 17468 0
-17466 17469 0
-17467 17469 0
-17466 -17467 17470 0
-17469 0
1324 1325 1326 0
-17471 0
-1324 17472 0
-1325 17472 0
-1324 -1325 17473 0
-1326 17474 0
-17471 17474 0
-1326 -17471 17475 0
-17472 17476 0
-17474 17476 0
-17472 -17474 17477 0
-17473 17478 0
-17475 17478 0
-17473 -17475 17479 0
-17477 17480 0
-17478 17480 0
-17477 -17478 17481 0
-17480 0
1744 1745 1746 0
-17482 0
-1744 17483 0
-1745 17483 0
-1744 -1745 17484 0
-1746 17485 0
-17482 17485 0
-1746 -17482 17486 0
-17483 17487 0
-17485 17487 0
-17483 -17485 17488 0
-17484 17489 0
-17486 17489 0
-17484 -17486 17490 0
-17488 17491 0
-17489 17491 0
-17488 -17489 17492 0
-17491 0
2164 2165 2166 0
-17493 0
-2164 17494 0
-2165 17494 0
-2164 -2165 17495 0
-2166 17496 0
-17493 17496 0
-2166 -17493 17497 0
-17494 17498 0
-17496 17498 0
-17494 -17496 17499 0
-17495 17500 0
-17497 17500 0
-17495 -17497 17501 0
-17499 17502 0
-17500 17502 0
-17499 -17500 17503 0
-17502 0
2584 2585 2586 0
-17504 0
-2584 17505 0
-2585 17505 0
-2584 -2585 17506 0
-2586 17507 0
-17504 17507 0
-2586 -17504 17508 0
-17505 17509 0
-17507 17509 0
-17505 -17507 17510 0
-17506 17511 0
-17508 17511 0
-17506 -17508 17512 0
-17510 17513 0
-17511 17513 0
-17510 -17511 17514 0
-17513 0
67 68 69 0
-17515 0
-67 17516 0
-68 17516 0
-67 -68 17517 0
-69 17518 0
-17515 17518 0
-69 -17515 17519 0
-17516 17520 0
-17518 17520 0
-17516 -17518 17521 0
-17517 17522 0
-17519 17522 0
-17517 -17519 17523 0
-17521 17524 0
-17522 17524 0
-17521 -17522 17525 0
-17524 0
487 488 489 0
-17526 0
-487 17527 0
-488 17527 0
-487 -488 17528 0
-489 17529 0
-17526 17529 0
-489 -17526 17530 0
-17527 17531 0
-17529 17531 0
-17527 -17529 17532 0
-17528 17533 0
-17530 17533 0
-17528 -17530 17534 0
-17532 17535 0
-17533 17535 0
-17532 -17533 17536 0
-17535 0
907 908 909 0
-17537 0
-907 17538 0
-908 17538 0
-907 -908 17539 0
-909 17540 0
-17537 17540 0
-909 -17537 17541 0
-17538 17542 0
-17540 17542 0
-17538 -17540 17543 0
-17539 17544 0
-17541 17544 0
-17539 -17541 17545 0
-17543 17546 0
-17544 17546 0
-17543 -17544 17547 0
-17546 0
1327 1328 1329 0
-17548 0
-1327 17549 0
-1328 17549 0
-1327 -1328 17550 0
-1329 17551 0
-17548 17551 0
-1329 -17548 17552 0
-17549 17553 0
-17551 17553 0
-17549 -17551 17554 0
-17550 17555 0
-17552 17555 0
-17550 -17552 17556 0
-17554 17557 0
-17555 17557 0
-17554 -17555 17558 0
-17557 0
1747 1748 1749 0
-17559 0
-1747 17560 0
-1748 17560 0
-1747 -1748 17561 0
-1749 17562 0
-17559 17562 0
-1749 -17559 17563 0
-17560 17564 0
-17562 17564 0
-17560 -17562 17565 0
-17561 17566 0
-17563 17566 0
-17561 -17563 17567 0
-17565 17568 0
-17566 17568 0
-17565 -17566 17569 0
-17568 0
2167 2168 2169 0
-17570 0
-2167 17571 0
-2168 17571 0
-2167 -2168 17572 0
-2169 17573 0
-17570 17573 0
-2169 -17570 17574 0
-17571 17575 0
-17573 17575 0
-17571 -17573 17576 0
-17572 17577 0
-17574 17577 0
-17572 -17574 17578 0
-17576 17579 0
-17577 17579 0
-17576 -17577 17580 0
-17579 0
2587 2588 2589 0
-17581 0
-2587 17582 0
-2588 17582 0
-2587 -2588 17583 0
-2589 17584 0
-17581 17584 0
-2589 -17581 17585 0
-17582 17586 0
-17584 17586 0
-17582 -17584 17587 0
-17583 17588 0
-17585 17588 0
-17583 -17585 17589 0
-17587 17590 0
-17588 17590 0
-17587 -17588 17591 0
-17590 0
70 71 72 0
-17592 0
-70 17593 0
-71 17593 0
-70 -71 17594 0
-72 17595 0
-17592 17595 0
-72 -17592 17596 0
-17593 17597 0
-17595 17597 0
-17593 -17595 17598 0
-17594 17599 0
-17596 17599 0
-17594 -17596 17600 0
-17598 17601 0
-17599 17601 0
-17598 -17599 17602 0
-17601 0
490 491 492 0
-17603 0
-490 17604 0
-491 17604 0
-490 -491 17605 0
-492 17606 0
-17603 17606 0
-492 -17603 17607 0
-17604 17608 0
-17606 17608 0
-17604 -17606 17609 0
-17605 17610 0
-17607 17610 0
-17605 -17607 17611 0
-17609 17612 0
-17610 17612 0
-17609 -17610 17613 0
-17612 0
910 911 912 0
-17614 0
-910 17615 0
-911 17615 0
-910 -911 17616 0
-912 17617 0
-17614 17617 0
-912 -17614 17618 0
-17615 17619 0
-17617 17619 0
-17615 -17617 17620 0
-17616 17621 0
-17618 17621 0
-17616 -17618 17622 0
-17620 17623 0
-17621 17623 0
-17620 -17621 17624 0
-17623 0
1330 1331 1332 0
-17625 0
-1330 17626 0
-1331 17626 0
-1330 -1331 17627 0
-1332 17628 0
-17625 17628 0
-1332 -17625 17629 0
-17626 17630 0
-17628 17630 0
-17626 -17628 17631 0
-17627 17632 0
-17629 17632 0
-17627 -17629 17633 0
-17631 17634 0
-17632 17634 0
-17631 -17632 17635 0
-17634 0
1750 1751 1752 0
-17636 0
-1750 17637 0
-1751 17637 0
-1750 -1751 17638 0
-1752 17639 0
-17636 17639 0
-1752 -17636 17640 0
-17637 17641 0
-17639 17641 0
-17637 -17639 17642 0
-17638 17643 0
-17640 17643 0
-17638 -17640 17644 0
-17642 17645 0
-17643 17645 0
-17642 -17643 17646 0
-17645 0
2170 2171 2172 0
-17647 0
-2170 17648 0
-2171 17648 0
-2170 -2171 17649 0
-2172 17650 0
-17647 17650 0
-2172 -17647 17651 0
-17648 17652 0
-17650 17652 0
-17648 -17650 17653 0
-17649 17654 0
-17651 17654 0
-17649 -17651 17655 0
-17653 17656 0
-17654 17656 0
-17653 -17654 17657 0
-17656 0
2590 2591 2592 0
-17658 0
-2590 17659 0
-2591 17659 0
-2590 -2591 17660 0
-2592 17661 0
-17658 17661 0
-2592 -17658 17662 0
-17659 17663 0
-17661 17663 0
-17659 -17661 17664 0
-17660 17665 0
-17662 17665 0
-17660 -17662 17666 0
-17664 17667 0
-17665 17667 0
-17664 -17665 17668 0
-17667 0
73 74 75 0
-17669 0
-73 17670 0
-74 17670 0
-73 -74 17671 0
-75 17672 0
-17669 17672 0
-75 -17669 17673 0
-17670 17674 0
-17672 17674 0
-17670 -17672 17675 0
-17671 17676 0
-17673 17676 0
-17671 -17673 17677 0
-17675 17678 0
-17676 17678 0
-17675 -17676 17679 0
-17678 0
493 494 495 0
-17680 0
-493 17681 0
-494 17681 0
-493 -494 17682 0
-495 17683 0
-17680 17683 0
-495 -17680 17684 0
-17681 17685 0
-17683 17685 0
-17681 -17683 17686 0
-17682 17687 0
-17684 17687 0
-17682 -17684 17688 0
-17686 17689 0
-17687 17689 0
-17686 -17687 17690 0
-17689 0
913 914 915 0
-17691 0
-913 17692 0
-914 17692 0
-913 -914 17693 0
-915 17694 0
-17691 17694 0
-915 -17691 17695 0
-17692 17696 0
-17694 17696 0
-17692 -17694 17697 0
-17693 17698 0
-17695 17698 0
-17693 -17695 17699 0
-17697 17700 0
-17698 17700 0
-17697 -17698 17701 0
-17700 0
1333 1334 1335 0
-17702 0
-1333 17703 0
-1334 17703 0
-1333 -1334 17704 0
-1335 17705 0
-17702 17705 0
-1335 -17702 17706 0
-17703 17707 0
-17705 17707 0
-17703 -17705 17708 0
-17704 17709 0
-17706 17709 0
-17704 -17706 17710 0
-17708 17711 0
-17709 17711 0
-17708 -17709 17712 0
-17711 0
1753 1754 1755 0
-17713 0
-1753 17714 0
-1754 17714 0
-1753 -1754 17715 0
-1755 17716 0
-17713 17716 0
-1755 -17713 17717 0
-17714 17718 0
-17716 17718 0
-17714 -17716 17719 0
-17715 17720 0
-17717 17720 0
-17715 -17717 17721 0
-17719 17722 0
-17720 17722 0
-17719 -17720 17723 0
-17722 0
2173 2174 2175 0
-17724 0
-2173 17725 0
-2174 17725 0
-2173 -2174 17726 0
-2175 17727 0
-17724 17727 0
-2175 -17724 17728 0
-17725 17729 0
-17727 17729 0
-17725 -17727 17730 0
-17726 17731 0
-17728 17731 0
-17726 -17728 17732 0
-17730 17733 0
-17731 17733 0
-17730 -17731 17734 0
-17733 0
2593 2594 2595 0
-17735 0
-2593 17736 0
-2594 17736 0
-2593 -2594 17737 0
-2595 17738 0
-17735 17738 0
-2595 -17735 17739 0
-17736 17740 0
-17738 17740 0
-17736 -17738 17741 0
-17737 17742 0
-17739 17742 0
-17737 -17739 17743 0
-17741 17744 0
-17742 17744 0
-17741 -17742 17745 0
-17744 0
76 77 78 0
-17746 0
-76 17747 0
-77 17747 0
-76 -77 17748 0
-78 17749 0
-17746 17749 0
-78 -17746 17750 0
-17747 17751 0
-17749 17751 0
-17747 -17749 17752 0
-17748 17753 0
-17750 17753 0
-17748 -17750 17754 0
-17752 17755 0
-17753 17755 0
-17752 -17753 17756 0
-17755 0
496 497 498 0
-17757 0
-496 17758 0
-497 17758 0
-496 -497 17759 0
-498 17760 0
-17757 17760 0
-498 -17757 17761 0
-17758 17762 0
-17760 17762 0
-17758 -17760 17763 0
-17759 17764 0
-17761 17764 0
-17759 -17761 17765 0
-17763 17766 0
-17764 17766 0
-17763 -17764 17767 0
-17766 0
916 917 918 0
-17768 0
-916 17769 0
-917 17769 0
-916 -917 17770 0
-918 17771 0
-17768 17771 0
-918 -17768 17772 0
-17769 17773 0
-17771 17773 0
-17769 -17771 17774 0
-17770 17775 0
-17772 17775 0
-17770 -17772 17776 0
-17774 17777 0
-17775 17777 0
-17774 -17775 17778 0
-17777 0
1336 1337 1338 0
-17779 0
-1336 17780 0
-1337 17780 0
-1336 -1337 17781 0
-1338 17782 0
-17779 17782 0
-1338 -17779 17783 0
-17780 17784 0
-17782 17784 0
-17780 -17782 17785 0
-17781 17786 0
-17783 17786 0
-17781 -17783 17787 0
-17785 17788 0
-17786 17788 0
-17785 -17786 17789 0
-17788 0
1756 1757 1758 0
-17790 0
-1756 17791 0
-1757 17791 0
-1756 -1757 17792 0
-1758 17793 0
-17790 17793 0
-1758 -17790 17794 0
-17791 17795 0
-17793 17795 0
-17791 -17793 17796 0
-17792 17797 0
-17794 17797 0
-17792 -17794 17798 0
-17796 17799 0
-17797 17799 0
-17796 -17797 17800 0
-17799 0
2176 2177 2178 0
-17801 0
-2176 17802 0
-2177 17802 0
-2176 -2177 17803 0
-2178 17804 0
-17801 17804 0
-2178 -17801 17805 0
-17802 17806 0
-17804 17806 0
-17802 -17804 17807 0
-17803 17808 0
-17805 17808 0
-17803 -17805 17809 0
-17807 17810 0
-17808 17810 0
-17807 -17808 17811 0
-17810 0
2596 2597 2598 0
-17812 0
-2596 17813 0
-2597 17813 0
-2596 -2597 17814 0
-2598 17815 0
-17812 17815 0
-2598 -17812 17816 0
-17813 17817 0
-17815 17817 0
-17813 -17815 17818 0
-17814 17819 0
-17816 17819 0
-17814 -17816 17820 0
-17818 17821 0
-17819 17821 0
-17818 -17819 17822 0
-17821 0
79 80 81 0
-17823 0
-79 17824 0
-80 17824 0
-79 -80 17825 0
-81 17826 0
-17823 17826 0
-81 -17823 17827 0
-17824 17828 0
-17826 17828 0
-17824 -17826 17829 0
-17825 17830 0
-17827 17830 0
-17825 -17827 17831 0
-17829 17832 0
-17830 17832 0
-17829 -17830 17833 0
-17832 0
499 500 501 0
-17834 0
-499 17835 0
-500 17835 0
-499 -500 17836 0
-501 17837 0
-17834 17837 0
-501 -17834 17838 0
-17835 17839 0
-17837 17839 0
-17835 -17837 17840 0
-17836 17841 0
-17838 17841 0
-17836 -17838 17842 0
-17840 17843 0
-17841 17843 0
-17840 -17841 17844 0
-17843 0
919 920 921 0
-17845 0
-919 17846 0
-920 17846 0
-919 -920 17847 0
-921 17848 0
-17845 17848 0
-921 -17845 17849 0
-17846 17850 0
-17848 17850 0
-17846 -17848 17851 0
-17847 17852 0
-17849 17852 0
-17847 -17849 17853 0
-17851 17854 0
-17852 17854 0
-17851 -17852 17855 0
-17854 0
1339 1340 1341 0
-17856 0
-1339 17857 0
-1340 17857 0
-1339 -1340 17858 0
-1341 17859 0
-17856 17859 0
-1341 -17856 17860 0
-17857 17861 0
-17859 17861 0
-17857 -17859 17862 0
-17858 17863 0
-17860 17863 0
-17858 -17860 17864 0
-17862 17865 0
-17863 17865 0
-17862 -17863 17866 0
-17865 0
1759 1760 1761 0
-17867 0
-1759 17868 0
-1760 17868 0
-1759 -1760 17869 0
-1761 17870 0
-17867 17870 0
-1761 -17867 17871 0
-17868 17872 0
-17870 17872 0
-17868 -17870 17873 0
-17869 17874 0
-17871 17874 0
-17869 -17871 17875 0
-17873 17876 0
-17874 17876 0
-17873 -17874 17877 0
-17876 0
2179 2180 2181 0
-17878 0
-2179 17879 0
-2180 17879 0
-2179 -2180 17880 0
-2181 17881 0
-17878 17881 0
-2181 -17878 17882 0
-17879 17883 0
-17881 17883 0
-17879 -17881 17884 0
-17880 17885 0
-17882 17885 0
-17880 -17882 17886 0
-17884 17887 0
-17885 17887 0
-17884 -17885 17888 0
-17887 0
2599 2600 2601 0
-17889 0
-2599 17890 0
-2600 17890 0
-2599 -2600 17891 0
-2601 17892 0
-17889 17892 0
-2601 -17889 17893 0
-17890 17894 0
-17892 17894 0
-17890 -17892 17895 0
-17891 17896 0
-17893 17896 0
-17891 -17893 17897 0
-17895 17898 0
-17896 17898 0
-17895 -17896 17899 0
-17898 0
82 83 84 0
-17900 0
-82 17901 0
-83 17901 0
-82 -83 17902 0
-84 17903 0
-17900 17903 0
-84 -17900 17904 0
-17901 17905 0
-17903 17905 0
-17901 -17903 17906 0
-17902 17907 0
-17904 17907 0
-17902 -17904 17908 0
-17906 17909 0
-17907 17909 0
-17906 -17907 17910 0
-17909 0
502 503 504 0
-17911 0
-502 17912 0
-503 17912 0
-502 -503 17913 0
-504 17914 0
-17911 17914 0
-504 -17911 17915 0
-17912 17916 0
-17914 17916 0
-17912 -17914 17917 0
-17913 17918 0
-17915 17918 0
-17913 -17915 17919 0
-17917 17920 0
-17918 17920 0
-17917 -17918 17921 0
-17920 0
922 923 924 0
-17922 0
-922 17923 0
-923 17923 0
-922 -923 17924 0
-924 17925 0
-17922 17925 0
-924 -17922 17926 0
-17923 17927 0
-17925 17927 0
-17923 -17925 17928 0
-17924 17929 0
-17926 17929 0
-17924 -17926 17930 0
-17928 17931 0
-17929 17931 0
-17928 -17929 17932 0
-17931 0
1342 1343 1344 0
-17933 0
-1342 17934 0
-1343 17934 0
-1342 -1343 17935 0
-1344 17936 0
-17933 17936 0
-1344 -17933 17937 0
-17934 17938 0
-17936 17938 0
-17934 -17936 17939 0
-17935 17940 0
-17937 17940 0
-17935 -17937 17941 0
-17939 17942 0
-17940 17942 0
-17939 -17940 17943 0
-17942 0
1762 1763 1764 0
-17944 0
-1762 17945 0
-1763 17945 0
-1762 -1763 17946 0
-1764 17947 0
-17944 17947 0
-1764 -17944 17948 0
-17945 17949 0
-17947 17949 0
-17945 -17947 17950 0
-17946 17951 0
-17948 17951 0
-17946 -17948 17952 0
-17950 17953 0
-17951 17953 0
-17950 -17951 17954 0
-17953 0
2182 2183 2184 0
-17955 0
-2182 17956 0
-2183 17956 0
-2182 -2183 17957 0
-2184 17958 0
-17955 17958 0
-2184 -17955 17959 0
-17956 17960 0
-17958 17960 0
-17956 -17958 17961 0
-17957 17962 0
-17959 17962 0
-17957 -17959 17963 0
-17961 17964 0
-17962 17964 0
-17961 -17962 17965 0
-17964 0
2602 2603 2604 0
-17966 0
-2602 17967 0
-2603 17967 0
-2602 -2603 17968 0
-2604 17969 0
-17966 17969 0
-2604 -17966 17970 0
-17967 17971 0
-17969 17971 0
-17967 -17969 17972 0
-17968 17973 0
-17970 17973 0
-17968 -17970 17974 0
-17972 17975 0
-17973 17975 0
-17972 -17973 17976 0
-17975 0
85 86 87 0
-17977 0
-85 17978 0
-86 17978 0
-85 -86 17979 0
-87 17980 0
-17977 17980 0
-87 -17977 17981 0
-17978 17982 0
-17980 17982 0
-17978 -17980 17983 0
-17979 17984 0
-17981 17984 0
-17979 -17981 17985 0
-17983 17986 0
-17984 17986 0
-17983 -17984 17987 0
-17986 0
505 506 507 0
-17988 0
-505 17989 0
-506 17989 0
-505 -506 17990 0
-507 17991 0
-17988 17991 0
-507 -17988 17992 0
-17989 17993 0
-17991 17993 0
-17989 -17991 17994 0
-17990 17995 0
-17992 17995 0
-17990 -17992 17996 0
-17994 17997 0
-17995 17997 0
-17994 -17995 17998 0
-17997 0
925 926 927 0
-17999 0
-925 18000 0
-926 18000 0
-925 -926 18001 0
-927 18002 0
-17999 18002 0
-927 -17999 18003 0
-18000 18004 0
-18002 18004 0
-18000 -18002 18005 0
-18001 18006 0
-18003 18006 0
-18001 -18003 18007 0
-18005 18008 0
-18006 18008 0
-18005 -18006 18009 0
-18008 0
1345 1346 1347 0
-18010 0
-1345 18011 0
-1346 18011 0
-1345 -1346 18012 0
-1347 18013 0
-18010 18013 0
-1347 -18010 18014 0
-18011 18015 0
-18013 18015 0
-18011 -18013 18016 0
-18012 18017 0
-18014 18017 0
-18012 -18014 18018 0
-18016 18019 0
-18017 18019 0
-18016 -18017 18020 0
-18019 0
1765 1766 1767 0
-18021 0
-1765 18022 0
-1766 18022 0
-1765 -1766 18023 0
-1767 18024 0
-18021 18024 0
-1767 -18021 18025 0
-18022 18026 0
-18024 18026 0
-18022 -18024 18027 0
-18023 18028 0
-18025 18028 0
-18023 -18025 18029 0
-18027 18030 0
-18028 18030 0
-18027 -18028 18031 0
-18030 0
2185 2186 2187 0
-18032 0
-2185 18033 0
-2186 18033 0
-2185 -2186 18034 0
-2187 18035 0
-18032 18035 0
-2187 -18032 18036 0
-18033 18037 0
-18035 18037 0
-18033 -18035 18038 0
-18034 18039 0
-18036 18039 0
-18034 -18036 18040 0
-18038 18041 0
-18039 18041 0
-18038 -18039 18042 0
-18041 0
2605 2606 2607 0
-18043 0
-2605 18044 0
-2606 18044 0
-2605 -2606 18045 0
-2607 18046 0
-18043 18046 0
-2607 -18043 18047 0
-18044 18048 0
-18046 18048 0
-18044 -18046 18049 0
-18045 18050 0
-18047 18050 0
-18045 -18047 18051 0
-18049 18052 0
-18050 18052 0
-18049 -18050 18053 0
-18052 0
88 89 90 0
-18054 0
-88 18055 0
-89 18055 0
-88 -89 18056 0
-90 18057 0
-18054 18057 0
-90 -18054 18058 0
-18055 18059 0
-18057 18059 0
-18055 -18057 18060 0
-18056 18061 0
-18058 18061 0
-18056 -18058 18062 0
-18060 18063 0
-18061 18063 0
-18060 -18061 18064 0
-18063 0
508 509 510 0
-18065 0
-508 18066 0
-509 18066 0
-508 -509 18067 0
-510 18068 0
-18065 18068 0
-510 -18065 18069 0
-18066 18070 0
-18068 18070 0
-18066 -18068 18071 0
-18067 18072 0
-18069 18072 0
-18067 -18069 18073 0
-18071 18074 0
-18072 18074 0
-18071 -18072 18075 0
-18074 0
928 929 930 0
-18076 0
-928 18077 0
-929 18077 0
-928 -929 18078 0
-930 18079 0
-18076 18079 0
-930 -18076 18080 0
-18077 18081 0
-18079 18081 0
-18077 -18079 18082 0
-18078 18083 0
-18080 18083 0
-18078 -18080 18084 0
-18082 18085 0
-18083 18085 0
-18082 -18083 18086 0
-18085 0
1348 1349 1350 0
-18087 0
-1348 18088 0
-1349 18088 0
-1348 -1349 18089 0
-1350 18090 0
-18087 18090 0
-1350 -18087 18091 0
-18088 18092 0
-18090 18092 0
-18088 -18090 18093 0
-18089 18094 0
-18091 18094 0
-18089 -18091 18095 0
-18093 18096 0
-18094 18096 0
-18093 -18094 18097 0
-18096 0
1768 1769 1770 0
-18098 0
-1768 18099 0
-1769 18099 0
-1768 -1769 18100 0
-1770 18101 0
-18098 18101 0
-1770 -18098 18102 0
-18099 18103 0
-18101 18103 0
-18099 -18101 18104 0
-18100 18105 0
-18102 18105 0
-18100 -18102 18106 0
-18104 18107 0
-18105 18107 0
-18104 -18105 18108 0
-18107 0
2188 2189 2190 0
-18109 0
-2188 18110 0
-2189 18110 0
-2188 -2189 18111 0
-2190 18112 0
-18109 18112 0
-2190 -18109 18113 0
-18110 18114 0
-18112 18114 0
-18110 -18112 18115 0
-18111 18116 0
-18113 18116 0
-18111 -18113 18117 0
-18115 18118 0
-18116 18118 0
-18115 -18116 18119 0
-18118 0
2608 2609 2610 0
-18120 0
-2608 18121 0
-2609 18121 0
-2608 -2609 18122 0
-2610 18123 0
-18120 18123 0
-2610 -18120 18124 0
-18121 18125 0
-18123 18125 0
-18121 -18123 18126 0
-18122 18127 0
-18124 18127 0
-18122 -18124 18128 0
-18126 18129 0
-18127 18129 0
-18126 -18127 18130 0
-18129 0
91 92 93 0
-18131 0
-91 18132 0
-92 18132 0
-91 -92 18133 0
-93 18134 0
-18131 18134 0
-93 -18131 18135 0
-18132 18136 0
-18134 18136 0
-18132 -18134 18137 0
-18133 18138 0
-18135 18138 0
-18133 -18135 18139 0
-18137 18140 0
-18138 18140 0
-18137 -18138 18141 0
-18140 0
511 512 513 0
-18142 0
-511 18143 0
-512 18143 0
-511 -512 18144 0
-513 18145 0
-18142 18145 0
-513 -18142 18146 0
-18143 18147 0
-18145 18147 0
-18143 -18145 18148 0
-18144 18149 0
-18146 18149 0
-18144 -18146 18150 0
-18148 18151 0
-18149 18151 0
-18148 -18149 18152 0
-18151 0
931 932 933 0
-18153 0
-931 18154 0
-932 18154 0
-931 -932 18155 0
-933 18156 0
-18153 18156 0
-933 -18153 18157 0
-18154 18158 0
-18156 18158 0
-18154 -18156 18159 0
-18155 18160 0
-18157 18160 0
-18155 -18157 18161 0
-18159 18162 0
-18160 18162 0
-18159 -18160 18163 0
-18162 0
1351 1352 1353 0
-18164 0
-1351 18165 0
-1352 18165 0
-1351 -1352 18166 0
-1353 18167 0
-18164 18167 0
-1353 -18164 18168 0
-18165 18169 0
-18167 18169 0
-18165 -18167 18170 0
-18166 18171 0
-18168 18171 0
-18166 -18168 18172 0
-18170 18173 0
-18171 18173 0
-18170 -18171 18174 0
-18173 0
1771 1772 1773 0
-18175 0
-1771 18176 0
-1772 18176 0
-1771 -1772 18177 0
-1773 18178 0
-18175 18178 0
-1773 -18175 18179 0
-18176 18180 0
-18178 18180 0
-18176 -18178 18181 0
-18177 18182 0
-18179 18182 0
-18177 -18179 18183 0
-18181 18184 0
-18182 18184 0
-18181 -18182 18185 0
-18184 0
2191 2192 2193 0
-18186 0
-2191 18187 0
-2192 18187 0
-2191 -2192 18188 0
-2193 18189 0
-18186 18189 0
-2193 -18186 18190 0
-18187 18191 0
-18189 18191 0
-18187 -18189 18192 0
-18188 18193 0
-18190 18193 0
-18188 -18190 18194 0
-18192 18195 0
-18193 18195 0
-18192 -18193 18196 0
-18195 0
2611 2612 2613 0
-18197 0
-2611 18198 0
-2612 18198 0
-2611 -2612 18199 0
-2613 18200 0
-18197 18200 0
-2613 -18197 18201 0
-18198 18202 0
-18200 18202 0
-18198 -18200 18203 0
-18199 18204 0
-18201 18204 0
-18199 -18201 18205 0
-18203 18206 0
-18204 18206 0
-18203 -18204 18207 0
-18206 0
94 95 96 0
-18208 0
-94 18209 0
-95 18209 0
-94 -95 18210 0
-96 18211 0
-18208 18211 0
-96 -18208 18212 0
-18209 18213 0
-18211 18213 0
-18209 -18211 18214 0
-18210 18215 0
-18212 18215 0
-18210 -18212 18216 0
-18214 18217 0
-18215 18217 0
-18214 -18215 18218 0
-18217 0
514 515 516 0
-18219 0
-514 18220 0
-515 18220 0
-514 -515 18221 0
-516 18222 0
-18219 18222 0
-516 -18219 18223 0
-18220 18224 0
-18222 18224 0
-18220 -18222 18225 0
-18221 18226 0
-18223 18226 0
-18221 -18223 18227 0
-18225 18228 0
-18226 18228 0
-18225 -18226 18229 0
-18228 0
934 935 936 0
-18230 0
-934 18231 0
-935 18231 0
-934 -935 18232 0
-936 18233 0
-18230 18233 0
-936 -18230 18234 0
-18231 18235 0
-18233 18235 0
-18231 -18233 18236 0
-18232 18237 0
-18234 18237 0
-18232 -18234 18238 0
-18236 18239 0
-18237 18239 0
-18236 -18237 18240 0
-18239 0
1354 1355 1356 0
-18241 0
-1354 18242 0
-1355 18242 0
-1354 -1355 18243 0
-1356 18244 0
-18241 18244 0
-1356 -18241 18245 0
-18242 18246 0
-18244 18246 0
-18242 -18244 18247 0
-18243 18248 0
-18245 18248 0
-18243 -18245 18249 0
-18247 18250 0
-18248 18250 0
-18247 -18248 18251 0
-18250 0
1774 1775 1776 0
-18252 0
-1774 18253 0
-1775 18253 0
-1774 -1775 18254 0
-1776 18255 0
-18252 18255 0
-1776 -18252 18256 0
-18253 18257 0
-18255 18257 0
-18253 -18255 18258 0
-18254 18259 0
-18256 18259 0
-18254 -18256 18260 0
-18258 18261 0
-18259 18261 0
-18258 -18259 18262 0
-18261 0
2194 2195 2196 0
-18263 0
-2194 18264 0
-2195 18264 0
-2194 -2195 18265 0
-2196 18266 0
-18263 18266 0
-2196 -18263 18267 0
-18264 18268 0
-18266 18268 0
-18264 -18266 18269 0
-18265 18270 0
-18267 18270 0
-18265 -18267 18271 0
-18269 18272 0
-18270 18272 0
-18269 -18270 18273 0
-18272 0
2614 2615 2616 0
-18274 0
-2614 18275 0
-2615 18275 0
-2614 -2615 18276 0
-2616 18277 0
-18274 18277 0
-2616 -18274 18278 0
-18275 18279 0
-18277 18279 0
-18275 -18277 18280 0
-18276 18281 0
-18278 18281 0
-18276 -18278 18282 0
-18280 18283 0
-18281 18283 0
-18280 -18281 18284 0
-18283 0
97 98 99 0
-18285 0
-97 18286 0
-98 18286 0
-97 -98 18287 0
-99 18288 0
-18285 18288 0
-99 -18285 18289 0
-18286 18290 0
-18288 18290 0
-18286 -18288 18291 0
-18287 18292 0
-18289 18292 0
-18287 -18289 18293 0
-18291 18294 0
-18292 18294 0
-18291 -18292 18295 0
-18294 0
517 518 519 0
-18296 0
-517 18297 0
-518 18297 0
-517 -518 18298 0
-519 18299 0
-18296 18299 0
-519 -18296 18300 0
-18297 18301 0
-18299 18301 0
-18297 -18299 18302 0
-18298 18303 0
-18300 18303 0
-18298 -18300 18304 0
-18302 18305 0
-18303 18305 0
-18302 -18303 18306 0
-18305 0
937 938 939 0
-18307 0
-937 18308 0
-938 18308 0
-937 -938 18309 0
-939 18310 0
-18307 18310 0
-939 -18307 18311 0
-18308 18312 0
-18310 18312 0
-18308 -18310 18313 0
-18309 18314 0
-18311 18314 0
-18309 -18311 18315 0
-18313 18316 0
-18314 18316 0
-18313 -18314 18317 0
-18316 0
1357 1358 1359 0
-18318 0
-1357 18319 0
-1358 18319 0
-1357 -1358 18320 0
-1359 18321 0
-18318 18321 0
-1359 -18318 18322 0
-18319 18323 0
-18321 18323 0
-18319 -18321 18324 0
-18320 18325 0
-18322 18325 0
-18320 -18322 18326 0
-18324 18327 0
-18325 18327 0
-18324 -18325 18328 0
-18327 0
1777 1778 1779 0
-18329 0
-1777 18330 0
-1778 18330 0
-1777 -1778 18331 0
-1779 18332 0
-18329 18332 0
-1779 -18329 18333 0
-18330 18334 0
-18332 18334 0
-18330 -18332 18335 0
-18331 18336 0
-18333 18336 0
-18331 -18333 18337 0
-18335 18338 0
-18336 18338 0
-18335 -18336 18339 0
-18338 0
2197 2198 2199 0
-18340 0
-2197 18341 0
-2198 18341 0
-2197 -2198 18342 0
-2199 18343 0
-18340 18343 0
-2199 -18340 18344 0
-18341 18345 0
-18343 18345 0
-18341 -18343 18346 0
-18342 18347 0
-18344 18347 0
-18342 -18344 18348 0
-18346 18349 0
-18347 18349 0
-18346 -18347 18350 0
-18349 0
2617 2618 2619 0
-18351 0
-2617 18352 0
-2618 18352 0
-2617 -2618 18353 0
-2619 18354 0
-18351 18354 0
-2619 -18351 18355 0
-18352 18356 0
-18354 18356 0
-18352 -18354 18357 0
-18353 18358 0
-18355 18358 0
-18353 -18355 18359 0
-18357 18360 0
-18358 18360 0
-18357 -18358 18361 0
-18360 0
100 101 102 0
-18362 0
-100 18363 0
-101 18363 0
-100 -101 18364 0
-102 18365 0
-18362 18365 0
-102 -18362 18366 0
-18363 18367 0
-18365 18367 0
-18363 -18365 18368 0
-18364 18369 0
-18366 18369 0
-18364 -18366 18370 0
-18368 18371 0
-18369 18371 0
-18368 -18369 18372 0
-18371 0
520 521 522 0
-18373 0
-520 18374 0
-521 18374 0
-520 -521 18375 0
-522 18376 0
-18373 18376 0
-522 -18373 18377 0
-18374 18378 0
-18376 18378 0
-18374 -18376 18379 0
-18375 18380 0
-18377 18380 0
-18375 -18377 18381 0
-18379 18382 0
-18380 18382 0
-18379 -18380 18383 0
-18382 0
940 941 942 0
-18384 0
-940 18385 0
-941 18385 0
-940 -941 18386 0
-942 18387 0
-18384 18387 0
-942 -18384 18388 0
-18385 18389 0
-18387 18389 0
-18385 -18387 18390 0
-18386 18391 0
-18388 18391 0
-18386 -18388 18392 0
-18390 18393 0
-18391 18393 0
-18390 -18391 18394 0
-18393 0
1360 1361 1362 0
-18395 0
-1360 18396 0
-1361 18396 0
-1360 -1361 18397 0
-1362 18398 0
-18395 18398 0
-1362 -18395 18399 0
-18396 18400 0
-18398 18400 0
-18396 -18398 18401 0
-18397 18402 0
-18399 18402 0
-18397 -18399 18403 0
-18401 18404 0
-18402 18404 0
-18401 -18402 18405 0
-18404 0
1780 1781 1782 0
-18406 0
-1780 18407 0
-1781 18407 0
-1780 -1781 18408 0
-1782 18409 0
-18406 18409 0
-1782 -18406 18410 0
-18407 18411 0
-18409 18411 0
-18407 -18409 18412 0
-18408 18413 0
-18410 18413 0
-18408 -18410 18414 0
-18412 18415 0
-18413 18415 0
-18412 -18413 18416 0
-18415 0
2200 2201 2202 0
-18417 0
-2200 18418 0
-2201 18418 0
-2200 -2201 18419 0
-2202 18420 0
-18417 18420 0
-2202 -18417 18421 0
-18418 18422 0
-18420 18422 0
-18418 -18420 18423 0
-18419 18424 0
-18421 18424 0
-18419 -18421 18425 0
-18423 18426 0
-18424 18426 0
-18423 -18424 18427 0
-18426 0
2620 2621 2622 0
-18428 0
-2620 18429 0
-2621 18429 0
-2620 -2621 18430 0
-2622 18431 0
-18428 18431 0
-2622 -18428 18432 0
-18429 18433 0
-18431 18433 0
-18429 -18431 18434 0
-18430 18435 0
-18432 18435 0
-18430 -18432 18436 0
-18434 18437 0
-18435 18437 0
-18434 -18435 18438 0
-18437 0
103 104 105 0
-18439 0
-103 18440 0
-104 18440 0
-103 -104 18441 0
-105 18442 0
-18439 18442 0
-105 -18439 18443 0
-18440 18444 0
-18442 18444 0
-18440 -18442 18445 0
-18441 18446 0
-18443 18446 0
-18441 -18443 18447 0
-18445 18448 0
-18446 18448 0
-18445 -18446 18449 0
-18448 0
523 524 525 0
-18450 0
-523 18451 0
-524 18451 0
-523 -524 18452 0
-525 18453 0
-18450 18453 0
-525 -18450 18454 0
-18451 18455 0
-18453 18455 0
-18451 -18453 18456 0
-18452 18457 0
-18454 18457 0
-18452 -18454 18458 0
-18456 18459 0
-18457 18459 0
-18456 -18457 18460 0
-18459 0
943 944 945 0
-18461 0
-943 18462 0
-944 18462 0
-943 -944 18463 0
-945 18464 0
-18461 18464 0
-945 -18461 18465 0
-18462 18466 0
-18464 18466 0
-18462 -18464 18467 0
-18463 18468 0
-18465 18468 0
-18463 -18465 18469 0
-18467 18470 0
-18468 18470 0
-18467 -18468 18471 0
-18470 0
1363 1364 1365 0
-18472 0
-1363 18473 0
-1364 18473 0
-1363 -1364 18474 0
-1365 18475 0
-18472 18475 0
-1365 -18472 18476 0
-18473 18477 0
-18475 18477 0
-18473 -18475 18478 0
-18474 18479 0
-18476 18479 0
-18474 -18476 18480 0
-18478 18481 0
-18479 18481 0
-18478 -18479 18482 0
-18481 0
1783 1784 1785 0
-18483 0
-1783 18484 0
-1784 18484 0
-1783 -1784 18485 0
-1785 18486 0
-18483 18486 0
-1785 -18483 18487 0
-18484 18488 0
-18486 18488 0
-18484 -18486 18489 0
-18485 18490 0
-18487 18490 0
-18485 -18487 18491 0
-18489 18492 0
-18490 18492 0
-18489 -18490 18493 0
-18492 0
2203 2204 2205 0
-18494 0
-2203 18495 0
-2204 18495 0
-2203 -2204 18496 0
-2205 18497 0
-18494 18497 0
-2205 -18494 18498 0
-18495 18499 0
-18497 18499 0
-18495 -18497 18500 0
-18496 18501 0
-18498 18501 0
-18496 -18498 18502 0
-18500 18503 0
-18501 18503 0
-18500 -18501 18504 0
-18503 0
2623 2624 2625 0
-18505 0
-2623 18506 0
-2624 18506 0
-2623 -2624 18507 0
-2625 18508 0
-18505 18508 0
-2625 -18505 18509 0
-18506 18510 0
-18508 18510 0
-18506 -18508 18511 0
-18507 18512 0
-18509 18512 0
-18507 -18509 18513 0
-18511 18514 0
-18512 18514 0
-18511 -18512 18515 0
-18514 0
106 107 108 0
-18516 0
-106 18517 0
-107 18517 0
-106 -107 18518 0
-108 18519 0
-18516 18519 0
-108 -18516 18520 0
-18517 18521 0
-18519 18521 0
-18517 -18519 18522 0
-18518 18523 0
-18520 18523 0
-18518 -18520 18524 0
-18522 18525 0
-18523 18525 0
-18522 -18523 18526 0
-18525 0
526 527 528 0
-18527 0
-526 18528 0
-527 18528 0
-526 -527 18529 0
-528 18530 0
-18527 18530 0
-528 -18527 18531 0
-18528 18532 0
-18530 18532 0
-18528 -18530 18533 0
-18529 18534 0
-18531 18534 0
-18529 -18531 18535 0
-18533 18536 0
-18534 18536 0
-18533 -18534 18537 0
-18536 0
946 947 948 0
-18538 0
-946 18539 0
-947 18539 0
-946 -947 18540 0
-948 18541 0
-18538 18541 0
-948 -18538 18542 0
-18539 18543 0
-18541 18543 0
-18539 -18541 18544 0
-18540 18545 0
-18542 18545 0
-18540 -18542 18546 0
-18544 18547 0
-18545 18547 0
-18544 -18545 18548 0
-18547 0
1366 1367 1368 0
-18549 0
-1366 18550 0
-1367 18550 0
-1366 -1367 18551 0
-1368 18552 0
-18549 18552 0
-1368 -18549 18553 0
-18550 18554 0
-18552 18554 0
-18550 -18552 18555 0
-18551 18556 0
-18553 18556 0
-18551 -18553 18557 0
-18555 18558 0
-18556 18558 0
-18555 -18556 18559 0
-18558 0
1786 1787 1788 0
-18560 0
-1786 18561 0
-1787 18561 0
-1786 -1787 18562 0
-1788 18563 0
-18560 18563 0
-1788 -18560 18564 0
-18561 18565 0
-18563 18565 0
-18561 -18563 18566 0
-18562 18567 0
-18564 18567 0
-18562 -18564 18568 0
-18566 18569 0
-18567 18569 0
-18566 -18567 18570 0
-18569 0
2206 2207 2208 0
-18571 0
-2206 18572 0
-2207 18572 0
-2206 -2207 18573 0
-2208 18574 0
-18571 18574 0
-2208 -18571 18575 0
-18572 18576 0
-18574 18576 0
-18572 -18574 18577 0
-18573 18578 0
-18575 18578 0
-18573 -18575 18579 0
-18577 18580 0
-18578 18580 0
-18577 -18578 18581 0
-18580 0
2626 2627 2628 0
-18582 0
-2626 18583 0
-2627 18583 0
-2626 -2627 18584 0
-2628 18585 0
-18582 18585 0
-2628 -18582 18586 0
-18583 18587 0
-18585 18587 0
-18583 -18585 18588 0
-18584 18589 0
-18586 18589 0
-18584 -18586 18590 0
-18588 18591 0
-18589 18591 0
-18588 -18589 18592 0
-18591 0
109 110 111 0
-18593 0
-109 18594 0
-110 18594 0
-109 -110 18595 0
-111 18596 0
-18593 18596 0
-111 -18593 18597 0
-18594 18598 0
-18596 18598 0
-18594 -18596 18599 0
-18595 18600 0
-18597 18600 0
-18595 -18597 18601 0
-18599 18602 0
-18600 18602 0
-18599 -18600 18603 0
-18602 0
529 530 531 0
-18604 0
-529 18605 0
-530 18605 0
-529 -530 18606 0
-531 18607 0
-18604 18607 0
-531 -18604 18608 0
-18605 18609 0
-18607 18609 0
-18605 -18607 18610 0
-18606 18611 0
-18608 18611 0
-18606 -18608 18612 0
-18610 18613 0
-18611 18613 0
-18610 -18611 18614 0
-18613 0
949 950 951 0
-18615 0
-949 18616 0
-950 18616 0
-949 -950 18617 0
-951 18618 0
-18615 18618 0
-951 -18615 18619 0
-18616 18620 0
-18618 18620 0
-18616 -18618 18621 0
-18617 18622 0
-18619 18622 0
-18617 -18619 18623 0
-18621 18624 0
-18622 18624 0
-18621 -18622 18625 0
-18624 0
1369 1370 1371 0
-18626 0
-1369 18627 0
-1370 18627 0
-1369 -1370 18628 0
-1371 18629 0
-18626 18629 0
-1371 -18626 18630 0
-18627 18631 0
-18629 18631 0
-18627 -18629 18632 0
-18628 18633 0
-18630 18633 0
-18628 -18630 18634 0
-18632 18635 0
-18633 18635 0
-18632 -18633 18636 0
-18635 0
1789 1790 1791 0
-18637 0
-1789 18638 0
-1790 18638 0
-1789 -1790 18639 0
-1791 18640 0
-18637 18640 0
-1791 -18637 18641 0
-18638 18642 0
-18640 18642 0
-18638 -18640 18643 0
-18639 18644 0
-18641 18644 0
-18639 -18641 18645 0
-18643 18646 0
-18644 18646 0
-18643 -18644 18647 0
-18646 0
2209 2210 2211 0
-18648 0
-2209 18649 0
-2210 18649 0
-2209 -2210 18650 0
-2211 18651 0
-18648 18651 0
-2211 -18648 18652 0
-18649 18653 0
-18651 18653 0
-18649 -18651 18654 0
-18650 18655 0
-18652 18655 0
-18650 -18652 18656 0
-18654 18657 0
-18655 18657 0
-18654 -18655 18658 0
-18657 0
2629 2630 2631 0
-18659 0
-2629 18660 0
-2630 18660 0
-2629 -2630 18661 0
-2631 18662 0
-18659 18662 0
-2631 -18659 18663 0
-18660 18664 0
-18662 18664 0
-18660 -18662 18665 0
-18661 18666 0
-18663 18666 0
-18661 -18663 18667 0
-18665 18668 0
-18666 18668 0
-18665 -18666 18669 0
-18668 0
112 113 114 0
-18670 0
-112 18671 0
-113 18671 0
-112 -113 18672 0
-114 18673 0
-18670 18673 0
-114 -18670 18674 0
-18671 18675 0
-18673 18675 0
-18671 -18673 18676 0
-18672 18677 0
-18674 18677 0
-18672 -18674 18678 0
-18676 18679 0
-18677 18679 0
-18676 -18677 18680 0
-18679 0
532 533 534 0
-18681 0
-532 18682 0
-533 18682 0
-532 -533 18683 0
-534 18684 0
-18681 18684 0
-534 -18681 18685 0
-18682 18686 0
-18684 18686 0
-18682 -18684 18687 0
-18683 18688 0
-18685 18688 0
-18683 -18685 18689 0
-18687 18690 0
-18688 18690 0
-18687 -18688 18691 0
-18690 0
952 953 954 0
-18692 0
-952 18693 0
-953 18693 0
-952 -953 18694 0
-954 18695 0
-18692 18695 0
-954 -18692 18696 0
-18693 18697 0
-18695 18697 0
-18693 -18695 18698 0
-18694 18699 0
-18696 18699 0
-18694 -18696 18700 0
-18698 18701 0
-18699 18701 0
-18698 -18699 18702 0
-18701 0
1372 1373 1374 0
-18703 0
-1372 18704 0
-1373 18704 0
-1372 -1373 18705 0
-1374 18706 0
-18703 18706 0
-1374 -18703 18707 0
-18704 18708 0
-18706 18708 0
-18704 -18706 18709 0
-18705 18710 0
-18707 18710 0
-18705 -18707 18711 0
-18709 18712 0
-18710 18712 0
-18709 -18710 18713 0
-18712 0
1792 1793 1794 0
-18714 0
-1792 18715 0
-1793 18715 0
-1792 -1793 18716 0
-1794 18717 0
-18714 18717 0
-1794 -18714 18718 0
-18715 18719 0
-18717 18719 0
-18715 -18717 18720 0
-18716 18721 0
-18718 18721 0
-18716 -18718 18722 0
-18720 18723 0
-18721 18723 0
-18720 -18721 18724 0
-18723 0
2212 2213 2214 0
-18725 0
-2212 18726 0
-2213 18726 0
-2212 -2213 18727 0
-2214 18728 0
-18725 18728 0
-2214 -18725 18729 0
-18726 18730 0
-18728 18730 0
-18726 -18728 18731 0
-18727 18732 0
-18729 18732 0
-18727 -18729 18733 0
-18731 18734 0
-18732 18734 0
-18731 -18732 18735 0
-18734 0
2632 2633 2634 0
-18736 0
-2632 18737 0
-2633 18737 0
-2632 -2633 18738 0
-2634 18739 0
-18736 18739 0
-2634 -18736 18740 0
-18737 18741 0
-18739 18741 0
-18737 -18739 18742 0
-18738 18743 0
-18740 18743 0
-18738 -18740 18744 0
-18742 18745 0
-18743 18745 0
-18742 -18743 18746 0
-18745 0
115 116 117 0
-18747 0
-115 18748 0
-116 18748 0
-115 -116 18749 0
-117 18750 0
-18747 18750 0
-117 -18747 18751 0
-18748 18752 0
-18750 18752 0
-18748 -18750 18753 0
-18749 18754 0
-18751 18754 0
-18749 -18751 18755 0
-18753 18756 0
-18754 18756 0
-18753 -18754 18757 0
-18756 0
535 536 537 0
-18758 0
-535 18759 0
-536 18759 0
-535 -536 18760 0
-537 18761 0
-18758 18761 0
-537 -18758 18762 0
-18759 18763 0
-18761 18763 0
-18759 -18761 18764 0
-18760 18765 0
-18762 18765 0
-18760 -18762 18766 0
-18764 18767 0
-18765 18767 0
-18764 -18765 18768 0
-18767 0
955 956 957 0
-18769 0
-955 18770 0
-956 18770 0
-955 -956 18771 0
-957 18772 0
-18769 18772 0
-957 -18769 18773 0
-18770 18774 0
-18772 18774 0
-18770 -18772 18775 0
-18771 18776 0
-18773 18776 0
-18771 -18773 18777 0
-18775 18778 0
-18776 18778 0
-18775 -18776 18779 0
-18778 0
1375 1376 1377 0
-18780 0
-1375 18781 0
-1376 18781 0
-1375 -1376 18782 0
-1377 18783 0
-18780 18783 0
-1377 -18780 18784 0
-18781 18785 0
-18783 18785 0
-18781 -18783 18786 0
-18782 18787 0
-18784 18787 0
-18782 -18784 18788 0
-18786 18789 0
-18787 18789 0
-18786 -18787 18790 0
-18789 0
1795 1796 1797 0
-18791 0
-1795 18792 0
-1796 18792 0
-1795 -1796 18793 0
-1797 18794 0
-18791 18794 0
-1797 -18791 18795 0
-18792 18796 0
-18794 18796 0
-18792 -18794 18797 0
-18793 18798 0
-18795 18798 0
-18793 -18795 18799 0
-18797 18800 0
-18798 18800 0
-18797 -18798 18801 0
-18800 0
2215 2216 2217 0
-18802 0
-2215 18803 0
-2216 18803 0
-2215 -2216 18804 0
-2217 18805 0
-18802 18805 0
-2217 -18802 18806 0
-18803 18807 0
-18805 18807 0
-18803 -18805 18808 0
-18804 18809 0
-18806 18809 0
-18804 -18806 18810 0
-18808 18811 0
-18809 18811 0
-18808 -18809 18812 0
-18811 0
2635 2636 2637 0
-18813 0
-2635 18814 0
-2636 18814 0
-2635 -2636 18815 0
-2637 18816 0
-18813 18816 0
-2637 -18813 18817 0
-18814 18818 0
-18816 18818 0
-18814 -18816 18819 0
-18815 18820 0
-18817 18820 0
-18815 -18817 18821 0
-18819 18822 0
-18820 18822 0
-18819 -18820 18823 0
-18822 0
118 119 120 0
-18824 0
-118 18825 0
-119 18825 0
-118 -119 18826 0
-120 18827 0
-18824 18827 0
-120 -18824 18828 0
-18825 18829 0
-18827 18829 0
-18825 -18827 18830 0
-18826 18831 0
-18828 18831 0
-18826 -18828 18832 0
-18830 18833 0
-18831 18833 0
-18830 -18831 18834 0
-18833 0
538 539 540 0
-18835 0
-538 18836 0
-539 18836 0
-538 -539 18837 0
-540 18838 0
-18835 18838 0
-540 -18835 18839 0
-18836 18840 0
-18838 18840 0
-18836 -18838 18841 0
-18837 18842 0
-18839 18842 0
-18837 -18839 18843 0
-18841 18844 0
-18842 18844 0
-18841 -18842 18845 0
-18844 0
958 959 960 0
-18846 0
-958 18847 0
-959 18847 0
-958 -959 18848 0
-960 18849 0
-18846 18849 0
-960 -18846 18850 0
-18847 18851 0
-18849 18851 0
-18847 -18849 18852 0
-18848 18853 0
-18850 18853 0
-18848 -18850 18854 0
-18852 18855 0
-18853 18855 0
-18852 -18853 18856 0
-18855 0
1378 1379 1380 0
-18857 0
-1378 18858 0
-1379 18858 0
-1378 -1379 18859 0
-1380 18860 0
-18857 18860 0
-1380 -18857 18861 0
-18858 18862 0
-18860 18862 0
-18858 -18860 18863 0
-18859 18864 0
-18861 18864 0
-18859 -18861 18865 0
-18863 18866 0
-18864 18866 0
-18863 -18864 18867 0
-18866 0
1798 1799 1800 0
-18868 0
-1798 18869 0
-1799 18869 0
-1798 -1799 18870 0
-1800 18871 0
-18868 18871 0
-1800 -18868 18872 0
-18869 18873 0
-18871 18873 0
-18869 -18871 18874 0
-18870 18875 0
-18872 18875 0
-18870 -18872 18876 0
-18874 18877 0
-18875 18877 0
-18874 -18875 18878 0
-18877 0
2218 2219 2220 0
-18879 0
-2218 18880 0
-2219 18880 0
-2218 -2219 18881 0
-2220 18882 0
-18879 18882 0
-2220 -18879 18883 0
-18880 18884 0
-18882 18884 0
-18880 -18882 18885 0
-18881 18886 0
-18883 18886 0
-18881 -18883 18887 0
-18885 18888 0
-18886 18888 0
-18885 -18886 18889 0
-18888 0
2638 2639 2640 0
-18890 0
-2638 18891 0
-2639 18891 0
-2638 -2639 18892 0
-2640 18893 0
-18890 18893 0
-2640 -18890 18894 0
-18891 18895 0
-18893 18895 0
-18891 -18893 18896 0
-18892 18897 0
-18894 18897 0
-18892 -18894 18898 0
-18896 18899 0
-18897 18899 0
-18896 -18897 18900 0
-18899 0
121 122 123 0
-18901 0
-121 18902 0
-122 18902 0
-121 -122 18903 0
-123 18904 0
-18901 18904 0
-123 -18901 18905 0
-18902 18906 0
-18904 18906 0
-18902 -18904 18907 0
-18903 18908 0
-18905 18908 0
-18903 -18905 18909 0
-18907 18910 0
-18908 18910 0
-18907 -18908 18911 0
-18910 0
541 542 543 0
-18912 0
-541 18913 0
-542 18913 0
-541 -542 18914 0
-543 18915 0
-18912 18915 0
-543 -18912 18916 0
-18913 18917 0
-18915 18917 0
-18913 -18915 18918 0
-18914 18919 0
-18916 18919 0
-18914 -18916 18920 0
-18918 18921 0
-18919 18921 0
-18918 -18919 18922 0
-18921 0
961 962 963 0
-18923 0
-961 18924 0
-962 18924 0
-961 -962 18925 0
-963 18926 0
-18923 18926 0
-963 -18923 18927 0
-18924 18928 0
-18926 18928 0
-18924 -18926 18929 0
-18925 18930 0
-18927 18930 0
-18925 -18927 18931 0
-18929 18932 0
-18930 18932 0
-18929 -18930 18933 0
-18932 0
1381 1382 1383 0
-18934 0
-1381 18935 0
-1382 18935 0
-1381 -1382 18936 0
-1383 18937 0
-18934 18937 0
-1383 -18934 18938 0
-18935 18939 0
-18937 18939 0
-18935 -18937 18940 0
-18936 18941 0
-18938 18941 0
-18936 -18938 18942 0
-18940 18943 0
-18941 18943 0
-18940 -18941 18944 0
-18943 0
1801 1802 1803 0
-18945 0
-1801 18946 0
-1802 18946 0
-1801 -1802 18947 0
-1803 18948 0
-18945 18948 0
-1803 -18945 18949 0
-18946 18950 0
-18948 18950 0
-18946 -18948 18951 0
-18947 18952 0
-18949 18952 0
-18947 -18949 18953 0
-18951 18954 0
-18952 18954 0
-18951 -18952 18955 0
-18954 0
2221 2222 2223 0
-18956 0
-2221 18957 0
-2222 18957 0
-2221 -2222 18958 0
-2223 18959 0
-18956 18959 0
-2223 -18956 18960 0
-18957 18961 0
-18959 18961 0
-18957 -18959 18962 0
-18958 18963 0
-18960 18963 0
-18958 -18960 18964 0
-18962 18965 0
-18963 18965 0
-18962 -18963 18966 0
-18965 0
2641 2642 2643 0
-18967 0
-2641 18968 0
-2642 18968 0
-2641 -2642 18969 0
-2643 18970 0
-18967 18970 0
-2643 -18967 18971 0
-18968 18972 0
-18970 18972 0
-18968 -18970 18973 0
-18969 18974 0
-18971 18974 0
-18969 -18971 18975 0
-18973 18976 0
-18974 18976 0
-18973 -18974 18977 0
-18976 0
124 125 126 0
-18978 0
-124 18979 0
-125 18979 0
-124 -125 18980 0
-126 18981 0
-18978 18981 0
-126 -18978 18982 0
-18979 18983 0
-18981 18983 0
-18979 -18981 18984 0
-18980 18985 0
-18982 18985 0
-18980 -18982 18986 0
-18984 18987 0
-18985 18987 0
-18984 -18985 18988 0
-18987 0
544 545 546 0
-18989 0
-544 18990 0
-545 18990 0
-544 -545 18991 0
-546 18992 0
-18989 18992 0
-546 -18989 18993 0
-18990 18994 0
-18992 18994 0
-18990 -18992 18995 0
-18991 18996 0
-18993 18996 0
-18991 -18993 18997 0
-18995 18998 0
-18996 18998 0
-18995 -18996 18999 0
-18998 0
964 965 966 0
-19000 0
-964 19001 0
-965 19001 0
-964 -965 19002 0
-966 19003 0
-19000 19003 0
-966 -19000 19004 0
-19001 19005 0
-19003 19005 0
-19001 -19003 19006 0
-19002 19007 0
-19004 19007 0
-19002 -19004 19008 0
-19006 19009 0
-19007 19009 0
-19006 -19007 19010 0
-19009 0
1384 1385 1386 0
-19011 0
-1384 19012 0
-1385 19012 0
-1384 -1385 19013 0
-1386 19014 0
-19011 19014 0
-1386 -19011 19015 0
-19012 19016 0
-19014 19016 0
-19012 -19014 19017 0
-19013 19018 0
-19015 19018 0
-19013 -19015 19019 0
-19017 19020 0
-19018 19020 0
-19017 -19018 19021 0
-19020 0
1804 1805 1806 0
-19022 0
-1804 19023 0
-1805 19023 0
-1804 -1805 19024 0
-1806 19025 0
-19022 19025 0
-1806 -19022 19026 0
-19023 19027 0
-19025 19027 0
-19023 -19025 19028 0
-19024 19029 0
-19026 19029 0
-19024 -19026 19030 0
-19028 19031 0
-19029 19031 0
-19028 -19029 19032 0
-19031 0
2224 2225 2226 0
-19033 0
-2224 19034 0
-2225 19034 0
-2224 -2225 19035 0
-2226 19036 0
-19033 19036 0
-2226 -19033 19037 0
-19034 19038 0
-19036 19038 0
-19034 -19036 19039 0
-19035 19040 0
-19037 19040 0
-19035 -19037 19041 0
-19039 19042 0
-19040 19042 0
-19039 -19040 19043 0
-19042 0
2644 2645 2646 0
-19044 0
-2644 19045 0
-2645 19045 0
-2644 -2645 19046 0
-2646 19047 0
-19044 19047 0
-2646 -19044 19048 0
-19045 19049 0
-19047 19049 0
-19045 -19047 19050 0
-19046 19051 0
-19048 19051 0
-19046 -19048 19052 0
-19050 19053 0
-19051 19053 0
-19050 -19051 19054 0
-19053 0
127 128 129 0
-19055 0
-127 19056 0
-128 19056 0
-127 -128 19057 0
-129 19058 0
-19055 19058 0
-129 -19055 19059 0
-19056 19060 0
-19058 19060 0
-19056 -19058 19061 0
-19057 19062 0
-19059 19062 0
-19057 -19059 19063 0
-19061 19064 0
-19062 19064 0
-19061 -19062 19065 0
-19064 0
547 548 549 0
-19066 0
-547 19067 0
-548 19067 0
-547 -548 19068 0
-549 19069 0
-19066 19069 0
-549 -19066 19070 0
-19067 19071 0
-19069 19071 0
-19067 -19069 19072 0
-19068 19073 0
-19070 19073 0
-19068 -19070 19074 0
-19072 19075 0
-19073 19075 0
-19072 -19073 19076 0
-19075 0
967 968 969 0
-19077 0
-967 19078 0
-968 19078 0
-967 -968 19079 0
-969 19080 0
-19077 19080 0
-969 -19077 19081 0
-19078 19082 0
-19080 19082 0
-19078 -19080 19083 0
-19079 19084 0
-19081 19084 0
-19079 -19081 19085 0
-19083 19086 0
-19084 19086 0
-19083 -19084 19087 0
-19086 0
1387 1388 1389 0
-19088 0
-1387 19089 0
-1388 19089 0
-1387 -1388 19090 0
-1389 19091 0
-19088 19091 0
-1389 -19088 19092 0
-19089 19093 0
-19091 19093 0
-19089 -19091 19094 0
-19090 19095 0
-19092 19095 0
-19090 -19092 19096 0
-19094 19097 0
-19095 19097 0
-19094 -19095 19098 0
-19097 0
1807 1808 1809 0
-19099 0
-1807 19100 0
-1808 19100 0
-1807 -1808 19101 0
-1809 19102 0
-19099 19102 0
-1809 -19099 19103 0
-19100 19104 0
-19102 19104 0
-19100 -19102 19105 0
-19101 19106 0
-19103 19106 0
-19101 -19103 19107 0
-19105 19108 0
-19106 19108 0
-19105 -19106 19109 0
-19108 0
2227 2228 2229 0
-19110 0
-2227 19111 0
-2228 19111 0
-2227 -2228 19112 0
-2229 19113 0
-19110 19113 0
-2229 -19110 19114 0
-19111 19115 0
-19113 19115 0
-19111 -19113 19116 0
-19112 19117 0
-19114 19117 0
-19112 -19114 19118 0
-19116 19119 0
-19117 19119 0
-19116 -19117 19120 0
-19119 0
2647 2648 2649 0
-19121 0
-2647 19122 0
-2648 19122 0
-2647 -2648 19123 0
-2649 19124 0
-19121 19124 0
-2649 -19121 19125 0
-19122 19126 0
-19124 19126 0
-19122 -19124 19127 0
-19123 19128 0
-19125 19128 0
-19123 -19125 19129 0
-19127 19130 0
-19128 19130 0
-19127 -19128 19131 0
-19130 0
130 131 132 0
-19132 0
-130 19133 0
-131 19133 0
-130 -131 19134 0
-132 19135 0
-19132 19135 0
-132 -19132 19136 0
-19133 19137 0
-19135 19137 0
-19133 -19135 19138 0
-19134 19139 0
-19136 19139 0
-19134 -19136 19140 0
-19138 19141 0
-19139 19141 0
-19138 -19139 19142 0
-19141 0
550 551 552 0
-19143 0
-550 19144 0
-551 19144 0
-550 -551 19145 0
-552 19146 0
-19143 19146 0
-552 -19143 19147 0
-19144 19148 0
-19146 19148 0
-19144 -19146 19149 0
-19145 19150 0
-19147 19150 0
-19145 -19147 19151 0
-19149 19152 0
-19150 19152 0
-19149 -19150 19153 0
-19152 0
970 971 972 0
-19154 0
-970 19155 0
-971 19155 0
-970 -971 19156 0
-972 19157 0
-19154 19157 0
-972 -19154 19158 0
-19155 19159 0
-19157 19159 0
-19155 -19157 19160 0
-19156 19161 0
-19158 19161 0
-19156 -19158 19162 0
-19160 19163 0
-19161 19163 0
-19160 -19161 19164 0
-19163 0
1390 1391 1392 0
-19165 0
-1390 19166 0
-1391 19166 0
-1390 -1391 19167 0
-1392 19168 0
-19165 19168 0
-1392 -19165 19169 0
-19166 19170 0
-19168 19170 0
-19166 -19168 19171 0
-19167 19172 0
-19169 19172 0
-19167 -19169 19173 0
-19171 19174 0
-19172 19174 0
-19171 -19172 19175 0
-19174 0
1810 1811 1812 0
-19176 0
-1810 19177 0
-1811 19177 0
-1810 -1811 19178 0
-1812 19179 0
-19176 19179 0
-1812 -19176 19180 0
-19177 19181 0
-19179 19181 0
-19177 -19179 19182 0
-19178 19183 0
-19180 19183 0
-19178 -19180 19184 0
-19182 19185 0
-19183 19185 0
-19182 -19183 19186 0
-19185 0
2230 2231 2232 0
-19187 0
-2230 19188 0
-2231 19188 0
-2230 -2231 19189 0
-2232 19190 0
-19187 19190 0
-2232 -19187 19191 0
-19188 19192 0
-19190 19192 0
-19188 -19190 19193 0
-19189 19194 0
-19191 19194 0
-19189 -19191 19195 0
-19193 19196 0
-19194 19196 0
-19193 -19194 19197 0
-19196 0
2650 2651 2652 0
-19198 0
-2650 19199 0
-2651 19199 0
-2650 -2651 19200 0
-2652 19201 0
-19198 19201 0
-2652 -19198 19202 0
-19199 19203 0
-19201 19203 0
-19199 -19201 19204 0
-19200 19205 0
-19202 19205 0
-19200 -19202 19206 0
-19204 19207 0
-19205 19207 0
-19204 -19205 19208 0
-19207 0
133 134 135 0
-19209 0
-133 19210 0
-134 19210 0
-133 -134 19211 0
-135 19212 0
-19209 19212 0
-135 -19209 19213 0
-19210 19214 0
-19212 19214 0
-19210 -19212 19215 0
-19211 19216 0
-19213 19216 0
-19211 -19213 19217 0
-19215 19218 0
-19216 19218 0
-19215 -19216 19219 0
-19218 0
553 554 555 0
-19220 0
-553 19221 0
-554 19221 0
-553 -554 19222 0
-555 19223 0
-19220 19223 0
-555 -19220 19224 0
-19221 19225 0
-19223 19225 0
-19221 -19223 19226 0
-19222 19227 0
-19224 19227 0
-19222 -19224 19228 0
-19226 19229 0
-19227 19229 0
-19226 -19227 19230 0
-19229 0
973 974 975 0
-19231 0
-973 19232 0
-974 19232 0
-973 -974 19233 0
-975 19234 0
-19231 19234 0
-975 -19231 19235 0
-19232 19236 0
-19234 19236 0
-19232 -19234 19237 0
-19233 19238 0
-19235 19238 0
-19233 -19235 19239 0
-19237 19240 0
-19238 19240 0
-19237 -19238 19241 0
-19240 0
1393 1394 1395 0
-19242 0
-1393 19243 0
-1394 19243 0
-1393 -1394 19244 0
-1395 19245 0
-19242 19245 0
-1395 -19242 19246 0
-19243 19247 0
-19245 19247 0
-19243 -19245 19248 0
-19244 19249 0
-19246 19249 0
-19244 -19246 19250 0
-19248 19251 0
-19249 19251 0
-19248 -19249 19252 0
-19251 0
1813 1814 1815 0
-19253 0
-1813 19254 0
-1814 19254 0
-1813 -1814 19255 0
-1815 19256 0
-19253 19256 0
-1815 -19253 19257 0
-19254 19258 0
-19256 19258 0
-19254 -19256 19259 0
-19255 19260 0
-19257 19260 0
-19255 -19257 19261 0
-19259 19262 0
-19260 19262 0
-19259 -19260 19263 0
-19262 0
2233 2234 2235 0
-19264 0
-2233 19265 0
-2234 19265 0
-2233 -2234 19266 0
-2235 19267 0
-19264 19267 0
-2235 -19264 19268 0
-19265 19269 0
-19267 19269 0
-19265 -19267 19270 0
-19266 19271 0
-19268 19271 0
-19266 -19268 19272 0
-19270 19273 0
-19271 19273 0
-19270 -19271 19274 0
-19273 0
2653 2654 2655 0
-19275 0
-2653 19276 0
-2654 19276 0
-2653 -2654 19277 0
-2655 19278 0
-19275 19278 0
-2655 -19275 19279 0
-19276 19280 0
-19278 19280 0
-19276 -19278 19281 0
-19277 19282 0
-19279 19282 0
-19277 -19279 19283 0
-19281 19284 0
-19282 19284 0
-19281 -19282 19285 0
-19284 0
136 137 138 0
-19286 0
-136 19287 0
-137 19287 0
-136 -137 19288 0
-138 19289 0
-19286 19289 0
-138 -19286 19290 0
-19287 19291 0
-19289 19291 0
-19287 -19289 19292 0
-19288 19293 0
-19290 19293 0
-19288 -19290 19294 0
-19292 19295 0
-19293 19295 0
-19292 -19293 19296 0
-19295 0
556 557 558 0
-19297 0
-556 19298 0
-557 19298 0
-556 -557 19299 0
-558 19300 0
-19297 19300 0
-558 -19297 19301 0
-19298 19302 0
-19300 19302 0
-19298 -19300 19303 0
-19299 19304 0
-19301 19304 0
-19299 -19301 19305 0
-19303 19306 0
-19304 19306 0
-19303 -19304 19307 0
-19306 0
976 977 978 0
-19308 0
-976 19309 0
-977 19309 0
-976 -977 19310 0
-978 19311 0
-19308 19311 0
-978 -19308 19312 0
-19309 19313 0
-19311 19313 0
-19309 -19311 19314 0
-19310 19315 0
-19312 19315 0
-19310 -19312 19316 0
-19314 19317 0
-19315 19317 0
-19314 -19315 19318 0
-19317 0
1396 1397 1398 0
-19319 0
-1396 19320 0
-1397 19320 0
-1396 -1397 19321 0
-1398 19322 0
-19319 19322 0
-1398 -19319 19323 0
-19320 19324 0
-19322 19324 0
-19320 -19322 19325 0
-19321 19326 0
-19323 19326 0
-19321 -19323 19327 0
-19325 19328 0
-19326 19328 0
-19325 -19326 19329 0
-19328 0
1816 1817 1818 0
-19330 0
-1816 19331 0
-1817 19331 0
-1816 -1817 19332 0
-1818 19333 0
-19330 19333 0
-1818 -19330 19334 0
-19331 19335 0
-19333 19335 0
-19331 -19333 19336 0
-19332 19337 0
-19334 19337 0
-19332 -19334 19338 0
-19336 19339 0
-19337 19339 0
-19336 -19337 19340 0
-19339 0
2236 2237 2238 0
-19341 0
-2236 19342 0
-2237 19342 0
-2236 -2237 19343 0
-2238 19344 0
-19341 19344 0
-2238 -19341 19345 0
-19342 19346 0
-19344 19346 0
-19342 -19344 19347 0
-19343 19348 0
-19345 19348 0
-19343 -19345 19349 0
-19347 19350 0
-19348 19350 0
-19347 -19348 19351 0
-19350 0
2656 2657 2658 0
-19352 0
-2656 19353 0
-2657 19353 0
-2656 -2657 19354 0
-2658 19355 0
-19352 19355 0
-2658 -19352 19356 0
-19353 19357 0
-19355 19357 0
-19353 -19355 19358 0
-19354 19359 0
-19356 19359 0
-19354 -19356 19360 0
-19358 19361 0
-19359 19361 0
-19358 -19359 19362 0
-19361 0
139 140 141 0
-19363 0
-139 19364 0
-140 19364 0
-139 -140 19365 0
-141 19366 0
-19363 19366 0
-141 -19363 19367 0
-19364 19368 0
-19366 19368 0
-19364 -19366 19369 0
-19365 19370 0
-19367 19370 0
-19365 -19367 19371 0
-19369 19372 0
-19370 19372 0
-19369 -19370 19373 0
-19372 0
559 560 561 0
-19374 0
-559 19375 0
-560 19375 0
-559 -560 19376 0
-561 19377 0
-19374 19377 0
-561 -19374 19378 0
-19375 19379 0
-19377 19379 0
-19375 -19377 19380 0
-19376 19381 0
-19378 19381 0
-19376 -19378 19382 0
-19380 19383 0
-19381 19383 0
-19380 -19381 19384 0
-19383 0
979 980 981 0
-19385 0
-979 19386 0
-980 19386 0
-979 -980 19387 0
-981 19388 0
-19385 19388 0
-981 -19385 19389 0
-19386 19390 0
-19388 19390 0
-19386 -19388 19391 0
-19387 19392 0
-19389 19392 0
-19387 -19389 19393 0
-19391 19394 0
-19392 19394 0
-19391 -19392 19395 0
-19394 0
1399 1400 1401 0
-19396 0
-1399 19397 0
-1400 19397 0
-1399 -1400 19398 0
-1401 19399 0
-19396 19399 0
-1401 -19396 19400 0
-19397 19401 0
-19399 19401 0
-19397 -19399 19402 0
-19398 19403 0
-19400 19403 0
-19398 -19400 19404 0
-19402 19405 0
-19403 19405 0
-19402 -19403 19406 0
-19405 0
1819 1820 1821 0
-19407 0
-1819 19408 0
-1820 19408 0
-1819 -1820 19409 0
-1821 19410 0
-19407 19410 0
-1821 -19407 19411 0
-19408 19412 0
-19410 19412 0
-19408 -19410 19413 0
-19409 19414 0
-19411 19414 0
-19409 -19411 19415 0
-19413 19416 0
-19414 19416 0
-19413 -19414 19417 0
-19416 0
2239 2240 2241 0
-19418 0
-2239 19419 0
-2240 19419 0
-2239 -2240 19420 0
-2241 19421 0
-19418 19421 0
-2241 -19418 19422 0
-19419 19423 0
-19421 19423 0
-19419 -19421 19424 0
-19420 19425 0
-19422 19425 0
-19420 -19422 19426 0
-19424 19427 0
-19425 19427 0
-19424 -19425 19428 0
-19427 0
2659 2660 2661 0
-19429 0
-2659 19430 0
-2660 19430 0
-2659 -2660 19431 0
-2661 19432 0
-19429 19432 0
-2661 -19429 19433 0
-19430 19434 0
-19432 19434 0
-19430 -19432 19435 0
-19431 19436 0
-19433 19436 0
-19431 -19433 19437 0
-19435 19438 0
-19436 19438 0
-19435 -19436 19439 0
-19438 0
142 143 144 0
-19440 0
-142 19441 0
-143 19441 0
-142 -143 19442 0
-144 19443 0
-19440 19443 0
-144 -19440 19444 0
-19441 19445 0
-19443 19445 0
-19441 -19443 19446 0
-19442 19447 0
-19444 19447 0
-19442 -19444 19448 0
-19446 19449 0
-19447 19449 0
-19446 -19447 19450 0
-19449 0
562 563 564 0
-19451 0
-562 19452 0
-563 19452 0
-562 -563 19453 0
-564 19454 0
-19451 19454 0
-564 -19451 19455 0
-19452 19456 0
-19454 19456 0
-19452 -19454 19457 0
-19453 19458 0
-19455 19458 0
-19453 -19455 19459 0
-19457 19460 0
-19458 19460 0
-19457 -19458 19461 0
-19460 0
982 983 984 0
-19462 0
-982 19463 0
-983 19463 0
-982 -983 19464 0
-984 19465 0
-19462 19465 0
-984 -19462 19466 0
-19463 19467 0
-19465 19467 0
-19463 -19465 19468 0
-19464 19469 0
-19466 19469 0
-19464 -19466 19470 0
-19468 19471 0
-19469 19471 0
-19468 -19469 19472 0
-19471 0
1402 1403 1404 0
-19473 0
-1402 19474 0
-1403 19474 0
-1402 -1403 19475 0
-1404 19476 0
-19473 19476 0
-1404 -19473 19477 0
-19474 19478 0
-19476 19478 0
-19474 -19476 19479 0
-19475 19480 0
-19477 19480 0
-19475 -19477 19481 0
-19479 19482 0
-19480 19482 0
-19479 -19480 19483 0
-19482 0
1822 1823 1824 0
-19484 0
-1822 19485 0
-1823 19485 0
-1822 -1823 19486 0
-1824 19487 0
-19484 19487 0
-1824 -19484 19488 0
-19485 19489 0
-19487 19489 0
-19485 -19487 19490 0
-19486 19491 0
-19488 19491 0
-19486 -19488 19492 0
-19490 19493 0
-19491 19493 0
-19490 -19491 19494 0
-19493 0
2242 2243 2244 0
-19495 0
-2242 19496 0
-2243 19496 0
-2242 -2243 19497 0
-2244 19498 0
-19495 19498 0
-2244 -19495 19499 0
-19496 19500 0
-19498 19500 0
-19496 -19498 19501 0
-19497 19502 0
-19499 19502 0
-19497 -19499 19503 0
-19501 19504 0
-19502 19504 0
-19501 -19502 19505 0
-19504 0
2662 2663 2664 0
-19506 0
-2662 19507 0
-2663 19507 0
-2662 -2663 19508 0
-2664 19509 0
-19506 19509 0
-2664 -19506 19510 0
-19507 19511 0
-19509 19511 0
-19507 -19509 19512 0
-19508 19513 0
-19510 19513 0
-19508 -19510 19514 0
-19512 19515 0
-19513 19515 0
-19512 -19513 19516 0
-19515 0
145 146 147 0
-19517 0
-145 19518 0
-146 19518 0
-145 -146 19519 0
-147 19520 0
-19517 19520 0
-147 -19517 19521 0
-19518 19522 0
-19520 19522 0
-19518 -19520 19523 0
-19519 19524 0
-19521 19524 0
-19519 -19521 19525 0
-19523 19526 0
-19524 19526 0
-19523 -19524 19527 0
-19526 0
565 566 567 0
-19528 0
-565 19529 0
-566 19529 0
-565 -566 19530 0
-567 19531 0
-19528 19531 0
-567 -19528 19532 0
-19529 19533 0
-19531 19533 0
-19529 -19531 19534 0
-19530 19535 0
-19532 19535 0
-19530 -19532 19536 0
-19534 19537 0
-19535 19537 0
-19534 -19535 19538 0
-19537 0
985 986 987 0
-19539 0
-985 19540 0
-986 19540 0
-985 -986 19541 0
-987 19542 0
-19539 19542 0
-987 -19539 19543 0
-19540 19544 0
-19542 19544 0
-19540 -19542 19545 0
-19541 19546 0
-19543 19546 0
-19541 -19543 19547 0
-19545 19548 0
-19546 19548 0
-19545 -19546 19549 0
-19548 0
1405 1406 1407 0
-19550 0
-1405 19551 0
-1406 19551 0
-1405 -1406 19552 0
-1407 19553 0
-19550 19553 0
-1407 -19550 19554 0
-19551 19555 0
-19553 19555 0
-19551 -19553 19556 0
-19552 19557 0
-19554 19557 0
-19552 -19554 19558 0
-19556 19559 0
-19557 19559 0
-19556 -19557 19560 0
-19559 0
1825 1826 1827 0
-19561 0
-1825 19562 0
-1826 19562 0
-1825 -1826 19563 0
-1827 19564 0
-19561 19564 0
-1827 -19561 19565 0
-19562 19566 0
-19564 19566 0
-19562 -19564 19567 0
-19563 19568 0
-19565 19568 0
-19563 -19565 19569 0
-19567 19570 0
-19568 19570 0
-19567 -19568 19571 0
-19570 0
2245 2246 2247 0
-19572 0
-2245 19573 0
-2246 19573 0
-2245 -2246 19574 0
-2247 19575 0
-19572 19575 0
-2247 -19572 19576 0
-19573 19577 0
-19575 19577 0
-19573 -19575 19578 0
-19574 19579 0
-19576 19579 0
-19574 -19576 19580 0
-19578 19581 0
-19579 19581 0
-19578 -19579 19582 0
-19581 0
2665 2666 2667 0
-19583 0
-2665 19584 0
-2666 19584 0
-2665 -2666 19585 0
-2667 19586 0
-19583 19586 0
-2667 -19583 19587 0
-19584 19588 0
-19586 19588 0
-19584 -19586 19589 0
-19585 19590 0
-19587 19590 0
-19585 -19587 19591 0
-19589 19592 0
-19590 19592 0
-19589 -19590 19593 0
-19592 0
148 149 150 0
-19594 0
-148 19595 0
-149 19595 0
-148 -149 19596 0
-150 19597 0
-19594 19597 0
-150 -19594 19598 0
-19595 19599 0
-19597 19599 0
-19595 -19597 19600 0
-19596 19601 0
-19598 19601 0
-19596 -19598 19602 0
-19600 19603 0
-19601 19603 0
-19600 -19601 19604 0
-19603 0
568 569 570 0
-19605 0
-568 19606 0
-569 19606 0
-568 -569 19607 0
-570 19608 0
-19605 19608 0
-570 -19605 19609 0
-19606 19610 0
-19608 19610 0
-19606 -19608 19611 0
-19607 19612 0
-19609 19612 0
-19607 -19609 19613 0
-19611 19614 0
-19612 19614 0
-19611 -19612 19615 0
-19614 0
988 989 990 0
-19616 0
-988 19617 0
-989 19617 0
-988 -989 19618 0
-990 19619 0
-19616 19619 0
-990 -19616 19620 0
-19617 19621 0
-19619 19621 0
-19617 -19619 19622 0
-19618 19623 0
-19620 19623 0
-19618 -19620 19624 0
-19622 19625 0
-19623 19625 0
-19622 -19623 19626 0
-19625 0
1408 1409 1410 0
-19627 0
-1408 19628 0
-1409 19628 0
-1408 -1409 19629 0
-1410 19630 0
-19627 19630 0
-1410 -19627 19631 0
-19628 19632 0
-19630 19632 0
-19628 -19630 19633 0
-19629 19634 0
-19631 19634 0
-19629 -19631 19635 0
-19633 19636 0
-19634 19636 0
-19633 -19634 19637 0
-19636 0
1828 1829 1830 0
-19638 0
-1828 19639 0
-1829 19639 0
-1828 -1829 19640 0
-1830 19641 0
-19638 19641 0
-1830 -19638 19642 0
-19639 19643 0
-19641 19643 0
-19639 -19641 19644 0
-19640 19645 0
-19642 19645 0
-19640 -19642 19646 0
-19644 19647 0
-19645 19647 0
-19644 -19645 19648 0
-19647 0
2248 2249 2250 0
-19649 0
-2248 19650 0
-2249 19650 0
-2248 -2249 19651 0
-2250 19652 0
-19649 19652 0
-2250 -19649 19653 0
-19650 19654 0
-19652 19654 0
-19650 -19652 19655 0
-19651 19656 0
-19653 19656 0
-19651 -19653 19657 0
-19655 19658 0
-19656 19658 0
-19655 -19656 19659 0
-19658 0
2668 2669 2670 0
-19660 0
-2668 19661 0
-2669 19661 0
-2668 -2669 19662 0
-2670 19663 0
-19660 19663 0
-2670 -19660 19664 0
-19661 19665 0
-19663 19665 0
-19661 -19663 19666 0
-19662 19667 0
-19664 19667 0
-19662 -19664 19668 0
-19666 19669 0
-19667 19669 0
-19666 -19667 19670 0
-19669 0
151 152 153 0
-19671 0
-151 19672 0
-152 19672 0
-151 -152 19673 0
-153 19674 0
-19671 19674 0
-153 -19671 19675 0
-19672 19676 0
-19674 19676 0
-19672 -19674 19677 0
-19673 19678 0
-19675 19678 0
-19673 -19675 19679 0
-19677 19680 0
-19678 19680 0
-19677 -19678 19681 0
-19680 0
571 572 573 0
-19682 0
-571 19683 0
-572 19683 0
-571 -572 19684 0
-573 19685 0
-19682 19685 0
-573 -19682 19686 0
-19683 19687 0
-19685 19687 0
-19683 -19685 19688 0
-19684 19689 0
-19686 19689 0
-19684 -19686 19690 0
-19688 19691 0
-19689 19691 0
-19688 -19689 19692 0
-19691 0
991 992 993 0
-19693 0
-991 19694 0
-992 19694 0
-991 -992 19695 0
-993 19696 0
-19693 19696 0
-993 -19693 19697 0
-19694 19698 0
-19696 19698 0
-19694 -19696 19699 0
-19695 19700 0
-19697 19700 0
-19695 -19697 19701 0
-19699 19702 0
-19700 19702 0
-19699 -19700 19703 0
-19702 0
1411 1412 1413 0
-19704 0
-1411 19705 0
-1412 19705 0
-1411 -1412 19706 0
-1413 19707 0
-19704 19707 0
-1413 -19704 19708 0
-19705 19709 0
-19707 19709 0
-19705 -19707 19710 0
-19706 19711 0
-19708 19711 0
-19706 -19708 19712 0
-19710 19713 0
-19711 19713 0
-19710 -19711 19714 0
-19713 0
1831 1832 1833 0
-19715 0
-1831 19716 0
-1832 19716 0
-1831 -1832 19717 0
-1833 19718 0
-19715 19718 0
-1833 -19715 19719 0
-19716 19720 0
-19718 19720 0
-19716 -19718 19721 0
-19717 19722 0
-19719 19722 0
-19717 -19719 19723 0
-19721 19724 0
-19722 19724 0
-19721 -19722 19725 0
-19724 0
2251 2252 2253 0
-19726 0
-2251 19727 0
-2252 19727 0
-2251 -2252 19728 0
-2253 19729 0
-19726 19729 0
-2253 -19726 19730 0
-19727 19731 0
-19729 19731 0
-19727 -19729 19732 0
-19728 19733 0
-19730 19733 0
-19728 -19730 19734 0
-19732 19735 0
-19733 19735 0
-19732 -19733 19736 0
-19735 0
2671 2672 2673 0
-19737 0
-2671 19738 0
-2672 19738 0
-2671 -2672 19739 0
-2673 19740 0
-19737 19740 0
-2673 -19737 19741 0
-19738 19742 0
-19740 19742 0
-19738 -19740 19743 0
-19739 19744 0
-19741 19744 0
-19739 -19741 19745 0
-19743 19746 0
-19744 19746 0
-19743 -19744 19747 0
-19746 0
154 155 156 0
-19748 0
-154 19749 0
-155 19749 0
-154 -155 19750 0
-156 19751 0
-19748 19751 0
-156 -19748 19752 0
-19749 19753 0
-19751 19753 0
-19749 -19751 19754 0
-19750 19755 0
-19752 19755 0
-19750 -19752 19756 0
-19754 19757 0
-19755 19757 0
-19754 -19755 19758 0
-19757 0
574 575 576 0
-19759 0
-574 19760 0
-575 19760 0
-574 -575 19761 0
-576 19762 0
-19759 19762 0
-576 -19759 19763 0
-19760 19764 0
-19762 19764 0
-19760 -19762 19765 0
-19761 19766 0
-19763 19766 0
-19761 -19763 19767 0
-19765 19768 0
-19766 19768 0
-19765 -19766 19769 0
-19768 0
994 995 996 0
-19770 0
-994 19771 0
-995 19771 0
-994 -995 19772 0
-996 19773 0
-19770 19773 0
-996 -19770 19774 0
-19771 19775 0
-19773 19775 0
-19771 -19773 19776 0
-19772 19777 0
-19774 19777 0
-19772 -19774 19778 0
-19776 19779 0
-19777 19779 0
-19776 -19777 19780 0
-19779 0
1414 1415 1416 0
-19781 0
-1414 19782 0
-1415 19782 0
-1414 -1415 19783 0
-1416 19784 0
-19781 19784 0
-1416 -19781 19785 0
-19782 19786 0
-19784 19786 0
-19782 -19784 19787 0
-19783 19788 0
-19785 19788 0
-19783 -19785 19789 0
-19787 19790 0
-19788 19790 0
-19787 -19788 19791 0
-19790 0
1834 1835 1836 0
-19792 0
-1834 19793 0
-1835 19793 0
-1834 -1835 19794 0
-1836 19795 0
-19792 19795 0
-1836 -19792 19796 0
-19793 19797 0
-19795 19797 0
-19793 -19795 19798 0
-19794 19799 0
-19796 19799 0
-19794 -19796 19800 0
-19798 19801 0
-19799 19801 0
-19798 -19799 19802 0
-19801 0
2254 2255 2256 0
-19803 0
-2254 19804 0
-2255 19804 0
-2254 -2255 19805 0
-2256 19806 0
-19803 19806 0
-2256 -19803 19807 0
-19804 19808 0
-19806 19808 0
-19804 -19806 19809 0
-19805 19810 0
-19807 19810 0
-19805 -19807 19811 0
-19809 19812 0
-19810 19812 0
-19809 -19810 19813 0
-19812 0
2674 2675 2676 0
-19814 0
-2674 19815 0
-2675 19815 0
-2674 -2675 19816 0
-2676 19817 0
-19814 19817 0
-2676 -19814 19818 0
-19815 19819 0
-19817 19819 0
-19815 -19817 19820 0
-19816 19821 0
-19818 19821 0
-19816 -19818 19822 0
-19820 19823 0
-19821 19823 0
-19820 -19821 19824 0
-19823 0
157 158 159 0
-19825 0
-157 19826 0
-158 19826 0
-157 -158 19827 0
-159 19828 0
-19825 19828 0
-159 -19825 19829 0
-19826 19830 0
-19828 19830 0
-19826 -19828 19831 0
-19827 19832 0
-19829 19832 0
-19827 -19829 19833 0
-19831 19834 0
-19832 19834 0
-19831 -19832 19835 0
-19834 0
577 578 579 0
-19836 0
-577 19837 0
-578 19837 0
-577 -578 19838 0
-579 19839 0
-19836 19839 0
-579 -19836 19840 0
-19837 19841 0
-19839 19841 0
-19837 -19839 19842 0
-19838 19843 0
-19840 19843 0
-19838 -19840 19844 0
-19842 19845 0
-19843 19845 0
-19842 -19843 19846 0
-19845 0
997 998 999 0
-19847 0
-997 19848 0
-998 19848 0
-997 -998 19849 0
-999 19850 0
-19847 19850 0
-999 -19847 19851 0
-19848 19852 0
-19850 19852 0
-19848 -19850 19853 0
-19849 19854 0
-19851 19854 0
-19849 -19851 19855 0
-19853 19856 0
-19854 19856 0
-19853 -19854 19857 0
-19856 0
1417 1418 1419 0
-19858 0
-1417 19859 0
-1418 19859 0
-1417 -1418 19860 0
-1419 19861 0
-19858 19861 0
-1419 -19858 19862 0
-19859 19863 0
-19861 19863 0
-19859 -19861 19864 0
-19860 19865 0
-19862 19865 0
-19860 -19862 19866 0
-19864 19867 0
-19865 19867 0
-19864 -19865 19868 0
-19867 0
1837 1838 1839 0
-19869 0
-1837 19870 0
-1838 19870 0
-1837 -1838 19871 0
-1839 19872 0
-19869 19872 0
-1839 -19869 19873 0
-19870 19874 0
-19872 19874 0
-19870 -19872 19875 0
-19871 19876 0
-19873 19876 0
-19871 -19873 19877 0
-19875 19878 0
-19876 19878 0
-19875 -19876 19879 0
-19878 0
2257 2258 2259 0
-19880 0
-2257 19881 0
-2258 19881 0
-2257 -2258 19882 0
-2259 19883 0
-19880 19883 0
-2259 -19880 19884 0
-19881 19885 0
-19883 19885 0
-19881 -19883 19886 0
-19882 19887 0
-19884 19887 0
-19882 -19884 19888 0
-19886 19889 0
-19887 19889 0
-19886 -19887 19890 0
-19889 0
2677 2678 2679 0
-19891 0
-2677 19892 0
-2678 19892 0
-2677 -2678 19893 0
-2679 19894 0
-19891 19894 0
-2679 -19891 19895 0
-19892 19896 0
-19894 19896 0
-19892 -19894 19897 0
-19893 19898 0
-19895 19898 0
-19893 -19895 19899 0
-19897 19900 0
-19898 19900 0
-19897 -19898 19901 0
-19900 0
160 161 162 0
-19902 0
-160 19903 0
-161 19903 0
-160 -161 19904 0
-162 19905 0
-19902 19905 0
-162 -19902 19906 0
-19903 19907 0
-19905 19907 0
-19903 -19905 19908 0
-19904 19909 0
-19906 19909 0
-19904 -19906 19910 0
-19908 19911 0
-19909 19911 0
-19908 -19909 19912 0
-19911 0
580 581 582 0
-19913 0
-580 19914 0
-581 19914 0
-580 -581 19915 0
-582 19916 0
-19913 19916 0
-582 -19913 19917 0
-19914 19918 0
-19916 19918 0
-19914 -19916 19919 0
-19915 19920 0
-19917 19920 0
-19915 -19917 19921 0
-19919 19922 0
-19920 19922 0
-19919 -19920 19923 0
-19922 0
1000 1001 1002 0
-19924 0
-1000 19925 0
-1001 19925 0
-1000 -1001 19926 0
-1002 19927 0
-19924 19927 0
-1002 -19924 19928 0
-19925 19929 0
-19927 19929 0
-19925 -19927 19930 0
-19926 19931 0
-19928 19931 0
-19926 -19928 19932 0
-19930 19933 0
-19931 19933 0
-19930 -19931 19934 0
-19933 0
1420 1421 1422 0
-19935 0
-1420 19936 0
-1421 19936 0
-1420 -1421 19937 0
-1422 19938 0
-19935 19938 0
-1422 -19935 19939 0
-19936 19940 0
-19938 19940 0
-19936 -19938 19941 0
-19937 19942 0
-19939 19942 0
-19937 -19939 19943 0
-19941 19944 0
-19942 19944 0
-19941 -19942 19945 0
-19944 0
1840 1841 1842 0
-19946 0
-1840 19947 0
-1841 19947 0
-1840 -1841 19948 0
-1842 19949 0
-19946 19949 0
-1842 -19946 19950 0
-19947 19951 0
-19949 19951 0
-19947 -19949 19952 0
-19948 19953 0
-19950 19953 0
-19948 -19950 19954 0
-19952 19955 0
-19953 19955 0
-19952 -19953 19956 0
-19955 0
2260 2261 2262 0
-19957 0
-2260 19958 0
-2261 19958 0
-2260 -2261 19959 0
-2262 19960 0
-19957 19960 0
-2262 -19957 19961 0
-19958 19962 0
-19960 19962 0
-19958 -19960 19963 0
-19959 19964 0
-19961 19964 0
-19959 -19961 19965 0
-19963 19966 0
-19964 19966 0
-19963 -19964 19967 0
-19966 0
2680 2681 2682 0
-19968 0
-2680 19969 0
-2681 19969 0
-2680 -2681 19970 0
-2682 19971 0
-19968 19971 0
-2682 -19968 19972 0
-19969 19973 0
-19971 19973 0
-19969 -19971 19974 0
-19970 19975 0
-19972 19975 0
-19970 -19972 19976 0
-19974 19977 0
-19975 19977 0
-19974 -19975 19978 0
-19977 0
163 164 165 0
-19979 0
-163 19980 0
-164 19980 0
-163 -164 19981 0
-165 19982 0
-19979 19982 0
-165 -19979 19983 0
-19980 19984 0
-19982 19984 0
-19980 -19982 19985 0
-19981 19986 0
-19983 19986 0
-19981 -19983 19987 0
-19985 19988 0
-19986 19988 0
-19985 -19986 19989 0
-19988 0
583 584 585 0
-19990 0
-583 19991 0
-584 19991 0
-583 -584 19992 0
-585 19993 0
-19990 19993 0
-585 -19990 19994 0
-19991 19995 0
-19993 19995 0
-19991 -19993 19996 0
-19992 19997 0
-19994 19997 0
-19992 -19994 19998 0
-19996 19999 0
-19997 19999 0
-19996 -19997 20000 0
-19999 0
1003 1004 1005 0
-20001 0
-1003 20002 0
-1004 20002 0
-1003 -1004 20003 0
-1005 20004 0
-20001 20004 0
-1005 -20001 20005 0
-20002 20006 0
-20004 20006 0
-20002 -20004 20007 0
-20003 20008 0
-20005 20008 0
-20003 -20005 20009 0
-20007 20010 0
-20008 20010 0
-20007 -20008 20011 0
-20010 0
1423 1424 1425 0
-20012 0
-1423 20013 0
-1424 20013 0
-1423 -1424 20014 0
-1425 20015 0
-20012 20015 0
-1425 -20012 20016 0
-20013 20017 0
-20015 20017 0
-20013 -20015 20018 0
-20014 20019 0
-20016 20019 0
-20014 -20016 20020 0
-20018 20021 0
-20019 20021 0
-20018 -20019 20022 0
-20021 0
1843 1844 1845 0
-20023 0
-1843 20024 0
-1844 20024 0
-1843 -1844 20025 0
-1845 20026 0
-20023 20026 0
-1845 -20023 20027 0
-20024 20028 0
-20026 20028 0
-20024 -20026 20029 0
-20025 20030 0
-20027 20030 0
-20025 -20027 20031 0
-20029 20032 0
-20030 20032 0
-20029 -20030 20033 0
-20032 0
2263 2264 2265 0
-20034 0
-2263 20035 0
-2264 20035 0
-2263 -2264 20036 0
-2265 20037 0
-20034 20037 0
-2265 -20034 20038 0
-20035 20039 0
-20037 20039 0
-20035 -20037 20040 0
-20036 20041 0
-20038 20041 0
-20036 -20038 20042 0
-20040 20043 0
-20041 20043 0
-20040 -20041 20044 0
-20043 0
2683 2684 2685 0
-20045 0
-2683 20046 0
-2684 20046 0
-2683 -2684 20047 0
-2685 20048 0
-20045 20048 0
-2685 -20045 20049 0
-20046 20050 0
-20048 20050 0
-20046 -20048 20051 0
-20047 20052 0
-20049 20052 0
-20047 -20049 20053 0
-20051 20054 0
-20052 20054 0
-20051 -20052 20055 0
-20054 0
166 167 168 0
-20056 0
-166 20057 0
-167 20057 0
-166 -167 20058 0
-168 20059 0
-20056 20059 0
-168 -20056 20060 0
-20057 20061 0
-20059 20061 0
-20057 -20059 20062 0
-20058 20063 0
-20060 20063 0
-20058 -20060 20064 0
-20062 20065 0
-20063 20065 0
-20062 -20063 20066 0
-20065 0
586 587 588 0
-20067 0
-586 20068 0
-587 20068 0
-586 -587 20069 0
-588 20070 0
-20067 20070 0
-588 -20067 20071 0
-20068 20072 0
-20070 20072 0
-20068 -20070 20073 0
-20069 20074 0
-20071 20074 0
-20069 -20071 20075 0
-20073 20076 0
-20074 20076 0
-20073 -20074 20077 0
-20076 0
1006 1007 1008 0
-20078 0
-1006 20079 0
-1007 20079 0
-1006 -1007 20080 0
-1008 20081 0
-20078 20081 0
-1008 -20078 20082 0
-20079 20083 0
-20081 20083 0
-20079 -20081 20084 0
-20080 20085 0
-20082 20085 0
-20080 -20082 20086 0
-20084 20087 0
-20085 20087 0
-20084 -20085 20088 0
-20087 0
1426 1427 1428 0
-20089 0
-1426 20090 0
-1427 20090 0
-1426 -1427 20091 0
-1428 20092 0
-20089 20092 0
-1428 -20089 20093 0
-20090 20094 0
-20092 20094 0
-20090 -20092 20095 0
-20091 20096 0
-20093 20096 0
-20091 -20093 20097 0
-20095 20098 0
-20096 20098 0
-20095 -20096 20099 0
-20098 0
1846 1847 1848 0
-20100 0
-1846 20101 0
-1847 20101 0
-1846 -1847 20102 0
-1848 20103 0
-20100 20103 0
-1848 -20100 20104 0
-20101 20105 0
-20103 20105 0
-20101 -20103 20106 0
-20102 20107 0
-20104 20107 0
-20102 -20104 20108 0
-20106 20109 0
-20107 20109 0
-20106 -20107 20110 0
-20109 0
2266 2267 2268 0
-20111 0
-2266 20112 0
-2267 20112 0
-2266 -2267 20113 0
-2268 20114 0
-20111 20114 0
-2268 -20111 20115 0
-20112 20116 0
-20114 20116 0
-20112 -20114 20117 0
-20113 20118 0
-20115 20118 0
-20113 -20115 20119 0
-20117 20120 0
-20118 20120 0
-20117 -20118 20121 0
-20120 0
2686 2687 2688 0
-20122 0
-2686 20123 0
-2687 20123 0
-2686 -2687 20124 0
-2688 20125 0
-20122 20125 0
-2688 -20122 20126 0
-20123 20127 0
-20125 20127 0
-20123 -20125 20128 0
-20124 20129 0
-20126 20129 0
-20124 -20126 20130 0
-20128 20131 0
-20129 20131 0
-20128 -20129 20132 0
-20131 0
169 170 171 0
-20133 0
-169 20134 0
-170 20134 0
-169 -170 20135 0
-171 20136 0
-20133 20136 0
-171 -20133 20137 0
-20134 20138 0
-20136 20138 0
-20134 -20136 20139 0
-20135 20140 0
-20137 20140 0
-20135 -20137 20141 0
-20139 20142 0
-20140 20142 0
-20139 -20140 20143 0
-20142 0
589 590 591 0
-20144 0
-589 20145 0
-590 20145 0
-589 -590 20146 0
-591 20147 0
-20144 20147 0
-591 -20144 20148 0
-20145 20149 0
-20147 20149 0
-20145 -20147 20150 0
-20146 20151 0
-20148 20151 0
-20146 -20148 20152 0
-20150 20153 0
-20151 20153 0
-20150 -20151 20154 0
-20153 0
1009 1010 1011 0
-20155 0
-1009 20156 0
-1010 20156 0
-1009 -1010 20157 0
-1011 20158 0
-20155 20158 0
-1011 -20155 20159 0
-20156 20160 0
-20158 20160 0
-20156 -20158 20161 0
-20157 20162 0
-20159 20162 0
-20157 -20159 20163 0
-20161 20164 0
-20162 20164 0
-20161 -20162 20165 0
-20164 0
1429 1430 1431 0
-20166 0
-1429 20167 0
-1430 20167 0
-1429 -1430 20168 0
-1431 20169 0
-20166 20169 0
-1431 -20166 20170 0
-20167 20171 0
-20169 20171 0
-20167 -20169 20172 0
-20168 20173 0
-20170 20173 0
-20168 -20170 20174 0
-20172 20175 0
-20173 20175 0
-20172 -20173 20176 0
-20175 0
1849 1850 1851 0
-20177 0
-1849 20178 0
-1850 20178 0
-1849 -1850 20179 0
-1851 20180 0
-20177 20180 0
-1851 -20177 20181 0
-20178 20182 0
-20180 20182 0
-20178 -20180 20183 0
-20179 20184 0
-20181 20184 0
-20179 -20181 20185 0
-20183 20186 0
-20184 20186 0
-20183 -20184 20187 0
-20186 0
2269 2270 2271 0
-20188 0
-2269 20189 0
-2270 20189 0
-2269 -2270 20190 0
-2271 20191 0
-20188 20191 0
-2271 -20188 20192 0
-20189 20193 0
-20191 20193 0
-20189 -20191 20194 0
-20190 20195 0
-20192 20195 0
-20190 -20192 20196 0
-20194 20197 0
-20195 20197 0
-20194 -20195 20198 0
-20197 0
2689 2690 2691 0
-20199 0
-2689 20200 0
-2690 20200 0
-2689 -2690 20201 0
-2691 20202 0
-20199 20202 0
-2691 -20199 20203 0
-20200 20204 0
-20202 20204 0
-20200 -20202 20205 0
-20201 20206 0
-20203 20206 0
-20201 -20203 20207 0
-20205 20208 0
-20206 20208 0
-20205 -20206 20209 0
-20208 0
172 173 174 0
-20210 0
-172 20211 0
-173 20211 0
-172 -173 20212 0
-174 20213 0
-20210 20213 0
-174 -20210 20214 0
-20211 20215 0
-20213 20215 0
-20211 -20213 20216 0
-20212 20217 0
-20214 20217 0
-20212 -20214 20218 0
-20216 20219 0
-20217 20219 0
-20216 -20217 20220 0
-20219 0
592 593 594 0
-20221 0
-592 20222 0
-593 20222 0
-592 -593 20223 0
-594 20224 0
-20221 20224 0
-594 -20221 20225 0
-20222 20226 0
-20224 20226 0
-20222 -20224 20227 0
-20223 20228 0
-20225 20228 0
-20223 -20225 20229 0
-20227 20230 0
-20228 20230 0
-20227 -20228 20231 0
-20230 0
1012 1013 1014 0
-20232 0
-1012 20233 0
-1013 20233 0
-1012 -1013 20234 0
-1014 20235 0
-20232 20235 0
-1014 -20232 20236 0
-20233 20237 0
-20235 20237 0
-20233 -20235 20238 0
-20234 20239 0
-20236 20239 0
-20234 -20236 20240 0
-20238 20241 0
-20239 20241 0
-20238 -20239 20242 0
-20241 0
1432 1433 1434 0
-20243 0
-1432 20244 0
-1433 20244 0
-1432 -1433 20245 0
-1434 20246 0
-20243 20246 0
-1434 -20243 20247 0
-20244 20248 0
-20246 20248 0
-20244 -20246 20249 0
-20245 20250 0
-20247 20250 0
-20245 -20247 20251 0
-20249 20252 0
-20250 20252 0
-20249 -20250 20253 0
-20252 0
1852 1853 1854 0
-20254 0
-1852 20255 0
-1853 20255 0
-1852 -1853 20256 0
-1854 20257 0
-20254 20257 0
-1854 -20254 20258 0
-20255 20259 0
-20257 20259 0
-20255 -20257 20260 0
-20256 20261 0
-20258 20261 0
-20256 -20258 20262 0
-20260 20263 0
-20261 20263 0
-20260 -20261 20264 0
-20263 0
2272 2273 2274 0
-20265 0
-2272 20266 0
-2273 20266 0
-2272 -2273 20267 0
-2274 20268 0
-20265 20268 0
-2274 -20265 20269 0
-20266 20270 0
-20268 20270 0
-20266 -20268 20271 0
-20267 20272 0
-20269 20272 0
-20267 -20269 20273 0
-20271 20274 0
-20272 20274 0
-20271 -20272 20275 0
-20274 0
2692 2693 2694 0
-20276 0
-2692 20277 0
-2693 20277 0
-2692 -2693 20278 0
-2694 20279 0
-20276 20279 0
-2694 -20276 20280 0
-20277 20281 0
-20279 20281 0
-20277 -20279 20282 0
-20278 20283 0
-20280 20283 0
-20278 -20280 20284 0
-20282 20285 0
-20283 20285 0
-20282 -20283 20286 0
-20285 0
175 176 177 0
-20287 0
-175 20288 0
-176 20288 0
-175 -176 20289 0
-177 20290 0
-20287 20290 0
-177 -20287 20291 0
-20288 20292 0
-20290 20292 0
-20288 -20290 20293 0
-20289 20294 0
-20291 20294 0
-20289 -20291 20295 0
-20293 20296 0
-20294 20296 0
-20293 -20294 20297 0
-20296 0
595 596 597 0
-20298 0
-595 20299 0
-596 20299 0
-595 -596 20300 0
-597 20301 0
-20298 20301 0
-597 -20298 20302 0
-20299 20303 0
-20301 20303 0
-20299 -20301 20304 0
-20300 20305 0
-20302 20305 0
-20300 -20302 20306 0
-20304 20307 0
-20305 20307 0
-20304 -20305 20308 0
-20307 0
1015 1016 1017 0
-20309 0
-1015 20310 0
-1016 20310 0
-1015 -1016 20311 0
-1017 20312 0
-20309 20312 0
-1017 -20309 20313 0
-20310 20314 0
-20312 20314 0
-20310 -20312 20315 0
-20311 20316 0
-20313 20316 0
-20311 -20313 20317 0
-20315 20318 0
-20316 20318 0
-20315 -20316 20319 0
-20318 0
1435 1436 1437 0
-20320 0
-1435 20321 0
-1436 20321 0
-1435 -1436 20322 0
-1437 20323 0
-20320 20323 0
-1437 -20320 20324 0
-20321 20325 0
-20323 20325 0
-20321 -20323 20326 0
-20322 20327 0
-20324 20327 0
-20322 -20324 20328 0
-20326 20329 0
-20327 20329 0
-20326 -20327 20330 0
-20329 0
1855 1856 1857 0
-20331 0
-1855 20332 0
-1856 20332 0
-1855 -1856 20333 0
-1857 20334 0
-20331 20334 0
-1857 -20331 20335 0
-20332 20336 0
-20334 20336 0
-20332 -20334 20337 0
-20333 20338 0
-20335 20338 0
-20333 -20335 20339 0
-20337 20340 0
-20338 20340 0
-20337 -20338 20341 0
-20340 0
2275 2276 2277 0
-20342 0
-2275 20343 0
-2276 20343 0
-2275 -2276 20344 0
-2277 20345 0
-20342 20345 0
-2277 -20342 20346 0
-20343 20347 0
-20345 20347 0
-20343 -20345 20348 0
-20344 20349 0
-20346 20349 0
-20344 -20346 20350 0
-20348 20351 0
-20349 20351 0
-20348 -20349 20352 0
-20351 0
2695 2696 2697 0
-20353 0
-2695 20354 0
-2696 20354 0
-2695 -2696 20355 0
-2697 20356 0
-20353 20356 0
-2697 -20353 20357 0
-20354 20358 0
-20356 20358 0
-20354 -20356 20359 0
-20355 20360 0
-20357 20360 0
-20355 -20357 20361 0
-20359 20362 0
-20360 20362 0
-20359 -20360 20363 0
-20362 0
178 179 180 0
-20364 0
-178 20365 0
-179 20365 0
-178 -179 20366 0
-180 20367 0
-20364 20367 0
-180 -20364 20368 0
-20365 20369 0
-20367 20369 0
-20365 -20367 20370 0
-20366 20371 0
-20368 20371 0
-20366 -20368 20372 0
-20370 20373 0
-20371 20373 0
-20370 -20371 20374 0
-20373 0
598 599 600 0
-20375 0
-598 20376 0
-599 20376 0
-598 -599 20377 0
-600 20378 0
-20375 20378 0
-600 -20375 20379 0
-20376 20380 0
-20378 20380 0
-20376 -20378 20381 0
-20377 20382 0
-20379 20382 0
-20377 -20379 20383 0
-20381 20384 0
-20382 20384 0
-20381 -20382 20385 0
-20384 0
1018 1019 1020 0
-20386 0
-1018 20387 0
-1019 20387 0
-1018 -1019 20388 0
-1020 20389 0
-20386 20389 0
-1020 -20386 20390 0
-20387 20391 0
-20389 20391 0
-20387 -20389 20392 0
-20388 20393 0
-20390 20393 0
-20388 -20390 20394 0
-20392 20395 0
-20393 20395 0
-20392 -20393 20396 0
-20395 0
1438 1439 1440 0
-20397 0
-1438 20398 0
-1439 20398 0
-1438 -1439 20399 0
-1440 20400 0
-20397 20400 0
-1440 -20397 20401 0
-20398 20402 0
-20400 20402 0
-20398 -20400 20403 0
-20399 20404 0
-20401 20404 0
-20399 -20401 20405 0
-20403 20406 0
-20404 20406 0
-20403 -20404 20407 0
-20406 0
1858 1859 1860 0
-20408 0
-1858 20409 0
-1859 20409 0
-1858 -1859 20410 0
-1860 20411 0
-20408 20411 0
-1860 -20408 20412 0
-20409 20413 0
-20411 20413 0
-20409 -20411 20414 0
-20410 20415 0
-20412 20415 0
-20410 -20412 20416 0
-20414 20417 0
-20415 20417 0
-20414 -20415 20418 0
-20417 0
2278 2279 2280 0
-20419 0
-2278 20420 0
-2279 20420 0
-2278 -2279 20421 0
-2280 20422 0
-20419 20422 0
-2280 -20419 20423 0
-20420 20424 0
-20422 20424 0
-20420 -20422 20425 0
-20421 20426 0
-20423 20426 0
-20421 -20423 20427 0
-20425 20428 0
-20426 20428 0
-20425 -20426 20429 0
-20428 0
2698 2699 2700 0
-20430 0
-2698 20431 0
-2699 20431 0
-2698 -2699 20432 0
-2700 20433 0
-20430 20433 0
-2700 -20430 20434 0
-20431 20435 0
-20433 20435 0
-20431 -20433 20436 0
-20432 20437 0
-20434 20437 0
-20432 -20434 20438 0
-20436 20439 0
-20437 20439 0
-20436 -20437 20440 0
-20439 0
181 182 183 0
-20441 0
-181 20442 0
-182 20442 0
-181 -182 20443 0
-183 20444 0
-20441 20444 0
-183 -20441 20445 0
-20442 20446 0
-20444 20446 0
-20442 -20444 20447 0
-20443 20448 0
-20445 20448 0
-20443 -20445 20449 0
-20447 20450 0
-20448 20450 0
-20447 -20448 20451 0
-20450 0
601 602 603 0
-20452 0
-601 20453 0
-602 20453 0
-601 -602 20454 0
-603 20455 0
-20452 20455 0
-603 -20452 20456 0
-20453 20457 0
-20455 20457 0
-20453 -20455 20458 0
-20454 20459 0
-20456 20459 0
-20454 -20456 20460 0
-20458 20461 0
-20459 20461 0
-20458 -20459 20462 0
-20461 0
1021 1022 1023 0
-20463 0
-1021 20464 0
-1022 20464 0
-1021 -1022 20465 0
-1023 20466 0
-20463 20466 0
-1023 -20463 20467 0
-20464 20468 0
-20466 20468 0
-20464 -20466 20469 0
-20465 20470 0
-20467 20470 0
-20465 -20467 20471 0
-20469 20472 0
-20470 20472 0
-20469 -20470 20473 0
-20472 0
1441 1442 1443 0
-20474 0
-1441 20475 0
-1442 20475 0
-1441 -1442 20476 0
-1443 20477 0
-20474 20477 0
-1443 -20474 20478 0
-20475 20479 0
-20477 20479 0
-20475 -20477 20480 0
-20476 20481 0
-20478 20481 0
-20476 -20478 20482 0
-20480 20483 0
-20481 20483 0
-20480 -20481 20484 0
-20483 0
1861 1862 1863 0
-20485 0
-1861 20486 0
-1862 20486 0
-1861 -1862 20487 0
-1863 20488 0
-20485 20488 0
-1863 -20485 20489 0
-20486 20490 0
-20488 20490 0
-20486 -20488 20491 0
-20487 20492 0
-20489 20492 0
-20487 -20489 20493 0
-20491 20494 0
-20492 20494 0
-20491 -20492 20495 0
-20494 0
2281 2282 2283 0
-20496 0
-2281 20497 0
-2282 20497 0
-2281 -2282 20498 0
-2283 20499 0
-20496 20499 0
-2283 -20496 20500 0
-20497 20501 0
-20499 20501 0
-20497 -20499 20502 0
-20498 20503 0
-20500 20503 0
-20498 -20500 20504 0
-20502 20505 0
-20503 20505 0
-20502 -20503 20506 0
-20505 0
2701 2702 2703 0
-20507 0
-2701 20508 0
-2702 20508 0
-2701 -2702 20509 0
-2703 20510 0
-20507 20510 0
-2703 -20507 20511 0
-20508 20512 0
-20510 20512 0
-20508 -20510 20513 0
-20509 20514 0
-20511 20514 0
-20509 -20511 20515 0
-20513 20516 0
-20514 20516 0
-20513 -20514 20517 0
-20516 0
184 185 186 0
-20518 0
-184 20519 0
-185 20519 0
-184 -185 20520 0
-186 20521 0
-20518 20521 0
-186 -20518 20522 0
-20519 20523 0
-20521 20523 0
-20519 -20521 20524 0
-20520 20525 0
-20522 20525 0
-20520 -20522 20526 0
-20524 20527 0
-20525 20527 0
-20524 -20525 20528 0
-20527 0
604 605 606 0
-20529 0
-604 20530 0
-605 20530 0
-604 -605 20531 0
-606 20532 0
-20529 20532 0
-606 -20529 20533 0
-20530 20534 0
-20532 20534 0
-20530 -20532 20535 0
-20531 20536 0
-20533 20536 0
-20531 -20533 20537 0
-20535 20538 0
-20536 20538 0
-20535 -20536 20539 0
-20538 0
1024 1025 1026 0
-20540 0
-1024 20541 0
-1025 20541 0
-1024 -1025 20542 0
-1026 20543 0
-20540 20543 0
-1026 -20540 20544 0
-20541 20545 0
-20543 20545 0
-20541 -20543 20546 0
-20542 20547 0
-20544 20547 0
-20542 -20544 20548 0
-20546 20549 0
-20547 20549 0
-20546 -20547 20550 0
-20549 0
1444 1445 1446 0
-20551 0
-1444 20552 0
-1445 20552 0
-1444 -1445 20553 0
-1446 20554 0
-20551 20554 0
-1446 -20551 20555 0
-20552 20556 0
-20554 20556 0
-20552 -20554 20557 0
-20553 20558 0
-20555 20558 0
-20553 -20555 20559 0
-20557 20560 0
-20558 20560 0
-20557 -20558 20561 0
-20560 0
1864 1865 1866 0
-20562 0
-1864 20563 0
-1865 20563 0
-1864 -1865 20564 0
-1866 20565 0
-20562 20565 0
-1866 -20562 20566 0
-20563 20567 0
-20565 20567 0
-20563 -20565 20568 0
-20564 20569 0
-20566 20569 0
-20564 -20566 20570 0
-20568 20571 0
-20569 20571 0
-20568 -20569 20572 0
-20571 0
2284 2285 2286 0
-20573 0
-2284 20574 0
-2285 20574 0
-2284 -2285 20575 0
-2286 20576 0
-20573 20576 0
-2286 -20573 20577 0
-20574 20578 0
-20576 20578 0
-20574 -20576 20579 0
-20575 20580 0
-20577 20580 0
-20575 -20577 20581 0
-20579 20582 0
-20580 20582 0
-20579 -20580 20583 0
-20582 0
2704 2705 2706 0
-20584 0
-2704 20585 0
-2705 20585 0
-2704 -2705 20586 0
-2706 20587 0
-20584 20587 0
-2706 -20584 20588 0
-20585 20589 0
-20587 20589 0
-20585 -20587 20590 0
-20586 20591 0
-20588 20591 0
-20586 -20588 20592 0
-20590 20593 0
-20591 20593 0
-20590 -20591 20594 0
-20593 0
187 188 189 0
-20595 0
-187 20596 0
-188 20596 0
-187 -188 20597 0
-189 20598 0
-20595 20598 0
-189 -20595 20599 0
-20596 20600 0
-20598 20600 0
-20596 -20598 20601 0
-20597 20602 0
-20599 20602 0
-20597 -20599 20603 0
-20601 20604 0
-20602 20604 0
-20601 -20602 20605 0
-20604 0
607 608 609 0
-20606 0
-607 20607 0
-608 20607 0
-607 -608 20608 0
-609 20609 0
-20606 20609 0
-609 -20606 20610 0
-20607 20611 0
-20609 20611 0
-20607 -20609 20612 0
-20608 20613 0
-20610 20613 0
-20608 -20610 20614 0
-20612 20615 0
-20613 20615 0
-20612 -20613 20616 0
-20615 0
1027 1028 1029 0
-20617 0
-1027 20618 0
-1028 20618 0
-1027 -1028 20619 0
-1029 20620 0
-20617 20620 0
-1029 -20617 20621 0
-20618 20622 0
-20620 20622 0
-20618 -20620 20623 0
-20619 20624 0
-20621 20624 0
-20619 -20621 20625 0
-20623 20626 0
-20624 20626 0
-20623 -20624 20627 0
-20626 0
1447 1448 1449 0
-20628 0
-1447 20629 0
-1448 20629 0
-1447 -1448 20630 0
-1449 20631 0
-20628 20631 0
-1449 -20628 20632 0
-20629 20633 0
-20631 20633 0
-20629 -20631 20634 0
-20630 20635 0
-20632 20635 0
-20630 -20632 20636 0
-20634 20637 0
-20635 20637 0
-20634 -20635 20638 0
-20637 0
1867 1868 1869 0
-20639 0
-1867 20640 0
-1868 20640 0
-1867 -1868 20641 0
-1869 20642 0
-20639 20642 0
-1869 -20639 20643 0
-20640 20644 0
-20642 20644 0
-20640 -20642 20645 0
-20641 20646 0
-20643 20646 0
-20641 -20643 20647 0
-20645 20648 0
-20646 20648 0
-20645 -20646 20649 0
-20648 0
2287 2288 2289 0
-20650 0
-2287 20651 0
-2288 20651 0
-2287 -2288 20652 0
-2289 20653 0
-20650 20653 0
-2289 -20650 20654 0
-20651 20655 0
-20653 20655 0
-20651 -20653 20656 0
-20652 20657 0
-20654 20657 0
-20652 -20654 20658 0
-20656 20659 0
-20657 20659 0
-20656 -20657 20660 0
-20659 0
2707 2708 2709 0
-20661 0
-2707 20662 0
-2708 20662 0
-2707 -2708 20663 0
-2709 20664 0
-20661 20664 0
-2709 -20661 20665 0
-20662 20666 0
-20664 20666 0
-20662 -20664 20667 0
-20663 20668 0
-20665 20668 0
-20663 -20665 20669 0
-20667 20670 0
-20668 20670 0
-20667 -20668 20671 0
-20670 0
190 191 192 0
-20672 0
-190 20673 0
-191 20673 0
-190 -191 20674 0
-192 20675 0
-20672 20675 0
-192 -20672 20676 0
-20673 20677 0
-20675 20677 0
-20673 -20675 20678 0
-20674 20679 0
-20676 20679 0
-20674 -20676 20680 0
-20678 20681 0
-20679 20681 0
-20678 -20679 20682 0
-20681 0
610 611 612 0
-20683 0
-610 20684 0
-611 20684 0
-610 -611 20685 0
-612 20686 0
-20683 20686 0
-612 -20683 20687 0
-20684 20688 0
-20686 20688 0
-20684 -20686 20689 0
-20685 20690 0
-20687 20690 0
-20685 -20687 20691 0
-20689 20692 0
-20690 20692 0
-20689 -20690 20693 0
-20692 0
1030 1031 1032 0
-20694 0
-1030 20695 0
-1031 20695 0
-1030 -1031 20696 0
-1032 20697 0
-20694 20697 0
-1032 -20694 20698 0
-20695 20699 0
-20697 20699 0
-20695 -20697 20700 0
-20696 20701 0
-20698 20701 0
-20696 -20698 20702 0
-20700 20703 0
-20701 20703 0
-20700 -20701 20704 0
-20703 0
1450 1451 1452 0
-20705 0
-1450 20706 0
-1451 20706 0
-1450 -1451 20707 0
-1452 20708 0
-20705 20708 0
-1452 -20705 20709 0
-20706 20710 0
-20708 20710 0
-20706 -20708 20711 0
-20707 20712 0
-20709 20712 0
-20707 -20709 20713 0
-20711 20714 0
-20712 20714 0
-20711 -20712 20715 0
-20714 0
1870 1871 1872 0
-20716 0
-1870 20717 0
-1871 20717 0
-1870 -1871 20718 0
-1872 20719 0
-20716 20719 0
-1872 -20716 20720 0
-20717 20721 0
-20719 20721 0
-20717 -20719 20722 0
-20718 20723 0
-20720 20723 0
-20718 -20720 20724 0
-20722 20725 0
-20723 20725 0
-20722 -20723 20726 0
-20725 0
2290 2291 2292 0
-20727 0
-2290 20728 0
-2291 20728 0
-2290 -2291 20729 0
-2292 20730 0
-20727 20730 0
-2292 -20727 20731 0
-20728 20732 0
-20730 20732 0
-20728 -20730 20733 0
-20729 20734 0
-20731 20734 0
-20729 -20731 20735 0
-20733 20736 0
-20734 20736 0
-20733 -20734 20737 0
-20736 0
2710 2711 2712 0
-20738 0
-2710 20739 0
-2711 20739 0
-2710 -2711 20740 0
-2712 20741 0
-20738 20741 0
-2712 -20738 20742 0
-20739 20743 0
-20741 20743 0
-20739 -20741 20744 0
-20740 20745 0
-20742 20745 0
-20740 -20742 20746 0
-20744 20747 0
-20745 20747 0
-20744 -20745 20748 0
-20747 0
193 194 195 0
-20749 0
-193 20750 0
-194 20750 0
-193 -194 20751 0
-195 20752 0
-20749 20752 0
-195 -20749 20753 0
-20750 20754 0
-20752 20754 0
-20750 -20752 20755 0
-20751 20756 0
-20753 20756 0
-20751 -20753 20757 0
-20755 20758 0
-20756 20758 0
-20755 -20756 20759 0
-20758 0
613 614 615 0
-20760 0
-613 20761 0
-614 20761 0
-613 -614 20762 0
-615 20763 0
-20760 20763 0
-615 -20760 20764 0
-20761 20765 0
-20763 20765 0
-20761 -20763 20766 0
-20762 20767 0
-20764 20767 0
-20762 -20764 20768 0
-20766 20769 0
-20767 20769 0
-20766 -20767 20770 0
-20769 0
1033 1034 1035 0
-20771 0
-1033 20772 0
-1034 20772 0
-1033 -1034 20773 0
-1035 20774 0
-20771 20774 0
-1035 -20771 20775 0
-20772 20776 0
-20774 20776 0
-20772 -20774 20777 0
-20773 20778 0
-20775 20778 0
-20773 -20775 20779 0
-20777 20780 0
-20778 20780 0
-20777 -20778 20781 0
-20780 0
1453 1454 1455 0
-20782 0
-1453 20783 0
-1454 20783 0
-1453 -1454 20784 0
-1455 20785 0
-20782 20785 0
-1455 -20782 20786 0
-20783 20787 0
-20785 20787 0
-20783 -20785 20788 0
-20784 20789 0
-20786 20789 0
-20784 -20786 20790 0
-20788 20791 0
-20789 20791 0
-20788 -20789 20792 0
-20791 0
1873 1874 1875 0
-20793 0
-1873 20794 0
-1874 20794 0
-1873 -1874 20795 0
-1875 20796 0
-20793 20796 0
-1875 -20793 20797 0
-20794 20798 0
-20796 20798 0
-20794 -20796 20799 0
-20795 20800 0
-20797 20800 0
-20795 -20797 20801 0
-20799 20802 0
-20800 20802 0
-20799 -20800 20803 0
-20802 0
2293 2294 2295 0
-20804 0
-2293 20805 0
-2294 20805 0
-2293 -2294 20806 0
-2295 20807 0
-20804 20807 0
-2295 -20804 20808 0
-20805 20809 0
-20807 20809 0
-20805 -20807 20810 0
-20806 20811 0
-20808 20811 0
-20806 -20808 20812 0
-20810 20813 0
-20811 20813 0
-20810 -20811 20814 0
-20813 0
2713 2714 2715 0
-20815 0
-2713 20816 0
-2714 20816 0
-2713 -2714 20817 0
-2715 20818 0
-20815 20818 0
-2715 -20815 20819 0
-20816 20820 0
-20818 20820 0
-20816 -20818 20821 0
-20817 20822 0
-20819 20822 0
-20817 -20819 20823 0
-20821 20824 0
-20822 20824 0
-20821 -20822 20825 0
-20824 0
196 197 198 0
-20826 0
-196 20827 0
-197 20827 0
-196 -197 20828 0
-198 20829 0
-20826 20829 0
-198 -20826 20830 0
-20827 20831 0
-20829 20831 0
-20827 -20829 20832 0
-20828 20833 0
-20830 20833 0
-20828 -20830 20834 0
-20832 20835 0
-20833 20835 0
-20832 -20833 20836 0
-20835 0
616 617 618 0
-20837 0
-616 20838 0
-617 20838 0
-616 -617 20839 0
-618 20840 0
-20837 20840 0
-618 -20837 20841 0
-20838 20842 0
-20840 20842 0
-20838 -20840 20843 0
-20839 20844 0
-20841 20844 0
-20839 -20841 20845 0
-20843 20846 0
-20844 20846 0
-20843 -20844 20847 0
-20846 0
1036 1037 1038 0
-20848 0
-1036 20849 0
-1037 20849 0
-1036 -1037 20850 0
-1038 20851 0
-20848 20851 0
-1038 -20848 20852 0
-20849 20853 0
-20851 20853 0
-20849 -20851 20854 0
-20850 20855 0
-20852 20855 0
-20850 -20852 20856 0
-20854 20857 0
-20855 20857 0
-20854 -20855 20858 0
-20857 0
1456 1457 1458 0
-20859 0
-1456 20860 0
-1457 20860 0
-1456 -1457 20861 0
-1458 20862 0
-20859 20862 0
-1458 -20859 20863 0
-20860 20864 0
-20862 20864 0
-20860 -20862 20865 0
-20861 20866 0
-20863 20866 0
-20861 -20863 20867 0
-20865 20868 0
-20866 20868 0
-20865 -20866 20869 0
-20868 0
1876 1877 1878 0
-20870 0
-1876 20871 0
-1877 20871 0
-1876 -1877 20872 0
-1878 20873 0
-20870 20873 0
-1878 -20870 20874 0
-20871 20875 0
-20873 20875 0
-20871 -20873 20876 0
-20872 20877 0
-20874 20877 0
-20872 -20874 20878 0
-20876 20879 0
-20877 20879 0
-20876 -20877 20880 0
-20879 0
2296 2297 2298 0
-20881 0
-2296 20882 0
-2297 20882 0
-2296 -2297 20883 0
-2298 20884 0
-20881 20884 0
-2298 -20881 20885 0
-20882 20886 0
-20884 20886 0
-20882 -20884 20887 0
-20883 20888 0
-20885 20888 0
-20883 -20885 20889 0
-20887 20890 0
-20888 20890 0
-20887 -20888 20891 0
-20890 0
2716 2717 2718 0
-20892 0
-2716 20893 0
-2717 20893 0
-2716 -2717 20894 0
-2718 20895 0
-20892 20895 0
-2718 -20892 20896 0
-20893 20897 0
-20895 20897 0
-20893 -20895 20898 0
-20894 20899 0
-20896 20899 0
-20894 -20896 20900 0
-20898 20901 0
-20899 20901 0
-20898 -20899 20902 0
-20901 0
199 200 201 0
-20903 0
-199 20904 0
-200 20904 0
-199 -200 20905 0
-201 20906 0
-20903 20906 0
-201 -20903 20907 0
-20904 20908 0
-20906 20908 0
-20904 -20906 20909 0
-20905 20910 0
-20907 20910 0
-20905 -20907 20911 0
-20909 20912 0
-20910 20912 0
-20909 -20910 20913 0
-20912 0
619 620 621 0
-20914 0
-619 20915 0
-620 20915 0
-619 -620 20916 0
-621 20917 0
-20914 20917 0
-621 -20914 20918 0
-20915 20919 0
-20917 20919 0
-20915 -20917 20920 0
-20916 20921 0
-20918 20921 0
-20916 -20918 20922 0
-20920 20923 0
-20921 20923 0
-20920 -20921 20924 0
-20923 0
1039 1040 1041 0
-20925 0
-1039 20926 0
-1040 20926 0
-1039 -1040 20927 0
-1041 20928 0
-20925 20928 0
-1041 -20925 20929 0
-20926 20930 0
-20928 20930 0
-20926 -20928 20931 0
-20927 20932 0
-20929 20932 0
-20927 -20929 20933 0
-20931 20934 0
-20932 20934 0
-20931 -20932 20935 0
-20934 0
1459 1460 1461 0
-20936 0
-1459 20937 0
-1460 20937 0
-1459 -1460 20938 0
-1461 20939 0
-20936 20939 0
-1461 -20936 20940 0
-20937 20941 0
-20939 20941 0
-20937 -20939 20942 0
-20938 20943 0
-20940 20943 0
-20938 -20940 20944 0
-20942 20945 0
-20943 20945 0
-20942 -20943 20946 0
-20945 0
1879 1880 1881 0
-20947 0
-1879 20948 0
-1880 20948 0
-1879 -1880 20949 0
-1881 20950 0
-20947 20950 0
-1881 -20947 20951 0
-20948 20952 0
-20950 20952 0
-20948 -20950 20953 0
-20949 20954 0
-20951 20954 0
-20949 -20951 20955 0
-20953 20956 0
-20954 20956 0
-20953 -20954 20957 0
-20956 0
2299 2300 2301 0
-20958 0
-2299 20959 0
-2300 20959 0
-2299 -2300 20960 0
-2301 20961 0
-20958 20961 0
-2301 -20958 20962 0
-20959 20963 0
-20961 20963 0
-20959 -20961 20964 0
-20960 20965 0
-20962 20965 0
-20960 -20962 20966 0
-20964 20967 0
-20965 20967 0
-20964 -20965 20968 0
-20967 0
2719 2720 2721 0
-20969 0
-2719 20970 0
-2720 20970 0
-2719 -2720 20971 0
-2721 20972 0
-20969 20972 0
-2721 -20969 20973 0
-20970 20974 0
-20972 20974 0
-20970 -20972 20975 0
-20971 20976 0
-20973 20976 0
-20971 -20973 20977 0
-20975 20978 0
-20976 20978 0
-20975 -20976 20979 0
-20978 0
202 203 204 0
-20980 0
-202 20981 0
-203 20981 0
-202 -203 20982 0
-204 20983 0
-20980 20983 0
-204 -20980 20984 0
-20981 20985 0
-20983 20985 0
-20981 -20983 20986 0
-20982 20987 0
-20984 20987 0
-20982 -20984 20988 0
-20986 20989 0
-20987 20989 0
-20986 -20987 20990 0
-20989 0
622 623 624 0
-20991 0
-622 20992 0
-623 20992 0
-622 -623 20993 0
-624 20994 0
-20991 20994 0
-624 -20991 20995 0
-20992 20996 0
-20994 20996 0
-20992 -20994 20997 0
-20993 20998 0
-20995 20998 0
-20993 -20995 20999 0
-20997 21000 0
-20998 21000 0
-20997 -20998 21001 0
-21000 0
1042 1043 1044 0
-21002 0
-1042 21003 0
-1043 21003 0
-1042 -1043 21004 0
-1044 21005 0
-21002 21005 0
-1044 -21002 21006 0
-21003 21007 0
-21005 21007 0
-21003 -21005 21008 0
-21004 21009 0
-21006 21009 0
-21004 -21006 21010 0
-21008 21011 0
-21009 21011 0
-21008 -21009 21012 0
-21011 0
1462 1463 1464 0
-21013 0
-1462 21014 0
-1463 21014 0
-1462 -1463 21015 0
-1464 21016 0
-21013 21016 0
-1464 -21013 21017 0
-21014 21018 0
-21016 21018 0
-21014 -21016 21019 0
-21015 21020 0
-21017 21020 0
-21015 -21017 21021 0
-21019 21022 0
-21020 21022 0
-21019 -21020 21023 0
-21022 0
1882 1883 1884 0
-21024 0
-1882 21025 0
-1883 21025 0
-1882 -1883 21026 0
-1884 21027 0
-21024 21027 0
-1884 -21024 21028 0
-21025 21029 0
-21027 21029 0
-21025 -21027 21030 0
-21026 21031 0
-21028 21031 0
-21026 -21028 21032 0
-21030 21033 0
-21031 21033 0
-21030 -21031 21034 0
-21033 0
2302 2303 2304 0
-21035 0
-2302 21036 0
-2303 21036 0
-2302 -2303 21037 0
-2304 21038 0
-21035 21038 0
-2304 -21035 21039 0
-21036 21040 0
-21038 21040 0
-21036 -21038 21041 0
-21037 21042 0
-21039 21042 0
-21037 -21039 21043 0
-21041 21044 0
-21042 21044 0
-21041 -21042 21045 0
-21044 0
2722 2723 2724 0
-21046 0
-2722 21047 0
-2723 21047 0
-2722 -2723 21048 0
-2724 21049 0
-21046 21049 0
-2724 -21046 21050 0
-21047 21051 0
-21049 21051 0
-21047 -21049 21052 0
-21048 21053 0
-21050 21053 0
-21048 -21050 21054 0
-21052 21055 0
-21053 21055 0
-21052 -21053 21056 0
-21055 0
205 206 207 0
-21057 0
-205 21058 0
-206 21058 0
-205 -206 21059 0
-207 21060 0
-21057 21060 0
-207 -21057 21061 0
-21058 21062 0
-21060 21062 0
-21058 -21060 21063 0
-21059 21064 0
-21061 21064 0
-21059 -21061 21065 0
-21063 21066 0
-21064 21066 0
-21063 -21064 21067 0
-21066 0
625 626 627 0
-21068 0
-625 21069 0
-626 21069 0
-625 -626 21070 0
-627 21071 0
-21068 21071 0
-627 -21068 21072 0
-21069 21073 0
-21071 21073 0
-21069 -21071 21074 0
-21070 21075 0
-21072 21075 0
-21070 -21072 21076 0
-21074 21077 0
-21075 21077 0
-21074 -21075 21078 0
-21077 0
1045 1046 1047 0
-21079 0
-1045 21080 0
-1046 21080 0
-1045 -1046 21081 0
-1047 21082 0
-21079 21082 0
-1047 -21079 21083 0
-21080 21084 0
-21082 21084 0
-21080 -21082 21085 0
-21081 21086 0
-21083 21086 0
-21081 -21083 21087 0
-21085 21088 0
-21086 21088 0
-21085 -21086 21089 0
-21088 0
1465 1466 1467 0
-21090 0
-1465 21091 0
-1466 21091 0
-1465 -1466 21092 0
-1467 21093 0
-21090 21093 0
-1467 -21090 21094 0
-21091 21095 0
-21093 21095 0
-21091 -21093 21096 0
-21092 21097 0
-21094 21097 0
-21092 -21094 21098 0
-21096 21099 0
-21097 21099 0
-21096 -21097 21100 0
-21099 0
1885 1886 1887 0
-21101 0
-1885 21102 0
-1886 21102 0
-1885 -1886 21103 0
-1887 21104 0
-21101 21104 0
-1887 -21101 21105 0
-21102 21106 0
-21104 21106 0
-21102 -21104 21107 0
-21103 21108 0
-21105 21108 0
-21103 -21105 21109 0
-21107 21110 0
-21108 21110 0
-21107 -21108 21111 0
-21110 0
2305 2306 2307 0
-21112 0
-2305 21113 0
-2306 21113 0
-2305 -2306 21114 0
-2307 21115 0
-21112 21115 0
-2307 -21112 21116 0
-21113 21117 0
-21115 21117 0
-21113 -21115 21118 0
-21114 21119 0
-21116 21119 0
-21114 -21116 21120 0
-21118 21121 0
-21119 21121 0
-21118 -21119 21122 0
-21121 0
2725 2726 2727 0
-21123 0
-2725 21124 0
-2726 21124 0
-2725 -2726 21125 0
-2727 21126 0
-21123 21126 0
-2727 -21123 21127 0
-21124 21128 0
-21126 21128 0
-21124 -21126 21129 0
-21125 21130 0
-21127 21130 0
-21125 -21127 21131 0
-21129 21132 0
-21130 21132 0
-21129 -21130 21133 0
-21132 0
208 209 210 0
-21134 0
-208 21135 0
-209 21135 0
-208 -209 21136 0
-210 21137 0
-21134 21137 0
-210 -21134 21138 0
-21135 21139 0
-21137 21139 0
-21135 -21137 21140 0
-21136 21141 0
-21138 21141 0
-21136 -21138 21142 0
-21140 21143 0
-21141 21143 0
-21140 -21141 21144 0
-21143 0
628 629 630 0
-21145 0
-628 21146 0
-629 21146 0
-628 -629 21147 0
-630 21148 0
-21145 21148 0
-630 -21145 21149 0
-21146 21150 0
-21148 21150 0
-21146 -21148 21151 0
-21147 21152 0
-21149 21152 0
-21147 -21149 21153 0
-21151 21154 0
-21152 21154 0
-21151 -21152 21155 0
-21154 0
1048 1049 1050 0
-21156 0
-1048 21157 0
-1049 21157 0
-1048 -1049 21158 0
-1050 21159 0
-21156 21159 0
-1050 -21156 21160 0
-21157 21161 0
-21159 21161 0
-21157 -21159 21162 0
-21158 21163 0
-21160 21163 0
-21158 -21160 21164 0
-21162 21165 0
-21163 21165 0
-21162 -21163 21166 0
-21165 0
1468 1469 1470 0
-21167 0
-1468 21168 0
-1469 21168 0
-1468 -1469 21169 0
-1470 21170 0
-21167 21170 0
-1470 -21167 21171 0
-21168 21172 0
-21170 21172 0
-21168 -21170 21173 0
-21169 21174 0
-21171 21174 0
-21169 -21171 21175 0
-21173 21176 0
-21174 21176 0
-21173 -21174 21177 0
-21176 0
1888 1889 1890 0
-21178 0
-1888 21179 0
-1889 21179 0
-1888 -1889 21180 0
-1890 21181 0
-21178 21181 0
-1890 -21178 21182 0
-21179 21183 0
-21181 21183 0
-21179 -21181 21184 0
-21180 21185 0
-21182 21185 0
-21180 -21182 21186 0
-21184 21187 0
-21185 21187 0
-21184 -21185 21188 0
-21187 0
2308 2309 2310 0
-21189 0
-2308 21190 0
-2309 21190 0
-2308 -2309 21191 0
-2310 21192 0
-21189 21192 0
-2310 -21189 21193 0
-21190 21194 0
-21192 21194 0
-21190 -21192 21195 0
-21191 21196 0
-21193 21196 0
-21191 -21193 21197 0
-21195 21198 0
-21196 21198 0
-21195 -21196 21199 0
-21198 0
2728 2729 2730 0
-21200 0
-2728 21201 0
-2729 21201 0
-2728 -2729 21202 0
-2730 21203 0
-21200 21203 0
-2730 -21200 21204 0
-21201 21205 0
-21203 21205 0
-21201 -21203 21206 0
-21202 21207 0
-21204 21207 0
-21202 -21204 21208 0
-21206 21209 0
-21207 21209 0
-21206 -21207 21210 0
-21209 0
211 212 213 0
-21211 0
-211 21212 0
-212 21212 0
-211 -212 21213 0
-213 21214 0
-21211 21214 0
-213 -21211 21215 0
-21212 21216 0
-21214 21216 0
-21212 -21214 21217 0
-21213 21218 0
-21215 21218 0
-21213 -21215 21219 0
-21217 21220 0
-21218 21220 0
-21217 -21218 21221 0
-21220 0
631 632 633 0
-21222 0
-631 21223 0
-632 21223 0
-631 -632 21224 0
-633 21225 0
-21222 21225 0
-633 -21222 21226 0
-21223 21227 0
-21225 21227 0
-21223 -21225 21228 0
-21224 21229 0
-21226 21229 0
-21224 -21226 21230 0
-21228 21231 0
-21229 21231 0
-21228 -21229 21232 0
-21231 0
1051 1052 1053 0
-21233 0
-1051 21234 0
-1052 21234 0
-1051 -1052 21235 0
-1053 21236 0
-21233 21236 0
-1053 -21233 21237 0
-21234 21238 0
-21236 21238 0
-21234 -21236 21239 0
-21235 21240 0
-21237 21240 0
-21235 -21237 21241 0
-21239 21242 0
-21240 21242 0
-21239 -21240 21243 0
-21242 0
1471 1472 1473 0
-21244 0
-1471 21245 0
-1472 21245 0
-1471 -1472 21246 0
-1473 21247 0
-21244 21247 0
-1473 -21244 21248 0
-21245 21249 0
-21247 21249 0
-21245 -21247 21250 0
-21246 21251 0
-21248 21251 0
-21246 -21248 21252 0
-21250 21253 0
-21251 21253 0
-21250 -21251 21254 0
-21253 0
1891 1892 1893 0
-21255 0
-1891 21256 0
-1892 21256 0
-1891 -1892 21257 0
-1893 21258 0
-21255 21258 0
-1893 -21255 21259 0
-21256 21260 0
-21258 21260 0
-21256 -21258 21261 0
-21257 21262 0
-21259 21262 0
-21257 -21259 21263 0
-21261 21264 0
-21262 21264 0
-21261 -21262 21265 0
-21264 0
2311 2312 2313 0
-21266 0
-2311 21267 0
-2312 21267 0
-2311 -2312 21268 0
-2313 21269 0
-21266 21269 0
-2313 -21266 21270 0
-21267 21271 0
-21269 21271 0
-21267 -21269 21272 0
-21268 21273 0
-21270 21273 0
-21268 -21270 21274 0
-21272 21275 0
-21273 21275 0
-21272 -21273 21276 0
-21275 0
2731 2732 2733 0
-21277 0
-2731 21278 0
-2732 21278 0
-2731 -2732 21279 0
-2733 21280 0
-21277 21280 0
-2733 -21277 21281 0
-21278 21282 0
-21280 21282 0
-21278 -21280 21283 0
-21279 21284 0
-21281 21284 0
-21279 -21281 21285 0
-21283 21286 0
-21284 21286 0
-21283 -21284 21287 0
-21286 0
214 215 216 0
-21288 0
-214 21289 0
-215 21289 0
-214 -215 21290 0
-216 21291 0
-21288 21291 0
-216 -21288 21292 0
-21289 21293 0
-21291 21293 0
-21289 -21291 21294 0
-21290 21295 0
-21292 21295 0
-21290 -21292 21296 0
-21294 21297 0
-21295 21297 0
-21294 -21295 21298 0
-21297 0
634 635 636 0
-21299 0
-634 21300 0
-635 21300 0
-634 -635 21301 0
-636 21302 0
-21299 21302 0
-636 -21299 21303 0
-21300 21304 0
-21302 21304 0
-21300 -21302 21305 0
-21301 21306 0
-21303 21306 0
-21301 -21303 21307 0
-21305 21308 0
-21306 21308 0
-21305 -21306 21309 0
-21308 0
1054 1055 1056 0
-21310 0
-1054 21311 0
-1055 21311 0
-1054 -1055 21312 0
-1056 21313 0
-21310 21313 0
-1056 -21310 21314 0
-21311 21315 0
-21313 21315 0
-21311 -21313 21316 0
-21312 21317 0
-21314 21317 0
-21312 -21314 21318 0
-21316 21319 0
-21317 21319 0
-21316 -21317 21320 0
-21319 0
1474 1475 1476 0
-21321 0
-1474 21322 0
-1475 21322 0
-1474 -1475 21323 0
-1476 21324 0
-21321 21324 0
-1476 -21321 21325 0
-21322 21326 0
-21324 21326 0
-21322 -21324 21327 0
-21323 21328 0
-21325 21328 0
-21323 -21325 21329 0
-21327 21330 0
-21328 21330 0
-21327 -21328 21331 0
-21330 0
1894 1895 1896 0
-21332 0
-1894 21333 0
-1895 21333 0
-1894 -1895 21334 0
-1896 21335 0
-21332 21335 0
-1896 -21332 21336 0
-21333 21337 0
-21335 21337 0
-21333 -21335 21338 0
-21334 21339 0
-21336 21339 0
-21334 -21336 21340 0
-21338 21341 0
-21339 21341 0
-21338 -21339 21342 0
-21341 0
2314 2315 2316 0
-21343 0
-2314 21344 0
-2315 21344 0
-2314 -2315 21345 0
-2316 21346 0
-21343 21346 0
-2316 -21343 21347 0
-21344 21348 0
-21346 21348 0
-21344 -21346 21349 0
-21345 21350 0
-21347 21350 0
-21345 -21347 21351 0
-21349 21352 0
-21350 21352 0
-21349 -21350 21353 0
-21352 0
2734 2735 2736 0
-21354 0
-2734 21355 0
-2735 21355 0
-2734 -2735 21356 0
-2736 21357 0
-21354 21357 0
-2736 -21354 21358 0
-21355 21359 0
-21357 21359 0
-21355 -21357 21360 0
-21356 21361 0
-21358 21361 0
-21356 -21358 21362 0
-21360 21363 0
-21361 21363 0
-21360 -21361 21364 0
-21363 0
217 218 219 0
-21365 0
-217 21366 0
-218 21366 0
-217 -218 21367 0
-219 21368 0
-21365 21368 0
-219 -21365 21369 0
-21366 21370 0
-21368 21370 0
-21366 -21368 21371 0
-21367 21372 0
-21369 21372 0
-21367 -21369 21373 0
-21371 21374 0
-21372 21374 0
-21371 -21372 21375 0
-21374 0
637 638 639 0
-21376 0
-637 21377 0
-638 21377 0
-637 -638 21378 0
-639 21379 0
-21376 21379 0
-639 -21376 21380 0
-21377 21381 0
-21379 21381 0
-21377 -21379 21382 0
-21378 21383 0
-21380 21383 0
-21378 -21380 21384 0
-21382 21385 0
-21383 21385 0
-21382 -21383 21386 0
-21385 0
1057 1058 1059 0
-21387 0
-1057 21388 0
-1058 21388 0
-1057 -1058 21389 0
-1059 21390 0
-21387 21390 0
-1059 -21387 21391 0
-21388 21392 0
-21390 21392 0
-21388 -21390 21393 0
-21389 21394 0
-21391 21394 0
-21389 -21391 21395 0
-21393 21396 0
-21394 21396 0
-21393 -21394 21397 0
-21396 0
1477 1478 1479 0
-21398 0
-1477 21399 0
-1478 21399 0
-1477 -1478 21400 0
-1479 21401 0
-21398 21401 0
-1479 -21398 21402 0
-21399 21403 0
-21401 21403 0
-21399 -21401 21404 0
-21400 21405 0
-21402 21405 0
-21400 -21402 21406 0
-21404 21407 0
-21405 21407 0
-21404 -21405 21408 0
-21407 0
1897 1898 1899 0
-21409 0
-1897 21410 0
-1898 21410 0
-1897 -1898 21411 0
-1899 21412 0
-21409 21412 0
-1899 -21409 21413 0
-21410 21414 0
-21412 21414 0
-21410 -21412 21415 0
-21411 21416 0
-21413 21416 0
-21411 -21413 21417 0
-21415 21418 0
-21416 21418 0
-21415 -21416 21419 0
-21418 0
2317 2318 2319 0
-21420 0
-2317 21421 0
-2318 21421 0
-2317 -2318 21422 0
-2319 21423 0
-21420 21423 0
-2319 -21420 21424 0
-21421 21425 0
-21423 21425 0
-21421 -21423 21426 0
-21422 21427 0
-21424 21427 0
-21422 -21424 21428 0
-21426 21429 0
-21427 21429 0
-21426 -21427 21430 0
-21429 0
2737 2738 2739 0
-21431 0
-2737 21432 0
-2738 21432 0
-2737 -2738 21433 0
-2739 21434 0
-21431 21434 0
-2739 -21431 21435 0
-21432 21436 0
-21434 21436 0
-21432 -21434 21437 0
-21433 21438 0
-21435 21438 0
-21433 -21435 21439 0
-21437 21440 0
-21438 21440 0
-21437 -21438 21441 0
-21440 0
220 221 222 0
-21442 0
-220 21443 0
-221 21443 0
-220 -221 21444 0
-222 21445 0
-21442 21445 0
-222 -21442 21446 0
-21443 21447 0
-21445 21447 0
-21443 -21445 21448 0
-21444 21449 0
-21446 21449 0
-21444 -21446 21450 0
-21448 21451 0
-21449 21451 0
-21448 -21449 21452 0
-21451 0
640 641 642 0
-21453 0
-640 21454 0
-641 21454 0
-640 -641 21455 0
-642 21456 0
-21453 21456 0
-642 -21453 21457 0
-21454 21458 0
-21456 21458 0
-21454 -21456 21459 0
-21455 21460 0
-21457 21460 0
-21455 -21457 21461 0
-21459 21462 0
-21460 21462 0
-21459 -21460 21463 0
-21462 0
1060 1061 1062 0
-21464 0
-1060 21465 0
-1061 21465 0
-1060 -1061 21466 0
-1062 21467 0
-21464 21467 0
-1062 -21464 21468 0
-21465 21469 0
-21467 21469 0
-21465 -21467 21470 0
-21466 21471 0
-21468 21471 0
-21466 -21468 21472 0
-21470 21473 0
-21471 21473 0
-21470 -21471 21474 0
-21473 0
1480 1481 1482 0
-21475 0
-1480 21476 0
-1481 21476 0
-1480 -1481 21477 0
-1482 21478 0
-21475 21478 0
-1482 -21475 21479 0
-21476 21480 0
-21478 21480 0
-21476 -21478 21481 0
-21477 21482 0
-21479 21482 0
-21477 -21479 21483 0
-21481 21484 0
-21482 21484 0
-21481 -21482 21485 0
-21484 0
1900 1901 1902 0
-21486 0
-1900 21487 0
-1901 21487 0
-1900 -1901 21488 0
-1902 21489 0
-21486 21489 0
-1902 -21486 21490 0
-21487 21491 0
-21489 21491 0
-21487 -21489 21492 0
-21488 21493 0
-21490 21493 0
-21488 -21490 21494 0
-21492 21495 0
-21493 21495 0
-21492 -21493 21496 0
-21495 0
2320 2321 2322 0
-21497 0
-2320 21498 0
-2321 21498 0
-2320 -2321 21499 0
-2322 21500 0
-21497 21500 0
-2322 -21497 21501 0
-21498 21502 0
-21500 21502 0
-21498 -21500 21503 0
-21499 21504 0
-21501 21504 0
-21499 -21501 21505 0
-21503 21506 0
-21504 21506 0
-21503 -21504 21507 0
-21506 0
2740 2741 2742 0
-21508 0
-2740 21509 0
-2741 21509 0
-2740 -2741 21510 0
-2742 21511 0
-21508 21511 0
-2742 -21508 21512 0
-21509 21513 0
-21511 21513 0
-21509 -21511 21514 0
-21510 21515 0
-21512 21515 0
-21510 -21512 21516 0
-21514 21517 0
-21515 21517 0
-21514 -21515 21518 0
-21517 0
223 224 225 0
-21519 0
-223 21520 0
-224 21520 0
-223 -224 21521 0
-225 21522 0
-21519 21522 0
-225 -21519 21523 0
-21520 21524 0
-21522 21524 0
-21520 -21522 21525 0
-21521 21526 0
-21523 21526 0
-21521 -21523 21527 0
-21525 21528 0
-21526 21528 0
-21525 -21526 21529 0
-21528 0
643 644 645 0
-21530 0
-643 21531 0
-644 21531 0
-643 -644 21532 0
-645 21533 0
-21530 21533 0
-645 -21530 21534 0
-21531 21535 0
-21533 21535 0
-21531 -21533 21536 0
-21532 21537 0
-21534 21537 0
-21532 -21534 21538 0
-21536 21539 0
-21537 21539 0
-21536 -21537 21540 0
-21539 0
1063 1064 1065 0
-21541 0
-1063 21542 0
-1064 21542 0
-1063 -1064 21543 0
-1065 21544 0
-21541 21544 0
-1065 -21541 21545 0
-21542 21546 0
-21544 21546 0
-21542 -21544 21547 0
-21543 21548 0
-21545 21548 0
-21543 -21545 21549 0
-21547 21550 0
-21548 21550 0
-21547 -21548 21551 0
-21550 0
1483 1484 1485 0
-21552 0
-1483 21553 0
-1484 21553 0
-1483 -1484 21554 0
-1485 21555 0
-21552 21555 0
-1485 -21552 21556 0
-21553 21557 0
-21555 21557 0
-21553 -21555 21558 0
-21554 21559 0
-21556 21559 0
-21554 -21556 21560 0
-21558 21561 0
-21559 21561 0
-21558 -21559 21562 0
-21561 0
1903 1904 1905 0
-21563 0
-1903 21564 0
-1904 21564 0
-1903 -1904 21565 0
-1905 21566 0
-21563 21566 0
-1905 -21563 21567 0
-21564 21568 0
-21566 21568 0
-21564 -21566 21569 0
-21565 21570 0
-21567 21570 0
-21565 -21567 21571 0
-21569 21572 0
-21570 21572 0
-21569 -21570 21573 0
-21572 0
2323 2324 2325 0
-21574 0
-2323 21575 0
-2324 21575 0
-2323 -2324 21576 0
-2325 21577 0
-21574 21577 0
-2325 -21574 21578 0
-21575 21579 0
-21577 21579 0
-21575 -21577 21580 0
-21576 21581 0
-21578 21581 0
-21576 -21578 21582 0
-21580 21583 0
-21581 21583 0
-21580 -21581 21584 0
-21583 0
2743 2744 2745 0
-21585 0
-2743 21586 0
-2744 21586 0
-2743 -2744 21587 0
-2745 21588 0
-21585 21588 0
-2745 -21585 21589 0
-21586 21590 0
-21588 21590 0
-21586 -21588 21591 0
-21587 21592 0
-21589 21592 0
-21587 -21589 21593 0
-21591 21594 0
-21592 21594 0
-21591 -21592 21595 0
-21594 0
226 227 228 0
-21596 0
-226 21597 0
-227 21597 0
-226 -227 21598 0
-228 21599 0
-21596 21599 0
-228 -21596 21600 0
-21597 21601 0
-21599 21601 0
-21597 -21599 21602 0
-21598 21603 0
-21600 21603 0
-21598 -21600 21604 0
-21602 21605 0
-21603 21605 0
-21602 -21603 21606 0
-21605 0
646 647 648 0
-21607 0
-646 21608 0
-647 21608 0
-646 -647 21609 0
-648 21610 0
-21607 21610 0
-648 -21607 21611 0
-21608 21612 0
-21610 21612 0
-21608 -21610 21613 0
-21609 21614 0
-21611 21614 0
-21609 -21611 21615 0
-21613 21616 0
-21614 21616 0
-21613 -21614 21617 0
-21616 0
1066 1067 1068 0
-21618 0
-1066 21619 0
-1067 21619 0
-1066 -1067 21620 0
-1068 21621 0
-21618 21621 0
-1068 -21618 21622 0
-21619 21623 0
-21621 21623 0
-21619 -21621 21624 0
-21620 21625 0
-21622 21625 0
-21620 -21622 21626 0
-21624 21627 0
-21625 21627 0
-21624 -21625 21628 0
-21627 0
1486 1487 1488 0
-21629 0
-1486 21630 0
-1487 21630 0
-1486 -1487 21631 0
-1488 21632 0
-21629 21632 0
-1488 -21629 21633 0
-21630 21634 0
-21632 21634 0
-21630 -21632 21635 0
-21631 21636 0
-21633 21636 0
-21631 -21633 21637 0
-21635 21638 0
-21636 21638 0
-21635 -21636 21639 0
-21638 0
1906 1907 1908 0
-21640 0
-1906 21641 0
-1907 21641 0
-1906 -1907 21642 0
-1908 21643 0
-21640 21643 0
-1908 -21640 21644 0
-21641 21645 0
-21643 21645 0
-21641 -21643 21646 0
-21642 21647 0
-21644 21647 0
-21642 -21644 21648 0
-21646 21649 0
-21647 21649 0
-21646 -21647 21650 0
-21649 0
2326 2327 2328 0
-21651 0
-2326 21652 0
-2327 21652 0
-2326 -2327 21653 0
-2328 21654 0
-21651 21654 0
-2328 -21651 21655 0
-21652 21656 0
-21654 21656 0
-21652 -21654 21657 0
-21653 21658 0
-21655 21658 0
-21653 -21655 21659 0
-21657 21660 0
-21658 21660 0
-21657 -21658 21661 0
-21660 0
2746 2747 2748 0
-21662 0
-2746 21663 0
-2747 21663 0
-2746 -2747 21664 0
-2748 21665 0
-21662 21665 0
-2748 -21662 21666 0
-21663 21667 0
-21665 21667 0
-21663 -21665 21668 0
-21664 21669 0
-21666 21669 0
-21664 -21666 21670 0
-21668 21671 0
-21669 21671 0
-21668 -21669 21672 0
-21671 0
229 230 231 0
-21673 0
-229 21674 0
-230 21674 0
-229 -230 21675 0
-231 21676 0
-21673 21676 0
-231 -21673 21677 0
-21674 21678 0
-21676 21678 0
-21674 -21676 21679 0
-21675 21680 0
-21677 21680 0
-21675 -21677 21681 0
-21679 21682 0
-21680 21682 0
-21679 -21680 21683 0
-21682 0
649 650 651 0
-21684 0
-649 21685 0
-650 21685 0
-649 -650 21686 0
-651 21687 0
-21684 21687 0
-651 -21684 21688 0
-21685 21689 0
-21687 21689 0
-21685 -21687 21690 0
-21686 21691 0
-21688 21691 0
-21686 -21688 21692 0
-21690 21693 0
-21691 21693 0
-21690 -21691 21694 0
-21693 0
1069 1070 1071 0
-21695 0
-1069 21696 0
-1070 21696 0
-1069 -1070 21697 0
-1071 21698 0
-21695 21698 0
-1071 -21695 21699 0
-21696 21700 0
-21698 21700 0
-21696 -21698 21701 0
-21697 21702 0
-21699 21702 0
-21697 -21699 21703 0
-21701 21704 0
-21702 21704 0
-21701 -21702 21705 0
-21704 0
1489 1490 1491 0
-21706 0
-1489 21707 0
-1490 21707 0
-1489 -1490 21708 0
-1491 21709 0
-21706 21709 0
-1491 -21706 21710 0
-21707 21711 0
-21709 21711 0
-21707 -21709 21712 0
-21708 21713 0
-21710 21713 0
-21708 -21710 21714 0
-21712 21715 0
-21713 21715 0
-21712 -21713 21716 0
-21715 0
1909 1910 1911 0
-21717 0
-1909 21718 0
-1910 21718 0
-1909 -1910 21719 0
-1911 21720 0
-21717 21720 0
-1911 -21717 21721 0
-21718 21722 0
-21720 21722 0
-21718 -21720 21723 0
-21719 21724 0
-21721 21724 0
-21719 -21721 21725 0
-21723 21726 0
-21724 21726 0
-21723 -21724 21727 0
-21726 0
2329 2330 2331 0
-21728 0
-2329 21729 0
-2330 21729 0
-2329 -2330 21730 0
-2331 21731 0
-21728 21731 0
-2331 -21728 21732 0
-21729 21733 0
-21731 21733 0
-21729 -21731 21734 0
-21730 21735 0
-21732 21735 0
-21730 -21732 21736 0
-21734 21737 0
-21735 21737 0
-21734 -21735 21738 0
-21737 0
2749 2750 2751 0
-21739 0
-2749 21740 0
-2750 21740 0
-2749 -2750 21741 0
-2751 21742 0
-21739 21742 0
-2751 -21739 21743 0
-21740 21744 0
-21742 21744 0
-21740 -21742 21745 0
-21741 21746 0
-21743 21746 0
-21741 -21743 21747 0
-21745 21748 0
-21746 21748 0
-21745 -21746 21749 0
-21748 0
232 233 234 0
-21750 0
-232 21751 0
-233 21751 0
-232 -233 21752 0
-234 21753 0
-21750 21753 0
-234 -21750 21754 0
-21751 21755 0
-21753 21755 0
-21751 -21753 21756 0
-21752 21757 0
-21754 21757 0
-21752 -21754 21758 0
-21756 21759 0
-21757 21759 0
-21756 -21757 21760 0
-21759 0
652 653 654 0
-21761 0
-652 21762 0
-653 21762 0
-652 -653 21763 0
-654 21764 0
-21761 21764 0
-654 -21761 21765 0
-21762 21766 0
-21764 21766 0
-21762 -21764 21767 0
-21763 21768 0
-21765 21768 0
-21763 -21765 21769 0
-21767 21770 0
-21768 21770 0
-21767 -21768 21771 0
-21770 0
1072 1073 1074 0
-21772 0
-1072 21773 0
-1073 21773 0
-1072 -1073 21774 0
-1074 21775 0
-21772 21775 0
-1074 -21772 21776 0
-21773 21777 0
-21775 21777 0
-21773 -21775 21778 0
-21774 21779 0
-21776 21779 0
-21774 -21776 21780 0
-21778 21781 0
-21779 21781 0
-21778 -21779 21782 0
-21781 0
1492 1493 1494 0
-21783 0
-1492 21784 0
-1493 21784 0
-1492 -1493 21785 0
-1494 21786 0
-21783 21786 0
-1494 -21783 21787 0
-21784 21788 0
-21786 21788 0
-21784 -21786 21789 0
-21785 21790 0
-21787 21790 0
-21785 -21787 21791 0
-21789 21792 0
-21790 21792 0
-21789 -21790 21793 0
-21792 0
1912 1913 1914 0
-21794 0
-1912 21795 0
-1913 21795 0
-1912 -1913 21796 0
-1914 21797 0
-21794 21797 0
-1914 -21794 21798 0
-21795 21799 0
-21797 21799 0
-21795 -21797 21800 0
-21796 21801 0
-21798 21801 0
-21796 -21798 21802 0
-21800 21803 0
-21801 21803 0
-21800 -21801 21804 0
-21803 0
2332 2333 2334 0
-21805 0
-2332 21806 0
-2333 21806 0
-2332 -2333 21807 0
-2334 21808 0
-21805 21808 0
-2334 -21805 21809 0
-21806 21810 0
-21808 21810 0
-21806 -21808 21811 0
-21807 21812 0
-21809 21812 0
-21807 -21809 21813 0
-21811 21814 0
-21812 21814 0
-21811 -21812 21815 0
-21814 0
2752 2753 2754 0
-21816 0
-2752 21817 0
-2753 21817 0
-2752 -2753 21818 0
-2754 21819 0
-21816 21819 0
-2754 -21816 21820 0
-21817 21821 0
-21819 21821 0
-21817 -21819 21822 0
-21818 21823 0
-21820 21823 0
-21818 -21820 21824 0
-21822 21825 0
-21823 21825 0
-21822 -21823 21826 0
-21825 0
235 236 237 0
-21827 0
-235 21828 0
-236 21828 0
-235 -236 21829 0
-237 21830 0
-21827 21830 0
-237 -21827 21831 0
-21828 21832 0
-21830 21832 0
-21828 -21830 21833 0
-21829 21834 0
-21831 21834 0
-21829 -21831 21835 0
-21833 21836 0
-21834 21836 0
-21833 -21834 21837 0
-21836 0
655 656 657 0
-21838 0
-655 21839 0
-656 21839 0
-655 -656 21840 0
-657 21841 0
-21838 21841 0
-657 -21838 21842 0
-21839 21843 0
-21841 21843 0
-21839 -21841 21844 0
-21840 21845 0
-21842 21845 0
-21840 -21842 21846 0
-21844 21847 0
-21845 21847 0
-21844 -21845 21848 0
-21847 0
1075 1076 1077 0
-21849 0
-1075 21850 0
-1076 21850 0
-1075 -1076 21851 0
-1077 21852 0
-21849 21852 0
-1077 -21849 21853 0
-21850 21854 0
-21852 21854 0
-21850 -21852 21855 0
-21851 21856 0
-21853 21856 0
-21851 -21853 21857 0
-21855 21858 0
-21856 21858 0
-21855 -21856 21859 0
-21858 0
1495 1496 1497 0
-21860 0
-1495 21861 0
-1496 21861 0
-1495 -1496 21862 0
-1497 21863 0
-21860 21863 0
-1497 -21860 21864 0
-21861 21865 0
-21863 21865 0
-21861 -21863 21866 0
-21862 21867 0
-21864 21867 0
-21862 -21864 21868 0
-21866 21869 0
-21867 21869 0
-21866 -21867 21870 0
-21869 0
1915 1916 1917 0
-21871 0
-1915 21872 0
-1916 21872 0
-1915 -1916 21873 0
-1917 21874 0
-21871 21874 0
-1917 -21871 21875 0
-21872 21876 0
-21874 21876 0
-21872 -21874 21877 0
-21873 21878 0
-21875 21878 0
-21873 -21875 21879 0
-21877 21880 0
-21878 21880 0
-21877 -21878 21881 0
-21880 0
2335 2336 2337 0
-21882 0
-2335 21883 0
-2336 21883 0
-2335 -2336 21884 0
-2337 21885 0
-21882 21885 0
-2337 -21882 21886 0
-21883 21887 0
-21885 21887 0
-21883 -21885 21888 0
-21884 21889 0
-21886 21889 0
-21884 -21886 21890 0
-21888 21891 0
-21889 21891 0
-21888 -21889 21892 0
-21891 0
2755 2756 2757 0
-21893 0
-2755 21894 0
-2756 21894 0
-2755 -2756 21895 0
-2757 21896 0
-21893 21896 0
-2757 -21893 21897 0
-21894 21898 0
-21896 21898 0
-21894 -21896 21899 0
-21895 21900 0
-21897 21900 0
-21895 -21897 21901 0
-21899 21902 0
-21900 21902 0
-21899 -21900 21903 0
-21902 0
238 239 240 0
-21904 0
-238 21905 0
-239 21905 0
-238 -239 21906 0
-240 21907 0
-21904 21907 0
-240 -21904 21908 0
-21905 21909 0
-21907 21909 0
-21905 -21907 21910 0
-21906 21911 0
-21908 21911 0
-21906 -21908 21912 0
-21910 21913 0
-21911 21913 0
-21910 -21911 21914 0
-21913 0
658 659 660 0
-21915 0
-658 21916 0
-659 21916 0
-658 -659 21917 0
-660 21918 0
-21915 21918 0
-660 -21915 21919 0
-21916 21920 0
-21918 21920 0
-21916 -21918 21921 0
-21917 21922 0
-21919 21922 0
-21917 -21919 21923 0
-21921 21924 0
-21922 21924 0
-21921 -21922 21925 0
-21924 0
1078 1079 1080 0
-21926 0
-1078 21927 0
-1079 21927 0
-1078 -1079 21928 0
-1080 21929 0
-21926 21929 0
-1080 -21926 21930 0
-21927 21931 0
-21929 21931 0
-21927 -21929 21932 0
-21928 21933 0
-21930 21933 0
-21928 -21930 21934 0
-21932 21935 0
-21933 21935 0
-21932 -21933 21936 0
-21935 0
1498 1499 1500 0
-21937 0
-1498 21938 0
-1499 21938 0
-1498 -1499 21939 0
-1500 21940 0
-21937 21940 0
-1500 -21937 21941 0
-21938 21942 0
-21940 21942 0
-21938 -21940 21943 0
-21939 21944 0
-21941 21944 0
-21939 -21941 21945 0
-21943 21946 0
-21944 21946 0
-21943 -21944 21947 0
-21946 0
1918 1919 1920 0
-21948 0
-1918 21949 0
-1919 21949 0
-1918 -1919 21950 0
-1920 21951 0
-21948 21951 0
-1920 -21948 21952 0
-21949 21953 0
-21951 21953 0
-21949 -21951 21954 0
-21950 21955 0
-21952 21955 0
-21950 -21952 21956 0
-21954 21957 0
-21955 21957 0
-21954 -21955 21958 0
-21957 0
2338 2339 2340 0
-21959 0
-2338 21960 0
-2339 21960 0
-2338 -2339 21961 0
-2340 21962 0
-21959 21962 0
-2340 -21959 21963 0
-21960 21964 0
-21962 21964 0
-21960 -21962 21965 0
-21961 21966 0
-21963 21966 0
-21961 -21963 21967 0
-21965 21968 0
-21966 21968 0
-21965 -21966 21969 0
-21968 0
2758 2759 2760 0
-21970 0
-2758 21971 0
-2759 21971 0
-2758 -2759 21972 0
-2760 21973 0
-21970 21973 0
-2760 -21970 21974 0
-21971 21975 0
-21973 21975 0
-21971 -21973 21976 0
-21972 21977 0
-21974 21977 0
-21972 -21974 21978 0
-21976 21979 0
-21977 21979 0
-21976 -21977 21980 0
-21979 0
241 242 243 0
-21981 0
-241 21982 0
-242 21982 0
-241 -242 21983 0
-243 21984 0
-21981 21984 0
-243 -21981 21985 0
-21982 21986 0
-21984 21986 0
-21982 -21984 21987 0
-21983 21988 0
-21985 21988 0
-21983 -21985 21989 0
-21987 21990 0
-21988 21990 0
-21987 -21988 21991 0
-21990 0
661 662 663 0
-21992 0
-661 21993 0
-662 21993 0
-661 -662 21994 0
-663 21995 0
-21992 21995 0
-663 -21992 21996 0
-21993 21997 0
-21995 21997 0
-21993 -21995 21998 0
-21994 21999 0
-21996 21999 0
-21994 -21996 22000 0
-21998 22001 0
-21999 22001 0
-21998 -21999 22002 0
-22001 0
1081 1082 1083 0
-22003 0
-1081 22004 0
-1082 22004 0
-1081 -1082 22005 0
-1083 22006 0
-22003 22006 0
-1083 -22003 22007 0
-22004 22008 0
-22006 22008 0
-22004 -22006 22009 0
-22005 22010 0
-22007 22010 0
-22005 -22007 22011 0
-22009 22012 0
-22010 22012 0
-22009 -22010 22013 0
-22012 0
1501 1502 1503 0
-22014 0
-1501 22015 0
-1502 22015 0
-1501 -1502 22016 0
-1503 22017 0
-22014 22017 0
-1503 -22014 22018 0
-22015 22019 0
-22017 22019 0
-22015 -22017 22020 0
-22016 22021 0
-22018 22021 0
-22016 -22018 22022 0
-22020 22023 0
-22021 22023 0
-22020 -22021 22024 0
-22023 0
1921 1922 1923 0
-22025 0
-1921 22026 0
-1922 22026 0
-1921 -1922 22027 0
-1923 22028 0
-22025 22028 0
-1923 -22025 22029 0
-22026 22030 0
-22028 22030 0
-22026 -22028 22031 0
-22027 22032 0
-22029 22032 0
-22027 -22029 22033 0
-22031 22034 0
-22032 22034 0
-22031 -22032 22035 0
-22034 0
2341 2342 2343 0
-22036 0
-2341 22037 0
-2342 22037 0
-2341 -2342 22038 0
-2343 22039 0
-22036 22039 0
-2343 -22036 22040 0
-22037 22041 0
-22039 22041 0
-22037 -22039 22042 0
-22038 22043 0
-22040 22043 0
-22038 -22040 22044 0
-22042 22045 0
-22043 22045 0
-22042 -22043 22046 0
-22045 0
2761 2762 2763 0
-22047 0
-2761 22048 0
-2762 22048 0
-2761 -2762 22049 0
-2763 22050 0
-22047 22050 0
-2763 -22047 22051 0
-22048 22052 0
-22050 22052 0
-22048 -22050 22053 0
-22049 22054 0
-22051 22054 0
-22049 -22051 22055 0
-22053 22056 0
-22054 22056 0
-22053 -22054 22057 0
-22056 0
244 245 246 0
-22058 0
-244 22059 0
-245 22059 0
-244 -245 22060 0
-246 22061 0
-22058 22061 0
-246 -22058 22062 0
-22059 22063 0
-22061 22063 0
-22059 -22061 22064 0
-22060 22065 0
-22062 22065 0
-22060 -22062 22066 0
-22064 22067 0
-22065 22067 0
-22064 -22065 22068 0
-22067 0
664 665 666 0
-22069 0
-664 22070 0
-665 22070 0
-664 -665 22071 0
-666 22072 0
-22069 22072 0
-666 -22069 22073 0
-22070 22074 0
-22072 22074 0
-22070 -22072 22075 0
-22071 22076 0
-22073 22076 0
-22071 -22073 22077 0
-22075 22078 0
-22076 22078 0
-22075 -22076 22079 0
-22078 0
1084 1085 1086 0
-22080 0
-1084 22081 0
-1085 22081 0
-1084 -1085 22082 0
-1086 22083 0
-22080 22083 0
-1086 -22080 22084 0
-22081 22085 0
-22083 22085 0
-22081 -22083 22086 0
-22082 22087 0
-22084 22087 0
-22082 -22084 22088 0
-22086 22089 0
-22087 22089 0
-22086 -22087 22090 0
-22089 0
1504 1505 1506 0
-22091 0
-1504 22092 0
-1505 22092 0
-1504 -1505 22093 0
-1506 22094 0
-22091 22094 0
-1506 -22091 22095 0
-22092 22096 0
-22094 22096 0
-22092 -22094 22097 0
-22093 22098 0
-22095 22098 0
-22093 -22095 22099 0
-22097 22100 0
-22098 22100 0
-22097 -22098 22101 0
-22100 0
1924 1925 1926 0
-22102 0
-1924 22103 0
-1925 22103 0
-1924 -1925 22104 0
-1926 22105 0
-22102 22105 0
-1926 -22102 22106 0
-22103 22107 0
-22105 22107 0
-22103 -22105 22108 0
-22104 22109 0
-22106 22109 0
-22104 -22106 22110 0
-22108 22111 0
-22109 22111 0
-22108 -22109 22112 0
-22111 0
2344 2345 2346 0
-22113 0
-2344 22114 0
-2345 22114 0
-2344 -2345 22115 0
-2346 22116 0
-22113 22116 0
-2346 -22113 22117 0
-22114 22118 0
-22116 22118 0
-22114 -22116 22119 0
-22115 22120 0
-22117 22120 0
-22115 -22117 22121 0
-22119 22122 0
-22120 22122 0
-22119 -22120 22123 0
-22122 0
2764 2765 2766 0
-22124 0
-2764 22125 0
-2765 22125 0
-2764 -2765 22126 0
-2766 22127 0
-22124 22127 0
-2766 -22124 22128 0
-22125 22129 0
-22127 22129 0
-22125 -22127 22130 0
-22126 22131 0
-22128 22131 0
-22126 -22128 22132 0
-22130 22133 0
-22131 22133 0
-22130 -22131 22134 0
-22133 0
247 248 249 0
-22135 0
-247 22136 0
-248 22136 0
-247 -248 22137 0
-249 22138 0
-22135 22138 0
-249 -22135 22139 0
-22136 22140 0
-22138 22140 0
-22136 -22138 22141 0
-22137 22142 0
-22139 22142 0
-22137 -22139 22143 0
-22141 22144 0
-22142 22144 0
-22141 -22142 22145 0
-22144 0
667 668 669 0
-22146 0
-667 22147 0
-668 22147 0
-667 -668 22148 0
-669 22149 0
-22146 22149 0
-669 -22146 22150 0
-22147 22151 0
-22149 22151 0
-22147 -22149 22152 0
-22148 22153 0
-22150 22153 0
-22148 -22150 22154 0
-22152 22155 0
-22153 22155 0
-22152 -22153 22156 0
-22155 0
1087 1088 1089 0
-22157 0
-1087 22158 0
-1088 22158 0
-1087 -1088 22159 0
-1089 22160 0
-22157 22160 0
-1089 -22157 22161 0
-22158 22162 0
-22160 22162 0
-22158 -22160 22163 0
-22159 22164 0
-22161 22164 0
-22159 -22161 22165 0
-22163 22166 0
-22164 22166 0
-22163 -22164 22167 0
-22166 0
1507 1508 1509 0
-22168 0
-1507 22169 0
-1508 22169 0
-1507 -1508 22170 0
-1509 22171 0
-22168 22171 0
-1509 -22168 22172 0
-22169 22173 0
-22171 22173 0
-22169 -22171 22174 0
-22170 22175 0
-22172 22175 0
-22170 -22172 22176 0
-22174 22177 0
-22175 22177 0
-22174 -22175 22178 0
-22177 0
1927 1928 1929 0
-22179 0
-1927 22180 0
-1928 22180 0
-1927 -1928 22181 0
-1929 22182 0
-22179 22182 0
-1929 -22179 22183 0
-22180 22184 0
-22182 22184 0
-22180 -22182 22185 0
-22181 22186 0
-22183 22186 0
-22181 -22183 22187 0
-22185 22188 0
-22186 22188 0
-22185 -22186 22189 0
-22188 0
2347 2348 2349 0
-22190 0
-2347 22191 0
-2348 22191 0
-2347 -2348 22192 0
-2349 22193 0
-22190 22193 0
-2349 -22190 22194 0
-22191 22195 0
-22193 22195 0
-22191 -22193 22196 0
-22192 22197 0
-22194 22197 0
-22192 -22194 22198 0
-22196 22199 0
-22197 22199 0
-22196 -22197 22200 0
-22199 0
2767 2768 2769 0
-22201 0
-2767 22202 0
-2768 22202 0
-2767 -2768 22203 0
-2769 22204 0
-22201 22204 0
-2769 -22201 22205 0
-22202 22206 0
-22204 22206 0
-22202 -22204 22207 0
-22203 22208 0
-22205 22208 0
-22203 -22205 22209 0
-22207 22210 0
-22208 22210 0
-22207 -22208 22211 0
-22210 0
250 251 252 0
-22212 0
-250 22213 0
-251 22213 0
-250 -251 22214 0
-252 22215 0
-22212 22215 0
-252 -22212 22216 0
-22213 22217 0
-22215 22217 0
-22213 -22215 22218 0
-22214 22219 0
-22216 22219 0
-22214 -22216 22220 0
-22218 22221 0
-22219 22221 0
-22218 -22219 22222 0
-22221 0
670 671 672 0
-22223 0
-670 22224 0
-671 22224 0
-670 -671 22225 0
-672 22226 0
-22223 22226 0
-672 -22223 22227 0
-22224 22228 0
-22226 22228 0
-22224 -22226 22229 0
-22225 22230 0
-22227 22230 0
-22225 -22227 22231 0
-22229 22232 0
-22230 22232 0
-22229 -22230 22233 0
-22232 0
1090 1091 1092 0
-22234 0
-1090 22235 0
-1091 22235 0
-1090 -1091 22236 0
-1092 22237 0
-22234 22237 0
-1092 -22234 22238 0
-22235 22239 0
-22237 22239 0
-22235 -22237 22240 0
-22236 22241 0
-22238 22241 0
-22236 -22238 22242 0
-22240 22243 0
-22241 22243 0
-22240 -22241 22244 0
-22243 0
1510 1511 1512 0
-22245 0
-1510 22246 0
-1511 22246 0
-1510 -1511 22247 0
-1512 22248 0
-22245 22248 0
-1512 -22245 22249 0
-22246 22250 0
-22248 22250 0
-22246 -22248 22251 0
-22247 22252 0
-22249 22252 0
-22247 -22249 22253 0
-22251 22254 0
-22252 22254 0
-22251 -22252 22255 0
-22254 0
1930 1931 1932 0
-22256 0
-1930 22257 0
-1931 22257 0
-1930 -1931 22258 0
-1932 22259 0
-22256 22259 0
-1932 -22256 22260 0
-22257 22261 0
-22259 22261 0
-22257 -22259 22262 0
-22258 22263 0
-22260 22263 0
-22258 -22260 22264 0
-22262 22265 0
-22263 22265 0
-22262 -22263 22266 0
-22265 0
2350 2351 2352 0
-22267 0
-2350 22268 0
-2351 22268 0
-2350 -2351 22269 0
-2352 22270 0
-22267 22270 0
-2352 -22267 22271 0
-22268 22272 0
-22270 22272 0
-22268 -22270 22273 0
-22269 22274 0
-22271 22274 0
-22269 -22271 22275 0
-22273 22276 0
-22274 22276 0
-22273 -22274 22277 0
-22276 0
2770 2771 2772 0
-22278 0
-2770 22279 0
-2771 22279 0
-2770 -2771 22280 0
-2772 22281 0
-22278 22281 0
-2772 -22278 22282 0
-22279 22283 0
-22281 22283 0
-22279 -22281 22284 0
-22280 22285 0
-22282 22285 0
-22280 -22282 22286 0
-22284 22287 0
-22285 22287 0
-22284 -22285 22288 0
-22287 0
253 254 255 0
-22289 0
-253 22290 0
-254 22290 0
-253 -254 22291 0
-255 22292 0
-22289 22292 0
-255 -22289 22293 0
-22290 22294 0
-22292 22294 0
-22290 -22292 22295 0
-22291 22296 0
-22293 22296 0
-22291 -22293 22297 0
-22295 22298 0
-22296 22298 0
-22295 -22296 22299 0
-22298 0
673 674 675 0
-22300 0
-673 22301 0
-674 22301 0
-673 -674 22302 0
-675 22303 0
-22300 22303 0
-675 -22300 22304 0
-22301 22305 0
-22303 22305 0
-22301 -22303 22306 0
-22302 22307 0
-22304 22307 0
-22302 -22304 22308 0
-22306 22309 0
-22307 22309 0
-22306 -22307 22310 0
-22309 0
1093 1094 1095 0
-22311 0
-1093 22312 0
-1094 22312 0
-1093 -1094 22313 0
-1095 22314 0
-22311 22314 0
-1095 -22311 22315 0
-22312 22316 0
-22314 22316 0
-22312 -22314 22317 0
-22313 22318 0
-22315 22318 0
-22313 -22315 22319 0
-22317 22320 0
-22318 22320 0
-22317 -22318 22321 0
-22320 0
1513 1514 1515 0
-22322 0
-1513 22323 0
-1514 22323 0
-1513 -1514 22324 0
-1515 22325 0
-22322 22325 0
-1515 -22322 22326 0
-22323 22327 0
-22325 22327 0
-22323 -22325 22328 0
-22324 22329 0
-22326 22329 0
-22324 -22326 22330 0
-22328 22331 0
-22329 22331 0
-22328 -22329 22332 0
-22331 0
1933 1934 1935 0
-22333 0
-1933 22334 0
-1934 22334 0
-1933 -1934 22335 0
-1935 22336 0
-22333 22336 0
-1935 -22333 22337 0
-22334 22338 0
-22336 22338 0
-22334 -22336 22339 0
-22335 22340 0
-22337 22340 0
-22335 -22337 22341 0
-22339 22342 0
-22340 22342 0
-22339 -22340 22343 0
-22342 0
2353 2354 2355 0
-22344 0
-2353 22345 0
-2354 22345 0
-2353 -2354 22346 0
-2355 22347 0
-22344 22347 0
-2355 -22344 22348 0
-22345 22349 0
-22347 22349 0
-22345 -22347 22350 0
-22346 22351 0
-22348 22351 0
-22346 -22348 22352 0
-22350 22353 0
-22351 22353 0
-22350 -22351 22354 0
-22353 0
2773 2774 2775 0
-22355 0
-2773 22356 0
-2774 22356 0
-2773 -2774 22357 0
-2775 22358 0
-22355 22358 0
-2775 -22355 22359 0
-22356 22360 0
-22358 22360 0
-22356 -22358 22361 0
-22357 22362 0
-22359 22362 0
-22357 -22359 22363 0
-22361 22364 0
-22362 22364 0
-22361 -22362 22365 0
-22364 0
256 257 258 0
-22366 0
-256 22367 0
-257 22367 0
-256 -257 22368 0
-258 22369 0
-22366 22369 0
-258 -22366 22370 0
-22367 22371 0
-22369 22371 0
-22367 -22369 22372 0
-22368 22373 0
-22370 22373 0
-22368 -22370 22374 0
-22372 22375 0
-22373 22375 0
-22372 -22373 22376 0
-22375 0
676 677 678 0
-22377 0
-676 22378 0
-677 22378 0
-676 -677 22379 0
-678 22380 0
-22377 22380 0
-678 -22377 22381 0
-22378 22382 0
-22380 22382 0
-22378 -22380 22383 0
-22379 22384 0
-22381 22384 0
-22379 -22381 22385 0
-22383 22386 0
-22384 22386 0
-22383 -22384 22387 0
-22386 0
1096 1097 1098 0
-22388 0
-1096 22389 0
-1097 22389 0
-1096 -1097 22390 0
-1098 22391 0
-22388 22391 0
-1098 -22388 22392 0
-22389 22393 0
-22391 22393 0
-22389 -22391 22394 0
-22390 22395 0
-22392 22395 0
-22390 -22392 22396 0
-22394 22397 0
-22395 22397 0
-22394 -22395 22398 0
-22397 0
1516 1517 1518 0
-22399 0
-1516 22400 0
-1517 22400 0
-1516 -1517 22401 0
-1518 22402 0
-22399 22402 0
-1518 -22399 22403 0
-22400 22404 0
-22402 22404 0
-22400 -22402 22405 0
-22401 22406 0
-22403 22406 0
-22401 -22403 22407 0
-22405 22408 0
-22406 22408 0
-22405 -22406 22409 0
-22408 0
1936 1937 1938 0
-22410 0
-1936 22411 0
-1937 22411 0
-1936 -1937 22412 0
-1938 22413 0
-22410 22413 0
-1938 -22410 22414 0
-22411 22415 0
-22413 22415 0
-22411 -22413 22416 0
-22412 22417 0
-22414 22417 0
-22412 -22414 22418 0
-22416 22419 0
-22417 22419 0
-22416 -22417 22420 0
-22419 0
2356 2357 2358 0
-22421 0
-2356 22422 0
-2357 22422 0
-2356 -2357 22423 0
-2358 22424 0
-22421 22424 0
-2358 -22421 22425 0
-22422 22426 0
-22424 22426 0
-22422 -22424 22427 0
-22423 22428 0
-22425 22428 0
-22423 -22425 22429 0
-22427 22430 0
-22428 22430 0
-22427 -22428 22431 0
-22430 0
2776 2777 2778 0
-22432 0
-2776 22433 0
-2777 22433 0
-2776 -2777 22434 0
-2778 22435 0
-22432 22435 0
-2778 -22432 22436 0
-22433 22437 0
-22435 22437 0
-22433 -22435 22438 0
-22434 22439 0
-22436 22439 0
-22434 -22436 22440 0
-22438 22441 0
-22439 22441 0
-22438 -22439 22442 0
-22441 0
259 260 261 0
-22443 0
-259 22444 0
-260 22444 0
-259 -260 22445 0
-261 22446 0
-22443 22446 0
-261 -22443 22447 0
-22444 22448 0
-22446 22448 0
-22444 -22446 22449 0
-22445 22450 0
-22447 22450 0
-22445 -22447 22451 0
-22449 22452 0
-22450 22452 0
-22449 -22450 22453 0
-22452 0
679 680 681 0
-22454 0
-679 22455 0
-680 22455 0
-679 -680 22456 0
-681 22457 0
-22454 22457 0
-681 -22454 22458 0
-22455 22459 0
-22457 22459 0
-22455 -22457 22460 0
-22456 22461 0
-22458 22461 0
-22456 -22458 22462 0
-22460 22463 0
-22461 22463 0
-22460 -22461 22464 0
-22463 0
1099 1100 1101 0
-22465 0
-1099 22466 0
-1100 22466 0
-1099 -1100 22467 0
-1101 22468 0
-22465 22468 0
-1101 -22465 22469 0
-22466 22470 0
-22468 22470 0
-22466 -22468 22471 0
-22467 22472 0
-22469 22472 0
-22467 -22469 22473 0
-22471 22474 0
-22472 22474 0
-22471 -22472 22475 0
-22474 0
1519 1520 1521 0
-22476 0
-1519 22477 0
-1520 22477 0
-1519 -1520 22478 0
-1521 22479 0
-22476 22479 0
-1521 -22476 22480 0
-22477 22481 0
-22479 22481 0
-22477 -22479 22482 0
-22478 22483 0
-22480 22483 0
-22478 -22480 22484 0
-22482 22485 0
-22483 22485 0
-22482 -22483 22486 0
-22485 0
1939 1940 1941 0
-22487 0
-1939 22488 0
-1940 22488 0
-1939 -1940 22489 0
-1941 22490 0
-22487 22490 0
-1941 -22487 22491 0
-22488 22492 0
-22490 22492 0
-22488 -22490 22493 0
-22489 22494 0
-22491 22494 0
-22489 -22491 22495 0
-22493 22496 0
-22494 22496 0
-22493 -22494 22497 0
-22496 0
2359 2360 2361 0
-22498 0
-2359 22499 0
-2360 22499 0
-2359 -2360 22500 0
-2361 22501 0
-22498 22501 0
-2361 -22498 22502 0
-22499 22503 0
-22501 22503 0
-22499 -22501 22504 0
-22500 22505 0
-22502 22505 0
-22500 -22502 22506 0
-22504 22507 0
-22505 22507 0
-22504 -22505 22508 0
-22507 0
2779 2780 2781 0
-22509 0
-2779 22510 0
-2780 22510 0
-2779 -2780 22511 0
-2781 22512 0
-22509 22512 0
-2781 -22509 22513 0
-22510 22514 0
-22512 22514 0
-22510 -22512 22515 0
-22511 22516 0
-22513 22516 0
-22511 -22513 22517 0
-22515 22518 0
-22516 22518 0
-22515 -22516 22519 0
-22518 0
262 263 264 0
-22520 0
-262 22521 0
-263 22521 0
-262 -263 22522 0
-264 22523 0
-22520 22523 0
-264 -22520 22524 0
-22521 22525 0
-22523 22525 0
-22521 -22523 22526 0
-22522 22527 0
-22524 22527 0
-22522 -22524 22528 0
-22526 22529 0
-22527 22529 0
-22526 -22527 22530 0
-22529 0
682 683 684 0
-22531 0
-682 22532 0
-683 22532 0
-682 -683 22533 0
-684 22534 0
-22531 22534 0
-684 -22531 22535 0
-22532 22536 0
-22534 22536 0
-22532 -22534 22537 0
-22533 22538 0
-22535 22538 0
-22533 -22535 22539 0
-22537 22540 0
-22538 22540 0
-22537 -22538 22541 0
-22540 0
1102 1103 1104 0
-22542 0
-1102 22543 0
-1103 22543 0
-1102 -1103 22544 0
-1104 22545 0
-22542 22545 0
-1104 -22542 22546 0
-22543 22547 0
-22545 22547 0
-22543 -22545 22548 0
-22544 22549 0
-22546 22549 0
-22544 -22546 22550 0
-22548 22551 0
-22549 22551 0
-22548 -22549 22552 0
-22551 0
1522 1523 1524 0
-22553 0
-1522 22554 0
-1523 22554 0
-1522 -1523 22555 0
-1524 22556 0
-22553 22556 0
-1524 -22553 22557 0
-22554 22558 0
-22556 22558 0
-22554 -22556 22559 0
-22555 22560 0
-22557 22560 0
-22555 -22557 22561 0
-22559 22562 0
-22560 22562 0
-22559 -22560 22563 0
-22562 0
1942 1943 1944 0
-22564 0
-1942 22565 0
-1943 22565 0
-1942 -1943 22566 0
-1944 22567 0
-22564 22567 0
-1944 -22564 22568 0
-22565 22569 0
-22567 22569 0
-22565 -22567 22570 0
-22566 22571 0
-22568 22571 0
-22566 -22568 22572 0
-22570 22573 0
-22571 22573 0
-22570 -22571 22574 0
-22573 0
2362 2363 2364 0
-22575 0
-2362 22576 0
-2363 22576 0
-2362 -2363 22577 0
-2364 22578 0
-22575 22578 0
-2364 -22575 22579 0
-22576 22580 0
-22578 22580 0
-22576 -22578 22581 0
-22577 22582 0
-22579 22582 0
-22577 -22579 22583 0
-22581 22584 0
-22582 22584 0
-22581 -22582 22585 0
-22584 0
2782 2783 2784 0
-22586 0
-2782 22587 0
-2783 22587 0
-2782 -2783 22588 0
-2784 22589 0
-22586 22589 0
-2784 -22586 22590 0
-22587 22591 0
-22589 22591 0
-22587 -22589 22592 0
-22588 22593 0
-22590 22593 0
-22588 -22590 22594 0
-22592 22595 0
-22593 22595 0
-22592 -22593 22596 0
-22595 0
265 266 267 0
-22597 0
-265 22598 0
-266 22598 0
-265 -266 22599 0
-267 22600 0
-22597 22600 0
-267 -22597 22601 0
-22598 22602 0
-22600 22602 0
-22598 -22600 22603 0
-22599 22604 0
-22601 22604 0
-22599 -22601 22605 0
-22603 22606 0
-22604 22606 0
-22603 -22604 22607 0
-22606 0
685 686 687 0
-22608 0
-685 22609 0
-686 22609 0
-685 -686 22610 0
-687 22611 0
-22608 22611 0
-687 -22608 22612 0
-22609 22613 0
-22611 22613 0
-22609 -22611 22614 0
-22610 22615 0
-22612 22615 0
-22610 -22612 22616 0
-22614 22617 0
-22615 22617 0
-22614 -22615 22618 0
-22617 0
1105 1106 1107 0
-22619 0
-1105 22620 0
-1106 22620 0
-1105 -1106 22621 0
-1107 22622 0
-22619 22622 0
-1107 -22619 22623 0
-22620 22624 0
-22622 22624 0
-22620 -22622 22625 0
-22621 22626 0
-22623 22626 0
-22621 -22623 22627 0
-22625 22628 0
-22626 22628 0
-22625 -22626 22629 0
-22628 0
1525 1526 1527 0
-22630 0
-1525 22631 0
-1526 22631 0
-1525 -1526 22632 0
-1527 22633 0
-22630 22633 0
-1527 -22630 22634 0
-22631 22635 0
-22633 22635 0
-22631 -22633 22636 0
-22632 22637 0
-22634 22637 0
-22632 -22634 22638 0
-22636 22639 0
-22637 22639 0
-22636 -22637 22640 0
-22639 0
1945 1946 1947 0
-22641 0
-1945 22642 0
-1946 22642 0
-1945 -1946 22643 0
-1947 22644 0
-22641 22644 0
-1947 -22641 22645 0
-22642 22646 0
-22644 22646 0
-22642 -22644 22647 0
-22643 22648 0
-22645 22648 0
-22643 -22645 22649 0
-22647 22650 0
-22648 22650 0
-22647 -22648 22651 0
-22650 0
2365 2366 2367 0
-22652 0
-2365 22653 0
-2366 22653 0
-2365 -2366 22654 0
-2367 22655 0
-22652 22655 0
-2367 -22652 22656 0
-22653 22657 0
-22655 22657 0
-22653 -22655 22658 0
-22654 22659 0
-22656 22659 0
-22654 -22656 22660 0
-22658 22661 0
-22659 22661 0
-22658 -22659 22662 0
-22661 0
2785 2786 2787 0
-22663 0
-2785 22664 0
-2786 22664 0
-2785 -2786 22665 0
-2787 22666 0
-22663 22666 0
-2787 -22663 22667 0
-22664 22668 0
-22666 22668 0
-22664 -22666 22669 0
-22665 22670 0
-22667 22670 0
-22665 -22667 22671 0
-22669 22672 0
-22670 22672 0
-22669 -22670 22673 0
-22672 0
268 269 270 0
-22674 0
-268 22675 0
-269 22675 0
-268 -269 22676 0
-270 22677 0
-22674 22677 0
-270 -22674 22678 0
-22675 22679 0
-22677 22679 0
-22675 -22677 22680 0
-22676 22681 0
-22678 22681 0
-22676 -22678 22682 0
-22680 22683 0
-22681 22683 0
-22680 -22681 22684 0
-22683 0
688 689 690 0
-22685 0
-688 22686 0
-689 22686 0
-688 -689 22687 0
-690 22688 0
-22685 22688 0
-690 -22685 22689 0
-22686 22690 0
-22688 22690 0
-22686 -22688 22691 0
-22687 22692 0
-22689 22692 0
-22687 -22689 22693 0
-22691 22694 0
-22692 22694 0
-22691 -22692 22695 0
-22694 0
1108 1109 1110 0
-22696 0
-1108 22697 0
-1109 22697 0
-1108 -1109 22698 0
-1110 22699 0
-22696 22699 0
-1110 -22696 22700 0
-22697 22701 0
-22699 22701 0
-22697 -22699 22702 0
-22698 22703 0
-22700 22703 0
-22698 -22700 22704 0
-22702 22705 0
-22703 22705 0
-22702 -22703 22706 0
-22705 0
1528 1529 1530 0
-22707 0
-1528 22708 0
-1529 22708 0
-1528 -1529 22709 0
-1530 22710 0
-22707 22710 0
-1530 -22707 22711 0
-22708 22712 0
-22710 22712 0
-22708 -22710 22713 0
-22709 22714 0
-22711 22714 0
-22709 -22711 22715 0
-22713 22716 0
-22714 22716 0
-22713 -22714 22717 0
-22716 0
1948 1949 1950 0
-22718 0
-1948 22719 0
-1949 22719 0
-1948 -1949 22720 0
-1950 22721 0
-22718 22721 0
-1950 -22718 22722 0
-22719 22723 0
-22721 22723 0
-22719 -22721 22724 0
-22720 22725 0
-22722 22725 0
-22720 -22722 22726 0
-22724 22727 0
-22725 22727 0
-22724 -22725 22728 0
-22727 0
2368 2369 2370 0
-22729 0
-2368 22730 0
-2369 22730 0
-2368 -2369 22731 0
-2370 22732 0
-22729 22732 0
-2370 -22729 22733 0
-22730 22734 0
-22732 22734 0
-22730 -22732 22735 0
-22731 22736 0
-22733 22736 0
-22731 -22733 22737 0
-22735 22738 0
-22736 22738 0
-22735 -22736 22739 0
-22738 0
2788 2789 2790 0
-22740 0
-2788 22741 0
-2789 22741 0
-2788 -2789 22742 0
-2790 22743 0
-22740 22743 0
-2790 -22740 22744 0
-22741 22745 0
-22743 22745 0
-22741 -22743 22746 0
-22742 22747 0
-22744 22747 0
-22742 -22744 22748 0
-22746 22749 0
-22747 22749 0
-22746 -22747 22750 0
-22749 0
271 272 273 0
-22751 0
-271 22752 0
-272 22752 0
-271 -272 22753 0
-273 22754 0
-22751 22754 0
-273 -22751 22755 0
-22752 22756 0
-22754 22756 0
-22752 -22754 22757 0
-22753 22758 0
-22755 22758 0
-22753 -22755 22759 0
-22757 22760 0
-22758 22760 0
-22757 -22758 22761 0
-22760 0
691 692 693 0
-22762 0
-691 22763 0
-692 22763 0
-691 -692 22764 0
-693 22765 0
-22762 22765 0
-693 -22762 22766 0
-22763 22767 0
-22765 22767 0
-22763 -22765 22768 0
-22764 22769 0
-22766 22769 0
-22764 -22766 22770 0
-22768 22771 0
-22769 22771 0
-22768 -22769 22772 0
-22771 0
1111 1112 1113 0
-22773 0
-1111 22774 0
-1112 22774 0
-1111 -1112 22775 0
-1113 22776 0
-22773 22776 0
-1113 -22773 22777 0
-22774 22778 0
-22776 22778 0
-22774 -22776 22779 0
-22775 22780 0
-22777 22780 0
-22775 -22777 22781 0
-22779 22782 0
-22780 22782 0
-22779 -22780 22783 0
-22782 0
1531 1532 1533 0
-22784 0
-1531 22785 0
-1532 22785 0
-1531 -1532 22786 0
-1533 22787 0
-22784 22787 0
-1533 -22784 22788 0
-22785 22789 0
-22787 22789 0
-22785 -22787 22790 0
-22786 22791 0
-22788 22791 0
-22786 -22788 22792 0
-22790 22793 0
-22791 22793 0
-22790 -22791 22794 0
-22793 0
1951 1952 1953 0
-22795 0
-1951 22796 0
-1952 22796 0
-1951 -1952 22797 0
-1953 22798 0
-22795 22798 0
-1953 -22795 22799 0
-22796 22800 0
-22798 22800 0
-22796 -22798 22801 0
-22797 22802 0
-22799 22802 0
-22797 -22799 22803 0
-22801 22804 0
-22802 22804 0
-22801 -22802 22805 0
-22804 0
2371 2372 2373 0
-22806 0
-2371 22807 0
-2372 22807 0
-2371 -2372 22808 0
-2373 22809 0
-22806 22809 0
-2373 -22806 22810 0
-22807 22811 0
-22809 22811 0
-22807 -22809 22812 0
-22808 22813 0
-22810 22813 0
-22808 -22810 22814 0
-22812 22815 0
-22813 22815 0
-22812 -22813 22816 0
-22815 0
2791 2792 2793 0
-22817 0
-2791 22818 0
-2792 22818 0
-2791 -2792 22819 0
-2793 22820 0
-22817 22820 0
-2793 -22817 22821 0
-22818 22822 0
-22820 22822 0
-22818 -22820 22823 0
-22819 22824 0
-22821 22824 0
-22819 -22821 22825 0
-22823 22826 0
-22824 22826 0
-22823 -22824 22827 0
-22826 0
274 275 276 0
-22828 0
-274 22829 0
-275 22829 0
-274 -275 22830 0
-276 22831 0
-22828 22831 0
-276 -22828 22832 0
-22829 22833 0
-22831 22833 0
-22829 -22831 22834 0
-22830 22835 0
-22832 22835 0
-22830 -22832 22836 0
-22834 22837 0
-22835 22837 0
-22834 -22835 22838 0
-22837 0
694 695 696 0
-22839 0
-694 22840 0
-695 22840 0
-694 -695 22841 0
-696 22842 0
-22839 22842 0
-696 -22839 22843 0
-22840 22844 0
-22842 22844 0
-22840 -22842 22845 0
-22841 22846 0
-22843 22846 0
-22841 -22843 22847 0
-22845 22848 0
-22846 22848 0
-22845 -22846 22849 0
-22848 0
1114 1115 1116 0
-22850 0
-1114 22851 0
-1115 22851 0
-1114 -1115 22852 0
-1116 22853 0
-22850 22853 0
-1116 -22850 22854 0
-22851 22855 0
-22853 22855 0
-22851 -22853 22856 0
-22852 22857 0
-22854 22857 0
-22852 -22854 22858 0
-22856 22859 0
-22857 22859 0
-22856 -22857 22860 0
-22859 0
1534 1535 1536 0
-22861 0
-1534 22862 0
-1535 22862 0
-1534 -1535 22863 0
-1536 22864 0
-22861 22864 0
-1536 -22861 22865 0
-22862 22866 0
-22864 22866 0
-22862 -22864 22867 0
-22863 22868 0
-22865 22868 0
-22863 -22865 22869 0
-22867 22870 0
-22868 22870 0
-22867 -22868 22871 0
-22870 0
1954 1955 1956 0
-22872 0
-1954 22873 0
-1955 22873 0
-1954 -1955 22874 0
-1956 22875 0
-22872 22875 0
-1956 -22872 22876 0
-22873 22877 0
-22875 22877 0
-22873 -22875 22878 0
-22874 22879 0
-22876 22879 0
-22874 -22876 22880 0
-22878 22881 0
-22879 22881 0
-22878 -22879 22882 0
-22881 0
2374 2375 2376 0
-22883 0
-2374 22884 0
-2375 22884 0
-2374 -2375 22885 0
-2376 22886 0
-22883 22886 0
-2376 -22883 22887 0
-22884 22888 0
-22886 22888 0
-22884 -22886 22889 0
-22885 22890 0
-22887 22890 0
-22885 -22887 22891 0
-22889 22892 0
-22890 22892 0
-22889 -22890 22893 0
-22892 0
2794 2795 2796 0
-22894 0
-2794 22895 0
-2795 22895 0
-2794 -2795 22896 0
-2796 22897 0
-22894 22897 0
-2796 -22894 22898 0
-22895 22899 0
-22897 22899 0
-22895 -22897 22900 0
-22896 22901 0
-22898 22901 0
-22896 -22898 22902 0
-22900 22903 0
-22901 22903 0
-22900 -22901 22904 0
-22903 0
277 278 279 0
-22905 0
-277 22906 0
-278 22906 0
-277 -278 22907 0
-279 22908 0
-22905 22908 0
-279 -22905 22909 0
-22906 22910 0
-22908 22910 0
-22906 -22908 22911 0
-22907 22912 0
-22909 22912 0
-22907 -22909 22913 0
-22911 22914 0
-22912 22914 0
-22911 -22912 22915 0
-22914 0
697 698 699 0
-22916 0
-697 22917 0
-698 22917 0
-697 -698 22918 0
-699 22919 0
-22916 22919 0
-699 -22916 22920 0
-22917 22921 0
-22919 22921 0
-22917 -22919 22922 0
-22918 22923 0
-22920 22923 0
-22918 -22920 22924 0
-22922 22925 0
-22923 22925 0
-22922 -22923 22926 0
-22925 0
1117 1118 1119 0
-22927 0
-1117 22928 0
-1118 22928 0
-1117 -1118 22929 0
-1119 22930 0
-22927 22930 0
-1119 -22927 22931 0
-22928 22932 0
-22930 22932 0
-22928 -22930 22933 0
-22929 22934 0
-22931 22934 0
-22929 -22931 22935 0
-22933 22936 0
-22934 22936 0
-22933 -22934 22937 0
-22936 0
1537 1538 1539 0
-22938 0
-1537 22939 0
-1538 22939 0
-1537 -1538 22940 0
-1539 22941 0
-22938 22941 0
-1539 -22938 22942 0
-22939 22943 0
-22941 22943 0
-22939 -22941 22944 0
-22940 22945 0
-22942 22945 0
-22940 -22942 22946 0
-22944 22947 0
-22945 22947 0
-22944 -22945 22948 0
-22947 0
1957 1958 1959 0
-22949 0
-1957 22950 0
-1958 22950 0
-1957 -1958 22951 0
-1959 22952 0
-22949 22952 0
-1959 -22949 22953 0
-22950 22954 0
-22952 22954 0
-22950 -22952 22955 0
-22951 22956 0
-22953 22956 0
-22951 -22953 22957 0
-22955 22958 0
-22956 22958 0
-22955 -22956 22959 0
-22958 0
2377 2378 2379 0
-22960 0
-2377 22961 0
-2378 22961 0
-2377 -2378 22962 0
-2379 22963 0
-22960 22963 0
-2379 -22960 22964 0
-22961 22965 0
-22963 22965 0
-22961 -22963 22966 0
-22962 22967 0
-22964 22967 0
-22962 -22964 22968 0
-22966 22969 0
-22967 22969 0
-22966 -22967 22970 0
-22969 0
2797 2798 2799 0
-22971 0
-2797 22972 0
-2798 22972 0
-2797 -2798 22973 0
-2799 22974 0
-22971 22974 0
-2799 -22971 22975 0
-22972 22976 0
-22974 22976 0
-22972 -22974 22977 0
-22973 22978 0
-22975 22978 0
-22973 -22975 22979 0
-22977 22980 0
-22978 22980 0
-22977 -22978 22981 0
-22980 0
280 281 282 0
-22982 0
-280 22983 0
-281 22983 0
-280 -281 22984 0
-282 22985 0
-22982 22985 0
-282 -22982 22986 0
-22983 22987 0
-22985 22987 0
-22983 -22985 22988 0
-22984 22989 0
-22986 22989 0
-22984 -22986 22990 0
-22988 22991 0
-22989 22991 0
-22988 -22989 22992 0
-22991 0
700 701 702 0
-22993 0
-700 22994 0
-701 22994 0
-700 -701 22995 0
-702 22996 0
-22993 22996 0
-702 -22993 22997 0
-22994 22998 0
-22996 22998 0
-22994 -22996 22999 0
-22995 23000 0
-22997 23000 0
-22995 -22997 23001 0
-22999 23002 0
-23000 23002 0
-22999 -23000 23003 0
-23002 0
1120 1121 1122 0
-23004 0
-1120 23005 0
-1121 23005 0
-1120 -1121 23006 0
-1122 23007 0
-23004 23007 0
-1122 -23004 23008 0
-23005 23009 0
-23007 23009 0
-23005 -23007 23010 0
-23006 23011 0
-23008 23011 0
-23006 -23008 23012 0
-23010 23013 0
-23011 23013 0
-23010 -23011 23014 0
-23013 0
1540 1541 1542 0
-23015 0
-1540 23016 0
-1541 23016 0
-1540 -1541 23017 0
-1542 23018 0
-23015 23018 0
-1542 -23015 23019 0
-23016 23020 0
-23018 23020 0
-23016 -23018 23021 0
-23017 23022 0
-23019 23022 0
-23017 -23019 23023 0
-23021 23024 0
-23022 23024 0
-23021 -23022 23025 0
-23024 0
1960 1961 1962 0
-23026 0
-1960 23027 0
-1961 23027 0
-1960 -1961 23028 0
-1962 23029 0
-23026 23029 0
-1962 -23026 23030 0
-23027 23031 0
-23029 23031 0
-23027 -23029 23032 0
-23028 23033 0
-23030 23033 0
-23028 -23030 23034 0
-23032 23035 0
-23033 23035 0
-23032 -23033 23036 0
-23035 0
2380 2381 2382 0
-23037 0
-2380 23038 0
-2381 23038 0
-2380 -2381 23039 0
-2382 23040 0
-23037 23040 0
-2382 -23037 23041 0
-23038 23042 0
-23040 23042 0
-23038 -23040 23043 0
-23039 23044 0
-23041 23044 0
-23039 -23041 23045 0
-23043 23046 0
-23044 23046 0
-23043 -23044 23047 0
-23046 0
2800 2801 2802 0
-23048 0
-2800 23049 0
-2801 23049 0
-2800 -2801 23050 0
-2802 23051 0
-23048 23051 0
-2802 -23048 23052 0
-23049 23053 0
-23051 23053 0
-23049 -23051 23054 0
-23050 23055 0
-23052 23055 0
-23050 -23052 23056 0
-23054 23057 0
-23055 23057 0
-23054 -23055 23058 0
-23057 0
283 284 285 0
-23059 0
-283 23060 0
-284 23060 0
-283 -284 23061 0
-285 23062 0
-23059 23062 0
-285 -23059 23063 0
-23060 23064 0
-23062 23064 0
-23060 -23062 23065 0
-23061 23066 0
-23063 23066 0
-23061 -23063 23067 0
-23065 23068 0
-23066 23068 0
-23065 -23066 23069 0
-23068 0
703 704 705 0
-23070 0
-703 23071 0
-704 23071 0
-703 -704 23072 0
-705 23073 0
-23070 23073 0
-705 -23070 23074 0
-23071 23075 0
-23073 23075 0
-23071 -23073 23076 0
-23072 23077 0
-23074 23077 0
-23072 -23074 23078 0
-23076 23079 0
-23077 23079 0
-23076 -23077 23080 0
-23079 0
1123 1124 1125 0
-23081 0
-1123 23082 0
-1124 23082 0
-1123 -1124 23083 0
-1125 23084 0
-23081 23084 0
-1125 -23081 23085 0
-23082 23086 0
-23084 23086 0
-23082 -23084 23087 0
-23083 23088 0
-23085 23088 0
-23083 -23085 23089 0
-23087 23090 0
-23088 23090 0
-23087 -23088 23091 0
-23090 0
1543 1544 1545 0
-23092 0
-1543 23093 0
-1544 23093 0
-1543 -1544 23094 0
-1545 23095 0
-23092 23095 0
-1545 -23092 23096 0
-23093 23097 0
-23095 23097 0
-23093 -23095 23098 0
-23094 23099 0
-23096 23099 0
-23094 -23096 23100 0
-23098 23101 0
-23099 23101 0
-23098 -23099 23102 0
-23101 0
1963 1964 1965 0
-23103 0
-1963 23104 0
-1964 23104 0
-1963 -1964 23105 0
-1965 23106 0
-23103 23106 0
-1965 -23103 23107 0
-23104 23108 0
-23106 23108 0
-23104 -23106 23109 0
-23105 23110 0
-23107 23110 0
-23105 -23107 23111 0
-23109 23112 0
-23110 23112 0
-23109 -23110 23113 0
-23112 0
2383 2384 2385 0
-23114 0
-2383 23115 0
-2384 23115 0
-2383 -2384 23116 0
-2385 23117 0
-23114 23117 0
-2385 -23114 23118 0
-23115 23119 0
-23117 23119 0
-23115 -23117 23120 0
-23116 23121 0
-23118 23121 0
-23116 -23118 23122 0
-23120 23123 0
-23121 23123 0
-23120 -23121 23124 0
-23123 0
2803 2804 2805 0
-23125 0
-2803 23126 0
-2804 23126 0
-2803 -2804 23127 0
-2805 23128 0
-23125 23128 0
-2805 -23125 23129 0
-23126 23130 0
-23128 23130 0
-23126 -23128 23131 0
-23127 23132 0
-23129 23132 0
-23127 -23129 23133 0
-23131 23134 0
-23132 23134 0
-23131 -23132 23135 0
-23134 0
286 287 288 0
-23136 0
-286 23137 0
-287 23137 0
-286 -287 23138 0
-288 23139 0
-23136 23139 0
-288 -23136 23140 0
-23137 23141 0
-23139 23141 0
-23137 -23139 23142 0
-23138 23143 0
-23140 23143 0
-23138 -23140 23144 0
-23142 23145 0
-23143 23145 0
-23142 -23143 23146 0
-23145 0
706 707 708 0
-23147 0
-706 23148 0
-707 23148 0
-706 -707 23149 0
-708 23150 0
-23147 23150 0
-708 -23147 23151 0
-23148 23152 0
-23150 23152 0
-23148 -23150 23153 0
-23149 23154 0
-23151 23154 0
-23149 -23151 23155 0
-23153 23156 0
-23154 23156 0
-23153 -23154 23157 0
-23156 0
1126 1127 1128 0
-23158 0
-1126 23159 0
-1127 23159 0
-1126 -1127 23160 0
-1128 23161 0
-23158 23161 0
-1128 -23158 23162 0
-23159 23163 0
-23161 23163 0
-23159 -23161 23164 0
-23160 23165 0
-23162 23165 0
-23160 -23162 23166 0
-23164 23167 0
-23165 23167 0
-23164 -23165 23168 0
-23167 0
1546 1547 1548 0
-23169 0
-1546 23170 0
-1547 23170 0
-1546 -1547 23171 0
-1548 23172 0
-23169 23172 0
-1548 -23169 23173 0
-23170 23174 0
-23172 23174 0
-23170 -23172 23175 0
-23171 23176 0
-23173 23176 0
-23171 -23173 23177 0
-23175 23178 0
-23176 23178 0
-23175 -23176 23179 0
-23178 0
1966 1967 1968 0
-23180 0
-1966 23181 0
-1967 23181 0
-1966 -1967 23182 0
-1968 23183 0
-23180 23183 0
-1968 -23180 23184 0
-23181 23185 0
-23183 23185 0
-23181 -23183 23186 0
-23182 23187 0
-23184 23187 0
-23182 -23184 23188 0
-23186 23189 0
-23187 23189 0
-23186 -23187 23190 0
-23189 0
2386 2387 2388 0
-23191 0
-2386 23192 0
-2387 23192 0
-2386 -2387 23193 0
-2388 23194 0
-23191 23194 0
-2388 -23191 23195 0
-23192 23196 0
-23194 23196 0
-23192 -23194 23197 0
-23193 23198 0
-23195 23198 0
-23193 -23195 23199 0
-23197 23200 0
-23198 23200 0
-23197 -23198 23201 0
-23200 0
2806 2807 2808 0
-23202 0
-2806 23203 0
-2807 23203 0
-2806 -2807 23204 0
-2808 23205 0
-23202 23205 0
-2808 -23202 23206 0
-23203 23207 0
-23205 23207 0
-23203 -23205 23208 0
-23204 23209 0
-23206 23209 0
-23204 -23206 23210 0
-23208 23211 0
-23209 23211 0
-23208 -23209 23212 0
-23211 0
289 290 291 0
-23213 0
-289 23214 0
-290 23214 0
-289 -290 23215 0
-291 23216 0
-23213 23216 0
-291 -23213 23217 0
-23214 23218 0
-23216 23218 0
-23214 -23216 23219 0
-23215 23220 0
-23217 23220 0
-23215 -23217 23221 0
-23219 23222 0
-23220 23222 0
-23219 -23220 23223 0
-23222 0
709 710 711 0
-23224 0
-709 23225 0
-710 23225 0
-709 -710 23226 0
-711 23227 0
-23224 23227 0
-711 -23224 23228 0
-23225 23229 0
-23227 23229 0
-23225 -23227 23230 0
-23226 23231 0
-23228 23231 0
-23226 -23228 23232 0
-23230 23233 0
-23231 23233 0
-23230 -23231 23234 0
-23233 0
1129 1130 1131 0
-23235 0
-1129 23236 0
-1130 23236 0
-1129 -1130 23237 0
-1131 23238 0
-23235 23238 0
-1131 -23235 23239 0
-23236 23240 0
-23238 23240 0
-23236 -23238 23241 0
-23237 23242 0
-23239 23242 0
-23237 -23239 23243 0
-23241 23244 0
-23242 23244 0
-23241 -23242 23245 0
-23244 0
1549 1550 1551 0
-23246 0
-1549 23247 0
-1550 23247 0
-1549 -1550 23248 0
-1551 23249 0
-23246 23249 0
-1551 -23246 23250 0
-23247 23251 0
-23249 23251 0
-23247 -23249 23252 0
-23248 23253 0
-23250 23253 0
-23248 -23250 23254 0
-23252 23255 0
-23253 23255 0
-23252 -23253 23256 0
-23255 0
1969 1970 1971 0
-23257 0
-1969 23258 0
-1970 23258 0
-1969 -1970 23259 0
-1971 23260 0
-23257 23260 0
-1971 -23257 23261 0
-23258 23262 0
-23260 23262 0
-23258 -23260 23263 0
-23259 23264 0
-23261 23264 0
-23259 -23261 23265 0
-23263 23266 0
-23264 23266 0
-23263 -23264 23267 0
-23266 0
2389 2390 2391 0
-23268 0
-2389 23269 0
-2390 23269 0
-2389 -2390 23270 0
-2391 23271 0
-23268 23271 0
-2391 -23268 23272 0
-23269 23273 0
-23271 23273 0
-23269 -23271 23274 0
-23270 23275 0
-23272 23275 0
-23270 -23272 23276 0
-23274 23277 0
-23275 23277 0
-23274 -23275 23278 0
-23277 0
2809 2810 2811 0
-23279 0
-2809 23280 0
-2810 23280 0
-2809 -2810 23281 0
-2811 23282 0
-23279 23282 0
-2811 -23279 23283 0
-23280 23284 0
-23282 23284 0
-23280 -23282 23285 0
-23281 23286 0
-23283 23286 0
-23281 -23283 23287 0
-23285 23288 0
-23286 23288 0
-23285 -23286 23289 0
-23288 0
292 293 294 0
-23290 0
-292 23291 0
-293 23291 0
-292 -293 23292 0
-294 23293 0
-23290 23293 0
-294 -23290 23294 0
-23291 23295 0
-23293 23295 0
-23291 -23293 23296 0
-23292 23297 0
-23294 23297 0
-23292 -23294 23298 0
-23296 23299 0
-23297 23299 0
-23296 -23297 23300 0
-23299 0
712 713 714 0
-23301 0
-712 23302 0
-713 23302 0
-712 -713 23303 0
-714 23304 0
-23301 23304 0
-714 -23301 23305 0
-23302 23306 0
-23304 23306 0
-23302 -23304 23307 0
-23303 23308 0
-23305 23308 0
-23303 -23305 23309 0
-23307 23310 0
-23308 23310 0
-23307 -23308 23311 0
-23310 0
1132 1133 1134 0
-23312 0
-1132 23313 0
-1133 23313 0
-1132 -1133 23314 0
-1134 23315 0
-23312 23315 0
-1134 -23312 23316 0
-23313 23317 0
-23315 23317 0
-23313 -23315 23318 0
-23314 23319 0
-23316 23319 0
-23314 -23316 23320 0
-23318 23321 0
-23319 23321 0
-23318 -23319 23322 0
-23321 0
1552 1553 1554 0
-23323 0
-1552 23324 0
-1553 23324 0
-1552 -1553 23325 0
-1554 23326 0
-23323 23326 0
-1554 -23323 23327 0
-23324 23328 0
-23326 23328 0
-23324 -23326 23329 0
-23325 23330 0
-23327 23330 0
-23325 -23327 23331 0
-23329 23332 0
-23330 23332 0
-23329 -23330 23333 0
-23332 0
1972 1973 1974 0
-23334 0
-1972 23335 0
-1973 23335 0
-1972 -1973 23336 0
-1974 23337 0
-23334 23337 0
-1974 -23334 23338 0
-23335 23339 0
-23337 23339 0
-23335 -23337 23340 0
-23336 23341 0
-23338 23341 0
-23336 -23338 23342 0
-23340 23343 0
-23341 23343 0
-23340 -23341 23344 0
-23343 0
2392 2393 2394 0
-23345 0
-2392 23346 0
-2393 23346 0
-2392 -2393 23347 0
-2394 23348 0
-23345 23348 0
-2394 -23345 23349 0
-23346 23350 0
-23348 23350 0
-23346 -23348 23351 0
-23347 23352 0
-23349 23352 0
-23347 -23349 23353 0
-23351 23354 0
-23352 23354 0
-23351 -23352 23355 0
-23354 0
2812 2813 2814 0
-23356 0
-2812 23357 0
-2813 23357 0
-2812 -2813 23358 0
-2814 23359 0
-23356 23359 0
-2814 -23356 23360 0
-23357 23361 0
-23359 23361 0
-23357 -23359 23362 0
-23358 23363 0
-23360 23363 0
-23358 -23360 23364 0
-23362 23365 0
-23363 23365 0
-23362 -23363 23366 0
-23365 0
295 296 297 0
-23367 0
-295 23368 0
-296 23368 0
-295 -296 23369 0
-297 23370 0
-23367 23370 0
-297 -23367 23371 0
-23368 23372 0
-23370 23372 0
-23368 -23370 23373 0
-23369 23374 0
-23371 23374 0
-23369 -23371 23375 0
-23373 23376 0
-23374 23376 0
-23373 -23374 23377 0
-23376 0
715 716 717 0
-23378 0
-715 23379 0
-716 23379 0
-715 -716 23380 0
-717 23381 0
-23378 23381 0
-717 -23378 23382 0
-23379 23383 0
-23381 23383 0
-23379 -23381 23384 0
-23380 23385 0
-23382 23385 0
-23380 -23382 23386 0
-23384 23387 0
-23385 23387 0
-23384 -23385 23388 0
-23387 0
1135 1136 1137 0
-23389 0
-1135 23390 0
-1136 23390 0
-1135 -1136 23391 0
-1137 23392 0
-23389 23392 0
-1137 -23389 23393 0
-23390 23394 0
-23392 23394 0
-23390 -23392 23395 0
-23391 23396 0
-23393 23396 0
-23391 -23393 23397 0
-23395 23398 0
-23396 23398 0
-23395 -23396 23399 0
-23398 0
1555 1556 1557 0
-23400 0
-1555 23401 0
-1556 23401 0
-1555 -1556 23402 0
-1557 23403 0
-23400 23403 0
-1557 -23400 23404 0
-23401 23405 0
-23403 23405 0
-23401 -23403 23406 0
-23402 23407 0
-23404 23407 0
-23402 -23404 23408 0
-23406 23409 0
-23407 23409 0
-23406 -23407 23410 0
-23409 0
1975 1976 1977 0
-23411 0
-1975 23412 0
-1976 23412 0
-1975 -1976 23413 0
-1977 23414 0
-23411 23414 0
-1977 -23411 23415 0
-23412 23416 0
-23414 23416 0
-23412 -23414 23417 0
-23413 23418 0
-23415 23418 0
-23413 -23415 23419 0
-23417 23420 0
-23418 23420 0
-23417 -23418 23421 0
-23420 0
2395 2396 2397 0
-23422 0
-2395 23423 0
-2396 23423 0
-2395 -2396 23424 0
-2397 23425 0
-23422 23425 0
-2397 -23422 23426 0
-23423 23427 0
-23425 23427 0
-23423 -23425 23428 0
-23424 23429 0
-23426 23429 0
-23424 -23426 23430 0
-23428 23431 0
-23429 23431 0
-23428 -23429 23432 0
-23431 0
2815 2816 2817 0
-23433 0
-2815 23434 0
-2816 23434 0
-2815 -2816 23435 0
-2817 23436 0
-23433 23436 0
-2817 -23433 23437 0
-23434 23438 0
-23436 23438 0
-23434 -23436 23439 0
-23435 23440 0
-23437 23440 0
-23435 -23437 23441 0
-23439 23442 0
-23440 23442 0
-23439 -23440 23443 0
-23442 0
298 299 300 0
-23444 0
-298 23445 0
-299 23445 0
-298 -299 23446 0
-300 23447 0
-23444 23447 0
-300 -23444 23448 0
-23445 23449 0
-23447 23449 0
-23445 -23447 23450 0
-23446 23451 0
-23448 23451 0
-23446 -23448 23452 0
-23450 23453 0
-23451 23453 0
-23450 -23451 23454 0
-23453 0
718 719 720 0
-23455 0
-718 23456 0
-719 23456 0
-718 -719 23457 0
-720 23458 0
-23455 23458 0
-720 -23455 23459 0
-23456 23460 0
-23458 23460 0
-23456 -23458 23461 0
-23457 23462 0
-23459 23462 0
-23457 -23459 23463 0
-23461 23464 0
-23462 23464 0
-23461 -23462 23465 0
-23464 0
1138 1139 1140 0
-23466 0
-1138 23467 0
-1139 23467 0
-1138 -1139 23468 0
-1140 23469 0
-23466 23469 0
-1140 -23466 23470 0
-23467 23471 0
-23469 23471 0
-23467 -23469 23472 0
-23468 23473 0
-23470 23473 0
-23468 -23470 23474 0
-23472 23475 0
-23473 23475 0
-23472 -23473 23476 0
-23475 0
1558 1559 1560 0
-23477 0
-1558 23478 0
-1559 23478 0
-1558 -1559 23479 0
-1560 23480 0
-23477 23480 0
-1560 -23477 23481 0
-23478 23482 0
-23480 23482 0
-23478 -23480 23483 0
-23479 23484 0
-23481 23484 0
-23479 -23481 23485 0
-23483 23486 0
-23484 23486 0
-23483 -23484 23487 0
-23486 0
1978 1979 1980 0
-23488 0
-1978 23489 0
-1979 23489 0
-1978 -1979 23490 0
-1980 23491 0
-23488 23491 0
-1980 -23488 23492 0
-23489 23493 0
-23491 23493 0
-23489 -23491 23494 0
-23490 23495 0
-23492 23495 0
-23490 -23492 23496 0
-23494 23497 0
-23495 23497 0
-23494 -23495 23498 0
-23497 0
2398 2399 2400 0
-23499 0
-2398 23500 0
-2399 23500 0
-2398 -2399 23501 0
-2400 23502 0
-23499 23502 0
-2400 -23499 23503 0
-23500 23504 0
-23502 23504 0
-23500 -23502 23505 0
-23501 23506 0
-23503 23506 0
-23501 -23503 23507 0
-23505 23508 0
-23506 23508 0
-23505 -23506 23509 0
-23508 0
2818 2819 2820 0
-23510 0
-2818 23511 0
-2819 23511 0
-2818 -2819 23512 0
-2820 23513 0
-23510 23513 0
-2820 -23510 23514 0
-23511 23515 0
-23513 23515 0
-23511 -23513 23516 0
-23512 23517 0
-23514 23517 0
-23512 -23514 23518 0
-23516 23519 0
-23517 23519 0
-23516 -23517 23520 0
-23519 0
301 302 303 0
-23521 0
-301 23522 0
-302 23522 0
-301 -302 23523 0
-303 23524 0
-23521 23524 0
-303 -23521 23525 0
-23522 23526 0
-23524 23526 0
-23522 -23524 23527 0
-23523 23528 0
-23525 23528 0
-23523 -23525 23529 0
-23527 23530 0
-23528 23530 0
-23527 -23528 23531 0
-23530 0
721 722 723 0
-23532 0
-721 23533 0
-722 23533 0
-721 -722 23534 0
-723 23535 0
-23532 23535 0
-723 -23532 23536 0
-23533 23537 0
-23535 23537 0
-23533 -23535 23538 0
-23534 23539 0
-23536 23539 0
-23534 -23536 23540 0
-23538 23541 0
-23539 23541 0
-23538 -23539 23542 0
-23541 0
1141 1142 1143 0
-23543 0
-1141 23544 0
-1142 23544 0
-1141 -1142 23545 0
-1143 23546 0
-23543 23546 0
-1143 -23543 23547 0
-23544 23548 0
-23546 23548 0
-23544 -23546 23549 0
-23545 23550 0
-23547 23550 0
-23545 -23547 23551 0
-23549 23552 0
-23550 23552 0
-23549 -23550 23553 0
-23552 0
1561 1562 1563 0
-23554 0
-1561 23555 0
-1562 23555 0
-1561 -1562 23556 0
-1563 23557 0
-23554 23557 0
-1563 -23554 23558 0
-23555 23559 0
-23557 23559 0
-23555 -23557 23560 0
-23556 23561 0
-23558 23561 0
-23556 -23558 23562 0
-23560 23563 0
-23561 23563 0
-23560 -23561 23564 0
-23563 0
1981 1982 1983 0
-23565 0
-1981 23566 0
-1982 23566 0
-1981 -1982 23567 0
-1983 23568 0
-23565 23568 0
-1983 -23565 23569 0
-23566 23570 0
-23568 23570 0
-23566 -23568 23571 0
-23567 23572 0
-23569 23572 0
-23567 -23569 23573 0
-23571 23574 0
-23572 23574 0
-23571 -23572 23575 0
-23574 0
2401 2402 2403 0
-23576 0
-2401 23577 0
-2402 23577 0
-2401 -2402 23578 0
-2403 23579 0
-23576 23579 0
-2403 -23576 23580 0
-23577 23581 0
-23579 23581 0
-23577 -23579 23582 0
-23578 23583 0
-23580 23583 0
-23578 -23580 23584 0
-23582 23585 0
-23583 23585 0
-23582 -23583 23586 0
-23585 0
2821 2822 2823 0
-23587 0
-2821 23588 0
-2822 23588 0
-2821 -2822 23589 0
-2823 23590 0
-23587 23590 0
-2823 -23587 23591 0
-23588 23592 0
-23590 23592 0
-23588 -23590 23593 0
-23589 23594 0
-23591 23594 0
-23589 -23591 23595 0
-23593 23596 0
-23594 23596 0
-23593 -23594 23597 0
-23596 0
304 305 306 0
-23598 0
-304 23599 0
-305 23599 0
-304 -305 23600 0
-306 23601 0
-23598 23601 0
-306 -23598 23602 0
-23599 23603 0
-23601 23603 0
-23599 -23601 23604 0
-23600 23605 0
-23602 23605 0
-23600 -23602 23606 0
-23604 23607 0
-23605 23607 0
-23604 -23605 23608 0
-23607 0
724 725 726 0
-23609 0
-724 23610 0
-725 23610 0
-724 -725 23611 0
-726 23612 0
-23609 23612 0
-726 -23609 23613 0
-23610 23614 0
-23612 23614 0
-23610 -23612 23615 0
-23611 23616 0
-23613 23616 0
-23611 -23613 23617 0
-23615 23618 0
-23616 23618 0
-23615 -23616 23619 0
-23618 0
1144 1145 1146 0
-23620 0
-1144 23621 0
-1145 23621 0
-1144 -1145 23622 0
-1146 23623 0
-23620 23623 0
-1146 -23620 23624 0
-23621 23625 0
-23623 23625 0
-23621 -23623 23626 0
-23622 23627 0
-23624 23627 0
-23622 -23624 23628 0
-23626 23629 0
-23627 23629 0
-23626 -23627 23630 0
-23629 0
1564 1565 1566 0
-23631 0
-1564 23632 0
-1565 23632 0
-1564 -1565 23633 0
-1566 23634 0
-23631 23634 0
-1566 -23631 23635 0
-23632 23636 0
-23634 23636 0
-23632 -23634 23637 0
-23633 23638 0
-23635 23638 0
-23633 -23635 23639 0
-23637 23640 0
-23638 23640 0
-23637 -23638 23641 0
-23640 0
1984 1985 1986 0
-23642 0
-1984 23643 0
-1985 23643 0
-1984 -1985 23644 0
-1986 23645 0
-23642 23645 0
-1986 -23642 23646 0
-23643 23647 0
-23645 23647 0
-23643 -23645 23648 0
-23644 23649 0
-23646 23649 0
-23644 -23646 23650 0
-23648 23651 0
-23649 23651 0
-23648 -23649 23652 0
-23651 0
2404 2405 2406 0
-23653 0
-2404 23654 0
-2405 23654 0
-2404 -2405 23655 0
-2406 23656 0
-23653 23656 0
-2406 -23653 23657 0
-23654 23658 0
-23656 23658 0
-23654 -23656 23659 0
-23655 23660 0
-23657 23660 0
-23655 -23657 23661 0
-23659 23662 0
-23660 23662 0
-23659 -23660 23663 0
-23662 0
2824 2825 2826 0
-23664 0
-2824 23665 0
-2825 23665 0
-2824 -2825 23666 0
-2826 23667 0
-23664 23667 0
-2826 -23664 23668 0
-23665 23669 0
-23667 23669 0
-23665 -23667 23670 0
-23666 23671 0
-23668 23671 0
-23666 -23668 23672 0
-23670 23673 0
-23671 23673 0
-23670 -23671 23674 0
-23673 0
307 308 309 0
-23675 0
-307 23676 0
-308 23676 0
-307 -308 23677 0
-309 23678 0
-23675 23678 0
-309 -23675 23679 0
-23676 23680 0
-23678 23680 0
-23676 -23678 23681 0
-23677 23682 0
-23679 23682 0
-23677 -23679 23683 0
-23681 23684 0
-23682 23684 0
-23681 -23682 23685 0
-23684 0
727 728 729 0
-23686 0
-727 23687 0
-728 23687 0
-727 -728 23688 0
-729 23689 0
-23686 23689 0
-729 -23686 23690 0
-23687 23691 0
-23689 23691 0
-23687 -23689 23692 0
-23688 23693 0
-23690 23693 0
-23688 -23690 23694 0
-23692 23695 0
-23693 23695 0
-23692 -23693 23696 0
-23695 0
1147 1148 1149 0
-23697 0
-1147 23698 0
-1148 23698 0
-1147 -1148 23699 0
-1149 23700 0
-23697 23700 0
-1149 -23697 23701 0
-23698 23702 0
-23700 23702 0
-23698 -23700 23703 0
-23699 23704 0
-23701 23704 0
-23699 -23701 23705 0
-23703 23706 0
-23704 23706 0
-23703 -23704 23707 0
-23706 0
1567 1568 1569 0
-23708 0
-1567 23709 0
-1568 23709 0
-1567 -1568 23710 0
-1569 23711 0
-23708 23711 0
-1569 -23708 23712 0
-23709 23713 0
-23711 23713 0
-23709 -23711 23714 0
-23710 23715 0
-23712 23715 0
-23710 -23712 23716 0
-23714 23717 0
-23715 23717 0
-23714 -23715 23718 0
-23717 0
1987 1988 1989 0
-23719 0
-1987 23720 0
-1988 23720 0
-1987 -1988 23721 0
-1989 23722 0
-23719 23722 0
-1989 -23719 23723 0
-23720 23724 0
-23722 23724 0
-23720 -23722 23725 0
-23721 23726 0
-23723 23726 0
-23721 -23723 23727 0
-23725 23728 0
-23726 23728 0
-23725 -23726 23729 0
-23728 0
2407 2408 2409 0
-23730 0
-2407 23731 0
-2408 23731 0
-2407 -2408 23732 0
-2409 23733 0
-23730 23733 0
-2409 -23730 23734 0
-23731 23735 0
-23733 23735 0
-23731 -23733 23736 0
-23732 23737 0
-23734 23737 0
-23732 -23734 23738 0
-23736 23739 0
-23737 23739 0
-23736 -23737 23740 0
-23739 0
2827 2828 2829 0
-23741 0
-2827 23742 0
-2828 23742 0
-2827 -2828 23743 0
-2829 23744 0
-23741 23744 0
-2829 -23741 23745 0
-23742 23746 0
-23744 23746 0
-23742 -23744 23747 0
-23743 23748 0
-23745 23748 0
-23743 -23745 23749 0
-23747 23750 0
-23748 23750 0
-23747 -23748 23751 0
-23750 0
310 311 312 0
-23752 0
-310 23753 0
-311 23753 0
-310 -311 23754 0
-312 23755 0
-23752 23755 0
-312 -23752 23756 0
-23753 23757 0
-23755 23757 0
-23753 -23755 23758 0
-23754 23759 0
-23756 23759 0
-23754 -23756 23760 0
-23758 23761 0
-23759 23761 0
-23758 -23759 23762 0
-23761 0
730 731 732 0
-23763 0
-730 23764 0
-731 23764 0
-730 -731 23765 0
-732 23766 0
-23763 23766 0
-732 -23763 23767 0
-23764 23768 0
-23766 23768 0
-23764 -23766 23769 0
-23765 23770 0
-23767 23770 0
-23765 -23767 23771 0
-23769 23772 0
-23770 23772 0
-23769 -23770 23773 0
-23772 0
1150 1151 1152 0
-23774 0
-1150 23775 0
-1151 23775 0
-1150 -1151 23776 0
-1152 23777 0
-23774 23777 0
-1152 -23774 23778 0
-23775 23779 0
-23777 23779 0
-23775 -23777 23780 0
-23776 23781 0
-23778 23781 0
-23776 -23778 23782 0
-23780 23783 0
-23781 23783 0
-23780 -23781 23784 0
-23783 0
1570 1571 1572 0
-23785 0
-1570 23786 0
-1571 23786 0
-1570 -1571 23787 0
-1572 23788 0
-23785 23788 0
-1572 -23785 23789 0
-23786 23790 0
-23788 23790 0
-23786 -23788 23791 0
-23787 23792 0
-23789 23792 0
-23787 -23789 23793 0
-23791 23794 0
-23792 23794 0
-23791 -23792 23795 0
-23794 0
1990 1991 1992 0
-23796 0
-1990 23797 0
-1991 23797 0
-1990 -1991 23798 0
-1992 23799 0
-23796 23799 0
-1992 -23796 23800 0
-23797 23801 0
-23799 23801 0
-23797 -23799 23802 0
-23798 23803 0
-23800 23803 0
-23798 -23800 23804 0
-23802 23805 0
-23803 23805 0
-23802 -23803 23806 0
-23805 0
2410 2411 2412 0
-23807 0
-2410 23808 0
-2411 23808 0
-2410 -2411 23809 0
-2412 23810 0
-23807 23810 0
-2412 -23807 23811 0
-23808 23812 0
-23810 23812 0
-23808 -23810 23813 0
-23809 23814 0
-23811 23814 0
-23809 -23811 23815 0
-23813 23816 0
-23814 23816 0
-23813 -23814 23817 0
-23816 0
2830 2831 2832 0
-23818 0
-2830 23819 0
-2831 23819 0
-2830 -2831 23820 0
-2832 23821 0
-23818 23821 0
-2832 -23818 23822 0
-23819 23823 0
-23821 23823 0
-23819 -23821 23824 0
-23820 23825 0
-23822 23825 0
-23820 -23822 23826 0
-23824 23827 0
-23825 23827 0
-23824 -23825 23828 0
-23827 0
313 314 315 0
-23829 0
-313 23830 0
-314 23830 0
-313 -314 23831 0
-315 23832 0
-23829 23832 0
-315 -23829 23833 0
-23830 23834 0
-23832 23834 0
-23830 -23832 23835 0
-23831 23836 0
-23833 23836 0
-23831 -23833 23837 0
-23835 23838 0
-23836 23838 0
-23835 -23836 23839 0
-23838 0
733 734 735 0
-23840 0
-733 23841 0
-734 23841 0
-733 -734 23842 0
-735 23843 0
-23840 23843 0
-735 -23840 23844 0
-23841 23845 0
-23843 23845 0
-23841 -23843 23846 0
-23842 23847 0
-23844 23847 0
-23842 -23844 23848 0
-23846 23849 0
-23847 23849 0
-23846 -23847 23850 0
-23849 0
1153 1154 1155 0
-23851 0
-1153 23852 0
-1154 23852 0
-1153 -1154 23853 0
-1155 23854 0
-23851 23854 0
-1155 -23851 23855 0
-23852 23856 0
-23854 23856 0
-23852 -23854 23857 0
-23853 23858 0
-23855 23858 0
-23853 -23855 23859 0
-23857 23860 0
-23858 23860 0
-23857 -23858 23861 0
-23860 0
1573 1574 1575 0
-23862 0
-1573 23863 0
-1574 23863 0
-1573 -1574 23864 0
-1575 23865 0
-23862 23865 0
-1575 -23862 23866 0
-23863 23867 0
-23865 23867 0
-23863 -23865 23868 0
-23864 23869 0
-23866 23869 0
-23864 -23866 23870 0
-23868 23871 0
-23869 23871 0
-23868 -23869 23872 0
-23871 0
1993 1994 1995 0
-23873 0
-1993 23874 0
-1994 23874 0
-1993 -1994 23875 0
-1995 23876 0
-23873 23876 0
-1995 -23873 23877 0
-23874 23878 0
-23876 23878 0
-23874 -23876 23879 0
-23875 23880 0
-23877 23880 0
-23875 -23877 23881 0
-23879 23882 0
-23880 23882 0
-23879 -23880 23883 0
-23882 0
2413 2414 2415 0
-23884 0
-2413 23885 0
-2414 23885 0
-2413 -2414 23886 0
-2415 23887 0
-23884 23887 0
-2415 -23884 23888 0
-23885 23889 0
-23887 23889 0
-23885 -23887 23890 0
-23886 23891 0
-23888 23891 0
-23886 -23888 23892 0
-23890 23893 0
-23891 23893 0
-23890 -23891 23894 0
-23893 0
2833 2834 2835 0
-23895 0
-2833 23896 0
-2834 23896 0
-2833 -2834 23897 0
-2835 23898 0
-23895 23898 0
-2835 -23895 23899 0
-23896 23900 0
-23898 23900 0
-23896 -23898 23901 0
-23897 23902 0
-23899 23902 0
-23897 -23899 23903 0
-23901 23904 0
-23902 23904 0
-23901 -23902 23905 0
-23904 0
316 317 318 0
-23906 0
-316 23907 0
-317 23907 0
-316 -317 23908 0
-318 23909 0
-23906 23909 0
-318 -23906 23910 0
-23907 23911 0
-23909 23911 0
-23907 -23909 23912 0
-23908 23913 0
-23910 23913 0
-23908 -23910 23914 0
-23912 23915 0
-23913 23915 0
-23912 -23913 23916 0
-23915 0
736 737 738 0
-23917 0
-736 23918 0
-737 23918 0
-736 -737 23919 0
-738 23920 0
-23917 23920 0
-738 -23917 23921 0
-23918 23922 0
-23920 23922 0
-23918 -23920 23923 0
-23919 23924 0
-23921 23924 0
-23919 -23921 23925 0
-23923 23926 0
-23924 23926 0
-23923 -23924 23927 0
-23926 0
1156 1157 1158 0
-23928 0
-1156 23929 0
-1157 23929 0
-1156 -1157 23930 0
-1158 23931 0
-23928 23931 0
-1158 -23928 23932 0
-23929 23933 0
-23931 23933 0
-23929 -23931 23934 0
-23930 23935 0
-23932 23935 0
-23930 -23932 23936 0
-23934 23937 0
-23935 23937 0
-23934 -23935 23938 0
-23937 0
1576 1577 1578 0
-23939 0
-1576 23940 0
-1577 23940 0
-1576 -1577 23941 0
-1578 23942 0
-23939 23942 0
-1578 -23939 23943 0
-23940 23944 0
-23942 23944 0
-23940 -23942 23945 0
-23941 23946 0
-23943 23946 0
-23941 -23943 23947 0
-23945 23948 0
-23946 23948 0
-23945 -23946 23949 0
-23948 0
1996 1997 1998 0
-23950 0
-1996 23951 0
-1997 23951 0
-1996 -1997 23952 0
-1998 23953 0
-23950 23953 0
-1998 -23950 23954 0
-23951 23955 0
-23953 23955 0
-23951 -23953 23956 0
-23952 23957 0
-23954 23957 0
-23952 -23954 23958 0
-23956 23959 0
-23957 23959 0
-23956 -23957 23960 0
-23959 0
2416 2417 2418 0
-23961 0
-2416 23962 0
-2417 23962 0
-2416 -2417 23963 0
-2418 23964 0
-23961 23964 0
-2418 -23961 23965 0
-23962 23966 0
-23964 23966 0
-23962 -23964 23967 0
-23963 23968 0
-23965 23968 0
-23963 -23965 23969 0
-23967 23970 0
-23968 23970 0
-23967 -23968 23971 0
-23970 0
2836 2837 2838 0
-23972 0
-2836 23973 0
-2837 23973 0
-2836 -2837 23974 0
-2838 23975 0
-23972 23975 0
-2838 -23972 23976 0
-23973 23977 0
-23975 23977 0
-23973 -23975 23978 0
-23974 23979 0
-23976 23979 0
-23974 -23976 23980 0
-23978 23981 0
-23979 23981 0
-23978 -23979 23982 0
-23981 0
319 320 321 0
-23983 0
-319 23984 0
-320 23984 0
-319 -320 23985 0
-321 23986 0
-23983 23986 0
-321 -23983 23987 0
-23984 23988 0
-23986 23988 0
-23984 -23986 23989 0
-23985 23990 0
-23987 23990 0
-23985 -23987 23991 0
-23989 23992 0
-23990 23992 0
-23989 -23990 23993 0
-23992 0
739 740 741 0
-23994 0
-739 23995 0
-740 23995 0
-739 -740 23996 0
-741 23997 0
-23994 23997 0
-741 -23994 23998 0
-23995 23999 0
-23997 23999 0
-23995 -23997 24000 0
-23996 24001 0
-23998 24001 0
-23996 -23998 24002 0
-24000 24003 0
-24001 24003 0
-24000 -24001 24004 0
-24003 0
1159 1160 1161 0
-24005 0
-1159 24006 0
-1160 24006 0
-1159 -1160 24007 0
-1161 24008 0
-24005 24008 0
-1161 -24005 24009 0
-24006 24010 0
-24008 24010 0
-24006 -24008 24011 0
-24007 24012 0
-24009 24012 0
-24007 -24009 24013 0
-24011 24014 0
-24012 24014 0
-24011 -24012 24015 0
-24014 0
1579 1580 1581 0
-24016 0
-1579 24017 0
-1580 24017 0
-1579 -1580 24018 0
-1581 24019 0
-24016 24019 0
-1581 -24016 24020 0
-24017 24021 0
-24019 24021 0
-24017 -24019 24022 0
-24018 24023 0
-24020 24023 0
-24018 -24020 24024 0
-24022 24025 0
-24023 24025 0
-24022 -24023 24026 0
-24025 0
1999 2000 2001 0
-24027 0
-1999 24028 0
-2000 24028 0
-1999 -2000 24029 0
-2001 24030 0
-24027 24030 0
-2001 -24027 24031 0
-24028 24032 0
-24030 24032 0
-24028 -24030 24033 0
-24029 24034 0
-24031 24034 0
-24029 -24031 24035 0
-24033 24036 0
-24034 24036 0
-24033 -24034 24037 0
-24036 0
2419 2420 2421 0
-24038 0
-2419 24039 0
-2420 24039 0
-2419 -2420 24040 0
-2421 24041 0
-24038 24041 0
-2421 -24038 24042 0
-24039 24043 0
-24041 24043 0
-24039 -24041 24044 0
-24040 24045 0
-24042 24045 0
-24040 -24042 24046 0
-24044 24047 0
-24045 24047 0
-24044 -24045 24048 0
-24047 0
2839 2840 2841 0
-24049 0
-2839 24050 0
-2840 24050 0
-2839 -2840 24051 0
-2841 24052 0
-24049 24052 0
-2841 -24049 24053 0
-24050 24054 0
-24052 24054 0
-24050 -24052 24055 0
-24051 24056 0
-24053 24056 0
-24051 -24053 24057 0
-24055 24058 0
-24056 24058 0
-24055 -24056 24059 0
-24058 0
322 323 324 0
-24060 0
-322 24061 0
-323 24061 0
-322 -323 24062 0
-324 24063 0
-24060 24063 0
-324 -24060 24064 0
-24061 24065 0
-24063 24065 0
-24061 -24063 24066 0
-24062 24067 0
-24064 24067 0
-24062 -24064 24068 0
-24066 24069 0
-24067 24069 0
-24066 -24067 24070 0
-24069 0
742 743 744 0
-24071 0
-742 24072 0
-743 24072 0
-742 -743 24073 0
-744 24074 0
-24071 24074 0
-744 -24071 24075 0
-24072 24076 0
-24074 24076 0
-24072 -24074 24077 0
-24073 24078 0
-24075 24078 0
-24073 -24075 24079 0
-24077 24080 0
-24078 24080 0
-24077 -24078 24081 0
-24080 0
1162 1163 1164 0
-24082 0
-1162 24083 0
-1163 24083 0
-1162 -1163 24084 0
-1164 24085 0
-24082 24085 0
-1164 -24082 24086 0
-24083 24087 0
-24085 24087 0
-24083 -24085 24088 0
-24084 24089 0
-24086 24089 0
-24084 -24086 24090 0
-24088 24091 0
-24089 24091 0
-24088 -24089 24092 0
-24091 0
1582 1583 1584 0
-24093 0
-1582 24094 0
-1583 24094 0
-1582 -1583 24095 0
-1584 24096 0
-24093 24096 0
-1584 -24093 24097 0
-24094 24098 0
-24096 24098 0
-24094 -24096 24099 0
-24095 24100 0
-24097 24100 0
-24095 -24097 24101 0
-24099 24102 0
-24100 24102 0
-24099 -24100 24103 0
-24102 0
2002 2003 2004 0
-24104 0
-2002 24105 0
-2003 24105 0
-2002 -2003 24106 0
-2004 24107 0
-24104 24107 0
-2004 -24104 24108 0
-24105 24109 0
-24107 24109 0
-24105 -24107 24110 0
-24106 24111 0
-24108 24111 0
-24106 -24108 24112 0
-24110 24113 0
-24111 24113 0
-24110 -24111 24114 0
-24113 0
2422 2423 2424 0
-24115 0
-2422 24116 0
-2423 24116 0
-2422 -2423 24117 0
-2424 24118 0
-24115 24118 0
-2424 -24115 24119 0
-24116 24120 0
-24118 24120 0
-24116 -24118 24121 0
-24117 24122 0
-24119 24122 0
-24117 -24119 24123 0
-24121 24124 0
-24122 24124 0
-24121 -24122 24125 0
-24124 0
2842 2843 2844 0
-24126 0
-2842 24127 0
-2843 24127 0
-2842 -2843 24128 0
-2844 24129 0
-24126 24129 0
-2844 -24126 24130 0
-24127 24131 0
-24129 24131 0
-24127 -24129 24132 0
-24128 24133 0
-24130 24133 0
-24128 -24130 24134 0
-24132 24135 0
-24133 24135 0
-24132 -24133 24136 0
-24135 0
325 326 327 0
-24137 0
-325 24138 0
-326 24138 0
-325 -326 24139 0
-327 24140 0
-24137 24140 0
-327 -24137 24141 0
-24138 24142 0
-24140 24142 0
-24138 -24140 24143 0
-24139 24144 0
-24141 24144 0
-24139 -24141 24145 0
-24143 24146 0
-24144 24146 0
-24143 -24144 24147 0
-24146 0
745 746 747 0
-24148 0
-745 24149 0
-746 24149 0
-745 -746 24150 0
-747 24151 0
-24148 24151 0
-747 -24148 24152 0
-24149 24153 0
-24151 24153 0
-24149 -24151 24154 0
-24150 24155 0
-24152 24155 0
-24150 -24152 24156 0
-24154 24157 0
-24155 24157 0
-24154 -24155 24158 0
-24157 0
1165 1166 1167 0
-24159 0
-1165 24160 0
-1166 24160 0
-1165 -1166 24161 0
-1167 24162 0
-24159 24162 0
-1167 -24159 24163 0
-24160 24164 0
-24162 24164 0
-24160 -24162 24165 0
-24161 24166 0
-24163 24166 0
-24161 -24163 24167 0
-24165 24168 0
-24166 24168 0
-24165 -24166 24169 0
-24168 0
1585 1586 1587 0
-24170 0
-1585 24171 0
-1586 24171 0
-1585 -1586 24172 0
-1587 24173 0
-24170 24173 0
-1587 -24170 24174 0
-24171 24175 0
-24173 24175 0
-24171 -24173 24176 0
-24172 24177 0
-24174 24177 0
-24172 -24174 24178 0
-24176 24179 0
-24177 24179 0
-24176 -24177 24180 0
-24179 0
2005 2006 2007 0
-24181 0
-2005 24182 0
-2006 24182 0
-2005 -2006 24183 0
-2007 24184 0
-24181 24184 0
-2007 -24181 24185 0
-24182 24186 0
-24184 24186 0
-24182 -24184 24187 0
-24183 24188 0
-24185 24188 0
-24183 -24185 24189 0
-24187 24190 0
-24188 24190 0
-24187 -24188 24191 0
-24190 0
2425 2426 2427 0
-24192 0
-2425 24193 0
-2426 24193 0
-2425 -2426 24194 0
-2427 24195 0
-24192 24195 0
-2427 -24192 24196 0
-24193 24197 0
-24195 24197 0
-24193 -24195 24198 0
-24194 24199 0
-24196 24199 0
-24194 -24196 24200 0
-24198 24201 0
-24199 24201 0
-24198 -24199 24202 0
-24201 0
2845 2846 2847 0
-24203 0
-2845 24204 0
-2846 24204 0
-2845 -2846 24205 0
-2847 24206 0
-24203 24206 0
-2847 -24203 24207 0
-24204 24208 0
-24206 24208 0
-24204 -24206 24209 0
-24205 24210 0
-24207 24210 0
-24205 -24207 24211 0
-24209 24212 0
-24210 24212 0
-24209 -24210 24213 0
-24212 0
328 329 330 0
-24214 0
-328 24215 0
-329 24215 0
-328 -329 24216 0
-330 24217 0
-24214 24217 0
-330 -24214 24218 0
-24215 24219 0
-24217 24219 0
-24215 -24217 24220 0
-24216 24221 0
-24218 24221 0
-24216 -24218 24222 0
-24220 24223 0
-24221 24223 0
-24220 -24221 24224 0
-24223 0
748 749 750 0
-24225 0
-748 24226 0
-749 24226 0
-748 -749 24227 0
-750 24228 0
-24225 24228 0
-750 -24225 24229 0
-24226 24230 0
-24228 24230 0
-24226 -24228 24231 0
-24227 24232 0
-24229 24232 0
-24227 -24229 24233 0
-24231 24234 0
-24232 24234 0
-24231 -24232 24235 0
-24234 0
1168 1169 1170 0
-24236 0
-1168 24237 0
-1169 24237 0
-1168 -1169 24238 0
-1170 24239 0
-24236 24239 0
-1170 -24236 24240 0
-24237 24241 0
-24239 24241 0
-24237 -24239 24242 0
-24238 24243 0
-24240 24243 0
-24238 -24240 24244 0
-24242 24245 0
-24243 24245 0
-24242 -24243 24246 0
-24245 0
1588 1589 1590 0
-24247 0
-1588 24248 0
-1589 24248 0
-1588 -1589 24249 0
-1590 24250 0
-24247 24250 0
-1590 -24247 24251 0
-24248 24252 0
-24250 24252 0
-24248 -24250 24253 0
-24249 24254 0
-24251 24254 0
-24249 -24251 24255 0
-24253 24256 0
-24254 24256 0
-24253 -24254 24257 0
-24256 0
2008 2009 2010 0
-24258 0
-2008 24259 0
-2009 24259 0
-2008 -2009 24260 0
-2010 24261 0
-24258 24261 0
-2010 -24258 24262 0
-24259 24263 0
-24261 24263 0
-24259 -24261 24264 0
-24260 24265 0
-24262 24265 0
-24260 -24262 24266 0
-24264 24267 0
-24265 24267 0
-24264 -24265 24268 0
-24267 0
2428 2429 2430 0
-24269 0
-2428 24270 0
-2429 24270 0
-2428 -2429 24271 0
-2430 24272 0
-24269 24272 0
-2430 -24269 24273 0
-24270 24274 0
-24272 24274 0
-24270 -24272 24275 0
-24271 24276 0
-24273 24276 0
-24271 -24273 24277 0
-24275 24278 0
-24276 24278 0
-24275 -24276 24279 0
-24278 0
2848 2849 2850 0
-24280 0
-2848 24281 0
-2849 24281 0
-2848 -2849 24282 0
-2850 24283 0
-24280 24283 0
-2850 -24280 24284 0
-24281 24285 0
-24283 24285 0
-24281 -24283 24286 0
-24282 24287 0
-24284 24287 0
-24282 -24284 24288 0
-24286 24289 0
-24287 24289 0
-24286 -24287 24290 0
-24289 0
331 332 333 0
-24291 0
-331 24292 0
-332 24292 0
-331 -332 24293 0
-333 24294 0
-24291 24294 0
-333 -24291 24295 0
-24292 24296 0
-24294 24296 0
-24292 -24294 24297 0
-24293 24298 0
-24295 24298 0
-24293 -24295 24299 0
-24297 24300 0
-24298 24300 0
-24297 -24298 24301 0
-24300 0
751 752 753 0
-24302 0
-751 24303 0
-752 24303 0
-751 -752 24304 0
-753 24305 0
-24302 24305 0
-753 -24302 24306 0
-24303 24307 0
-24305 24307 0
-24303 -24305 24308 0
-24304 24309 0
-24306 24309 0
-24304 -24306 24310 0
-24308 24311 0
-24309 24311 0
-24308 -24309 24312 0
-24311 0
1171 1172 1173 0
-24313 0
-1171 24314 0
-1172 24314 0
-1171 -1172 24315 0
-1173 24316 0
-24313 24316 0
-1173 -24313 24317 0
-24314 24318 0
-24316 24318 0
-24314 -24316 24319 0
-24315 24320 0
-24317 24320 0
-24315 -24317 24321 0
-24319 24322 0
-24320 24322 0
-24319 -24320 24323 0
-24322 0
1591 1592 1593 0
-24324 0
-1591 24325 0
-1592 24325 0
-1591 -1592 24326 0
-1593 24327 0
-24324 24327 0
-1593 -24324 24328 0
-24325 24329 0
-24327 24329 0
-24325 -24327 24330 0
-24326 24331 0
-24328 24331 0
-24326 -24328 24332 0
-24330 24333 0
-24331 24333 0
-24330 -24331 24334 0
-24333 0
2011 2012 2013 0
-24335 0
-2011 24336 0
-2012 24336 0
-2011 -2012 24337 0
-2013 24338 0
-24335 24338 0
-2013 -24335 24339 0
-24336 24340 0
-24338 24340 0
-24336 -24338 24341 0
-24337 24342 0
-24339 24342 0
-24337 -24339 24343 0
-24341 24344 0
-24342 24344 0
-24341 -24342 24345 0
-24344 0
2431 2432 2433 0
-24346 0
-2431 24347 0
-2432 24347 0
-2431 -2432 24348 0
-2433 24349 0
-24346 24349 0
-2433 -24346 24350 0
-24347 24351 0
-24349 24351 0
-24347 -24349 24352 0
-24348 24353 0
-24350 24353 0
-24348 -24350 24354 0
-24352 24355 0
-24353 24355 0
-24352 -24353 24356 0
-24355 0
2851 2852 2853 0
-24357 0
-2851 24358 0
-2852 24358 0
-2851 -2852 24359 0
-2853 24360 0
-24357 24360 0
-2853 -24357 24361 0
-24358 24362 0
-24360 24362 0
-24358 -24360 24363 0
-24359 24364 0
-24361 24364 0
-24359 -24361 24365 0
-24363 24366 0
-24364 24366 0
-24363 -24364 24367 0
-24366 0
334 335 336 0
-24368 0
-334 24369 0
-335 24369 0
-334 -335 24370 0
-336 24371 0
-24368 24371 0
-336 -24368 24372 0
-24369 24373 0
-24371 24373 0
-24369 -24371 24374 0
-24370 24375 0
-24372 24375 0
-24370 -24372 24376 0
-24374 24377 0
-24375 24377 0
-24374 -24375 24378 0
-24377 0
754 755 756 0
-24379 0
-754 24380 0
-755 24380 0
-754 -755 24381 0
-756 24382 0
-24379 24382 0
-756 -24379 24383 0
-24380 24384 0
-24382 24384 0
-24380 -24382 24385 0
-24381 24386 0
-24383 24386 0
-24381 -24383 24387 0
-24385 24388 0
-24386 24388 0
-24385 -24386 24389 0
-24388 0
1174 1175 1176 0
-24390 0
-1174 24391 0
-1175 24391 0
-1174 -1175 24392 0
-1176 24393 0
-24390 24393 0
-1176 -24390 24394 0
-24391 24395 0
-24393 24395 0
-24391 -24393 24396 0
-24392 24397 0
-24394 24397 0
-24392 -24394 24398 0
-24396 24399 0
-24397 24399 0
-24396 -24397 24400 0
-24399 0
1594 1595 1596 0
-24401 0
-1594 24402 0
-1595 24402 0
-1594 -1595 24403 0
-1596 24404 0
-24401 24404 0
-1596 -24401 24405 0
-24402 24406 0
-24404 24406 0
-24402 -24404 24407 0
-24403 24408 0
-24405 24408 0
-24403 -24405 24409 0
-24407 24410 0
-24408 24410 0
-24407 -24408 24411 0
-24410 0
2014 2015 2016 0
-24412 0
-2014 24413 0
-2015 24413 0
-2014 -2015 24414 0
-2016 24415 0
-24412 24415 0
-2016 -24412 24416 0
-24413 24417 0
-24415 24417 0
-24413 -24415 24418 0
-24414 24419 0
-24416 24419 0
-24414 -24416 24420 0
-24418 24421 0
-24419 24421 0
-24418 -24419 24422 0
-24421 0
2434 2435 2436 0
-24423 0
-2434 24424 0
-2435 24424 0
-2434 -2435 24425 0
-2436 24426 0
-24423 24426 0
-2436 -24423 24427 0
-24424 24428 0
-24426 24428 0
-24424 -24426 24429 0
-24425 24430 0
-24427 24430 0
-24425 -24427 24431 0
-24429 24432 0
-24430 24432 0
-24429 -24430 24433 0
-24432 0
2854 2855 2856 0
-24434 0
-2854 24435 0
-2855 24435 0
-2854 -2855 24436 0
-2856 24437 0
-24434 24437 0
-2856 -24434 24438 0
-24435 24439 0
-24437 24439 0
-24435 -24437 24440 0
-24436 24441 0
-24438 24441 0
-24436 -24438 24442 0
-24440 24443 0
-24441 24443 0
-24440 -24441 24444 0
-24443 0
337 338 339 0
-24445 0
-337 24446 0
-338 24446 0
-337 -338 24447 0
-339 24448 0
-24445 24448 0
-339 -24445 24449 0
-24446 24450 0
-24448 24450 0
-24446 -24448 24451 0
-24447 24452 0
-24449 24452 0
-24447 -24449 24453 0
-24451 24454 0
-24452 24454 0
-24451 -24452 24455 0
-24454 0
757 758 759 0
-24456 0
-757 24457 0
-758 24457 0
-757 -758 24458 0
-759 24459 0
-24456 24459 0
-759 -24456 24460 0
-24457 24461 0
-24459 24461 0
-24457 -24459 24462 0
-24458 24463 0
-24460 24463 0
-24458 -24460 24464 0
-24462 24465 0
-24463 24465 0
-24462 -24463 24466 0
-24465 0
1177 1178 1179 0
-24467 0
-1177 24468 0
-1178 24468 0
-1177 -1178 24469 0
-1179 24470 0
-24467 24470 0
-1179 -24467 24471 0
-24468 24472 0
-24470 24472 0
-24468 -24470 24473 0
-24469 24474 0
-24471 24474 0
-24469 -24471 24475 0
-24473 24476 0
-24474 24476 0
-24473 -24474 24477 0
-24476 0
1597 1598 1599 0
-24478 0
-1597 24479 0
-1598 24479 0
-1597 -1598 24480 0
-1599 24481 0
-24478 24481 0
-1599 -24478 24482 0
-24479 24483 0
-24481 24483 0
-24479 -24481 24484 0
-24480 24485 0
-24482 24485 0
-24480 -24482 24486 0
-24484 24487 0
-24485 24487 0
-24484 -24485 24488 0
-24487 0
2017 2018 2019 0
-24489 0
-2017 24490 0
-2018 24490 0
-2017 -2018 24491 0
-2019 24492 0
-24489 24492 0
-2019 -24489 24493 0
-24490 24494 0
-24492 24494 0
-24490 -24492 24495 0
-24491 24496 0
-24493 24496 0
-24491 -24493 24497 0
-24495 24498 0
-24496 24498 0
-24495 -24496 24499 0
-24498 0
2437 2438 2439 0
-24500 0
-2437 24501 0
-2438 24501 0
-2437 -2438 24502 0
-2439 24503 0
-24500 24503 0
-2439 -24500 24504 0
-24501 24505 0
-24503 24505 0
-24501 -24503 24506 0
-24502 24507 0
-24504 24507 0
-24502 -24504 24508 0
-24506 24509 0
-24507 24509 0
-24506 -24507 24510 0
-24509 0
2857 2858 2859 0
-24511 0
-2857 24512 0
-2858 24512 0
-2857 -2858 24513 0
-2859 24514 0
-24511 24514 0
-2859 -24511 24515 0
-24512 24516 0
-24514 24516 0
-24512 -24514 24517 0
-24513 24518 0
-24515 24518 0
-24513 -24515 24519 0
-24517 24520 0
-24518 24520 0
-24517 -24518 24521 0
-24520 0
340 341 342 0
-24522 0
-340 24523 0
-341 24523 0
-340 -341 24524 0
-342 24525 0
-24522 24525 0
-342 -24522 24526 0
-24523 24527 0
-24525 24527 0
-24523 -24525 24528 0
-24524 24529 0
-24526 24529 0
-24524 -24526 24530 0
-24528 24531 0
-24529 24531 0
-24528 -24529 24532 0
-24531 0
760 761 762 0
-24533 0
-760 24534 0
-761 24534 0
-760 -761 24535 0
-762 24536 0
-24533 24536 0
-762 -24533 24537 0
-24534 24538 0
-24536 24538 0
-24534 -24536 24539 0
-24535 24540 0
-24537 24540 0
-24535 -24537 24541 0
-24539 24542 0
-24540 24542 0
-24539 -24540 24543 0
-24542 0
1180 1181 1182 0
-24544 0
-1180 24545 0
-1181 24545 0
-1180 -1181 24546 0
-1182 24547 0
-24544 24547 0
-1182 -24544 24548 0
-24545 24549 0
-24547 24549 0
-24545 -24547 24550 0
-24546 24551 0
-24548 24551 0
-24546 -24548 24552 0
-24550 24553 0
-24551 24553 0
-24550 -24551 24554 0
-24553 0
1600 1601 1602 0
-24555 0
-1600 24556 0
-1601 24556 0
-1600 -1601 24557 0
-1602 24558 0
-24555 24558 0
-1602 -24555 24559 0
-24556 24560 0
-24558 24560 0
-24556 -24558 24561 0
-24557 24562 0
-24559 24562 0
-24557 -24559 24563 0
-24561 24564 0
-24562 24564 0
-24561 -24562 24565 0
-24564 0
2020 2021 2022 0
-24566 0
-2020 24567 0
-2021 24567 0
-2020 -2021 24568 0
-2022 24569 0
-24566 24569 0
-2022 -24566 24570 0
-24567 24571 0
-24569 24571 0
-24567 -24569 24572 0
-24568 24573 0
-24570 24573 0
-24568 -24570 24574 0
-24572 24575 0
-24573 24575 0
-24572 -24573 24576 0
-24575 0
2440 2441 2442 0
-24577 0
-2440 24578 0
-2441 24578 0
-2440 -2441 24579 0
-2442 24580 0
-24577 24580 0
-2442 -24577 24581 0
-24578 24582 0
-24580 24582 0
-24578 -24580 24583 0
-24579 24584 0
-24581 24584 0
-24579 -24581 24585 0
-24583 24586 0
-24584 24586 0
-24583 -24584 24587 0
-24586 0
2860 2861 2862 0
-24588 0
-2860 24589 0
-2861 24589 0
-2860 -2861 24590 0
-2862 24591 0
-24588 24591 0
-2862 -24588 24592 0
-24589 24593 0
-24591 24593 0
-24589 -24591 24594 0
-24590 24595 0
-24592 24595 0
-24590 -24592 24596 0
-24594 24597 0
-24595 24597 0
-24594 -24595 24598 0
-24597 0
343 344 345 0
-24599 0
-343 24600 0
-344 24600 0
-343 -344 24601 0
-345 24602 0
-24599 24602 0
-345 -24599 24603 0
-24600 24604 0
-24602 24604 0
-24600 -24602 24605 0
-24601 24606 0
-24603 24606 0
-24601 -24603 24607 0
-24605 24608 0
-24606 24608 0
-24605 -24606 24609 0
-24608 0
763 764 765 0
-24610 0
-763 24611 0
-764 24611 0
-763 -764 24612 0
-765 24613 0
-24610 24613 0
-765 -24610 24614 0
-24611 24615 0
-24613 24615 0
-24611 -24613 24616 0
-24612 24617 0
-24614 24617 0
-24612 -24614 24618 0
-24616 24619 0
-24617 24619 0
-24616 -24617 24620 0
-24619 0
1183 1184 1185 0
-24621 0
-1183 24622 0
-1184 24622 0
-1183 -1184 24623 0
-1185 24624 0
-24621 24624 0
-1185 -24621 24625 0
-24622 24626 0
-24624 24626 0
-24622 -24624 24627 0
-24623 24628 0
-24625 24628 0
-24623 -24625 24629 0
-24627 24630 0
-24628 24630 0
-24627 -24628 24631 0
-24630 0
1603 1604 1605 0
-24632 0
-1603 24633 0
-1604 24633 0
-1603 -1604 24634 0
-1605 24635 0
-24632 24635 0
-1605 -24632 24636 0
-24633 24637 0
-24635 24637 0
-24633 -24635 24638 0
-24634 24639 0
-24636 24639 0
-24634 -24636 24640 0
-24638 24641 0
-24639 24641 0
-24638 -24639 24642 0
-24641 0
2023 2024 2025 0
-24643 0
-2023 24644 0
-2024 24644 0
-2023 -2024 24645 0
-2025 24646 0
-24643 24646 0
-2025 -24643 24647 0
-24644 24648 0
-24646 24648 0
-24644 -24646 24649 0
-24645 24650 0
-24647 24650 0
-24645 -24647 24651 0
-24649 24652 0
-24650 24652 0
-24649 -24650 24653 0
-24652 0
2443 2444 2445 0
-24654 0
-2443 24655 0
-2444 24655 0
-2443 -2444 24656 0
-2445 24657 0
-24654 24657 0
-2445 -24654 24658 0
-24655 24659 0
-24657 24659 0
-24655 -24657 24660 0
-24656 24661 0
-24658 24661 0
-24656 -24658 24662 0
-24660 24663 0
-24661 24663 0
-24660 -24661 24664 0
-24663 0
2863 2864 2865 0
-24665 0
-2863 24666 0
-2864 24666 0
-2863 -2864 24667 0
-2865 24668 0
-24665 24668 0
-2865 -24665 24669 0
-24666 24670 0
-24668 24670 0
-24666 -24668 24671 0
-24667 24672 0
-24669 24672 0
-24667 -24669 24673 0
-24671 24674 0
-24672 24674 0
-24671 -24672 24675 0
-24674 0
346 347 348 0
-24676 0
-346 24677 0
-347 24677 0
-346 -347 24678 0
-348 24679 0
-24676 24679 0
-348 -24676 24680 0
-24677 24681 0
-24679 24681 0
-24677 -24679 24682 0
-24678 24683 0
-24680 24683 0
-24678 -24680 24684 0
-24682 24685 0
-24683 24685 0
-24682 -24683 24686 0
-24685 0
766 767 768 0
-24687 0
-766 24688 0
-767 24688 0
-766 -767 24689 0
-768 24690 0
-24687 24690 0
-768 -24687 24691 0
-24688 24692 0
-24690 24692 0
-24688 -24690 24693 0
-24689 24694 0
-24691 24694 0
-24689 -24691 24695 0
-24693 24696 0
-24694 24696 0
-24693 -24694 24697 0
-24696 0
1186 1187 1188 0
-24698 0
-1186 24699 0
-1187 24699 0
-1186 -1187 24700 0
-1188 24701 0
-24698 24701 0
-1188 -24698 24702 0
-24699 24703 0
-24701 24703 0
-24699 -24701 24704 0
-24700 24705 0
-24702 24705 0
-24700 -24702 24706 0
-24704 24707 0
-24705 24707 0
-24704 -24705 24708 0
-24707 0
1606 1607 1608 0
-24709 0
-1606 24710 0
-1607 24710 0
-1606 -1607 24711 0
-1608 24712 0
-24709 24712 0
-1608 -24709 24713 0
-24710 24714 0
-24712 24714 0
-24710 -24712 24715 0
-24711 24716 0
-24713 24716 0
-24711 -24713 24717 0
-24715 24718 0
-24716 24718 0
-24715 -24716 24719 0
-24718 0
2026 2027 2028 0
-24720 0
-2026 24721 0
-2027 24721 0
-2026 -2027 24722 0
-2028 24723 0
-24720 24723 0
-2028 -24720 24724 0
-24721 24725 0
-24723 24725 0
-24721 -24723 24726 0
-24722 24727 0
-24724 24727 0
-24722 -24724 24728 0
-24726 24729 0
-24727 24729 0
-24726 -24727 24730 0
-24729 0
2446 2447 2448 0
-24731 0
-2446 24732 0
-2447 24732 0
-2446 -2447 24733 0
-2448 24734 0
-24731 24734 0
-2448 -24731 24735 0
-24732 24736 0
-24734 24736 0
-24732 -24734 24737 0
-24733 24738 0
-24735 24738 0
-24733 -24735 24739 0
-24737 24740 0
-24738 24740 0
-24737 -24738 24741 0
-24740 0
2866 2867 2868 0
-24742 0
-2866 24743 0
-2867 24743 0
-2866 -2867 24744 0
-2868 24745 0
-24742 24745 0
-2868 -24742 24746 0
-24743 24747 0
-24745 24747 0
-24743 -24745 24748 0
-24744 24749 0
-24746 24749 0
-24744 -24746 24750 0
-24748 24751 0
-24749 24751 0
-24748 -24749 24752 0
-24751 0
349 350 351 0
-24753 0
-349 24754 0
-350 24754 0
-349 -350 24755 0
-351 24756 0
-24753 24756 0
-351 -24753 24757 0
-24754 24758 0
-24756 24758 0
-24754 -24756 24759 0
-24755 24760 0
-24757 24760 0
-24755 -24757 24761 0
-24759 24762 0
-24760 24762 0
-24759 -24760 24763 0
-24762 0
769 770 771 0
-24764 0
-769 24765 0
-770 24765 0
-769 -770 24766 0
-771 24767 0
-24764 24767 0
-771 -24764 24768 0
-24765 24769 0
-24767 24769 0
-24765 -24767 24770 0
-24766 24771 0
-24768 24771 0
-24766 -24768 24772 0
-24770 24773 0
-24771 24773 0
-24770 -24771 24774 0
-24773 0
1189 1190 1191 0
-24775 0
-1189 24776 0
-1190 24776 0
-1189 -1190 24777 0
-1191 24778 0
-24775 24778 0
-1191 -24775 24779 0
-24776 24780 0
-24778 24780 0
-24776 -24778 24781 0
-24777 24782 0
-24779 24782 0
-24777 -24779 24783 0
-24781 24784 0
-24782 24784 0
-24781 -24782 24785 0
-24784 0
1609 1610 1611 0
-24786 0
-1609 24787 0
-1610 24787 0
-1609 -1610 24788 0
-1611 24789 0
-24786 24789 0
-1611 -24786 24790 0
-24787 24791 0
-24789 24791 0
-24787 -24789 24792 0
-24788 24793 0
-24790 24793 0
-24788 -24790 24794 0
-24792 24795 0
-24793 24795 0
-24792 -24793 24796 0
-24795 0
2029 2030 2031 0
-24797 0
-2029 24798 0
-2030 24798 0
-2029 -2030 24799 0
-2031 24800 0
-24797 24800 0
-2031 -24797 24801 0
-24798 24802 0
-24800 24802 0
-24798 -24800 24803 0
-24799 24804 0
-24801 24804 0
-24799 -24801 24805 0
-24803 24806 0
-24804 24806 0
-24803 -24804 24807 0
-24806 0
2449 2450 2451 0
-24808 0
-2449 24809 0
-2450 24809 0
-2449 -2450 24810 0
-2451 24811 0
-24808 24811 0
-2451 -24808 24812 0
-24809 24813 0
-24811 24813 0
-24809 -24811 24814 0
-24810 24815 0
-24812 24815 0
-24810 -24812 24816 0
-24814 24817 0
-24815 24817 0
-24814 -24815 24818 0
-24817 0
2869 2870 2871 0
-24819 0
-2869 24820 0
-2870 24820 0
-2869 -2870 24821 0
-2871 24822 0
-24819 24822 0
-2871 -24819 24823 0
-24820 24824 0
-24822 24824 0
-24820 -24822 24825 0
-24821 24826 0
-24823 24826 0
-24821 -24823 24827 0
-24825 24828 0
-24826 24828 0
-24825 -24826 24829 0
-24828 0
352 353 354 0
-24830 0
-352 24831 0
-353 24831 0
-352 -353 24832 0
-354 24833 0
-24830 24833 0
-354 -24830 24834 0
-24831 24835 0
-24833 24835 0
-24831 -24833 24836 0
-24832 24837 0
-24834 24837 0
-24832 -24834 24838 0
-24836 24839 0
-24837 24839 0
-24836 -24837 24840 0
-24839 0
772 773 774 0
-24841 0
-772 24842 0
-773 24842 0
-772 -773 24843 0
-774 24844 0
-24841 24844 0
-774 -24841 24845 0
-24842 24846 0
-24844 24846 0
-24842 -24844 24847 0
-24843 24848 0
-24845 24848 0
-24843 -24845 24849 0
-24847 24850 0
-24848 24850 0
-24847 -24848 24851 0
-24850 0
1192 1193 1194 0
-24852 0
-1192 24853 0
-1193 24853 0
-1192 -1193 24854 0
-1194 24855 0
-24852 24855 0
-1194 -24852 24856 0
-24853 24857 0
-24855 24857 0
-24853 -24855 24858 0
-24854 24859 0
-24856 24859 0
-24854 -24856 24860 0
-24858 24861 0
-24859 24861 0
-24858 -24859 24862 0
-24861 0
1612 1613 1614 0
-24863 0
-1612 24864 0
-1613 24864 0
-1612 -1613 24865 0
-1614 24866 0
-24863 24866 0
-1614 -24863 24867 0
-24864 24868 0
-24866 24868 0
-24864 -24866 24869 0
-24865 24870 0
-24867 24870 0
-24865 -24867 24871 0
-24869 24872 0
-24870 24872 0
-24869 -24870 24873 0
-24872 0
2032 2033 2034 0
-24874 0
-2032 24875 0
-2033 24875 0
-2032 -2033 24876 0
-2034 24877 0
-24874 24877 0
-2034 -24874 24878 0
-24875 24879 0
-24877 24879 0
-24875 -24877 24880 0
-24876 24881 0
-24878 24881 0
-24876 -24878 24882 0
-24880 24883 0
-24881 24883 0
-24880 -24881 24884 0
-24883 0
2452 2453 2454 0
-24885 0
-2452 24886 0
-2453 24886 0
-2452 -2453 24887 0
-2454 24888 0
-24885 24888 0
-2454 -24885 24889 0
-24886 24890 0
-24888 24890 0
-24886 -24888 24891 0
-24887 24892 0
-24889 24892 0
-24887 -24889 24893 0
-24891 24894 0
-24892 24894 0
-24891 -24892 24895 0
-24894 0
2872 2873 2874 0
-24896 0
-2872 24897 0
-2873 24897 0
-2872 -2873 24898 0
-2874 24899 0
-24896 24899 0
-2874 -24896 24900 0
-24897 24901 0
-24899 24901 0
-24897 -24899 24902 0
-24898 24903 0
-24900 24903 0
-24898 -24900 24904 0
-24902 24905 0
-24903 24905 0
-24902 -24903 24906 0
-24905 0
355 356 357 0
-24907 0
-355 24908 0
-356 24908 0
-355 -356 24909 0
-357 24910 0
-24907 24910 0
-357 -24907 24911 0
-24908 24912 0
-24910 24912 0
-24908 -24910 24913 0
-24909 24914 0
-24911 24914 0
-24909 -24911 24915 0
-24913 24916 0
-24914 24916 0
-24913 -24914 24917 0
-24916 0
775 776 777 0
-24918 0
-775 24919 0
-776 24919 0
-775 -776 24920 0
-777 24921 0
-24918 24921 0
-777 -24918 24922 0
-24919 24923 0
-24921 24923 0
-24919 -24921 24924 0
-24920 24925 0
-24922 24925 0
-24920 -24922 24926 0
-24924 24927 0
-24925 24927 0
-24924 -24925 24928 0
-24927 0
1195 1196 1197 0
-24929 0
-1195 24930 0
-1196 24930 0
-1195 -1196 24931 0
-1197 24932 0
-24929 24932 0
-1197 -24929 24933 0
-24930 24934 0
-24932 24934 0
-24930 -24932 24935 0
-24931 24936 0
-24933 24936 0
-24931 -24933 24937 0
-24935 24938 0
-24936 24938 0
-24935 -24936 24939 0
-24938 0
1615 1616 1617 0
-24940 0
-1615 24941 0
-1616 24941 0
-1615 -1616 24942 0
-1617 24943 0
-24940 24943 0
-1617 -24940 24944 0
-24941 24945 0
-24943 24945 0
-24941 -24943 24946 0
-24942 24947 0
-24944 24947 0
-24942 -24944 24948 0
-24946 24949 0
-24947 24949 0
-24946 -24947 24950 0
-24949 0
2035 2036 2037 0
-24951 0
-2035 24952 0
-2036 24952 0
-2035 -2036 24953 0
-2037 24954 0
-24951 24954 0
-2037 -24951 24955 0
-24952 24956 0
-24954 24956 0
-24952 -24954 24957 0
-24953 24958 0
-24955 24958 0
-24953 -24955 24959 0
-24957 24960 0
-24958 24960 0
-24957 -24958 24961 0
-24960 0
2455 2456 2457 0
-24962 0
-2455 24963 0
-2456 24963 0
-2455 -2456 24964 0
-2457 24965 0
-24962 24965 0
-2457 -24962 24966 0
-24963 24967 0
-24965 24967 0
-24963 -24965 24968 0
-24964 24969 0
-24966 24969 0
-24964 -24966 24970 0
-24968 24971 0
-24969 24971 0
-24968 -24969 24972 0
-24971 0
2875 2876 2877 0
-24973 0
-2875 24974 0
-2876 24974 0
-2875 -2876 24975 0
-2877 24976 0
-24973 24976 0
-2877 -24973 24977 0
-24974 24978 0
-24976 24978 0
-24974 -24976 24979 0
-24975 24980 0
-24977 24980 0
-24975 -24977 24981 0
-24979 24982 0
-24980 24982 0
-24979 -24980 24983 0
-24982 0
358 359 360 0
-24984 0
-358 24985 0
-359 24985 0
-358 -359 24986 0
-360 24987 0
-24984 24987 0
-360 -24984 24988 0
-24985 24989 0
-24987 24989 0
-24985 -24987 24990 0
-24986 24991 0
-24988 24991 0
-24986 -24988 24992 0
-24990 24993 0
-24991 24993 0
-24990 -24991 24994 0
-24993 0
778 779 780 0
-24995 0
-778 24996 0
-779 24996 0
-778 -779 24997 0
-780 24998 0
-24995 24998 0
-780 -24995 24999 0
-24996 25000 0
-24998 25000 0
-24996 -24998 25001 0
-24997 25002 0
-24999 25002 0
-24997 -24999 25003 0
-25001 25004 0
-25002 25004 0
-25001 -25002 25005 0
-25004 0
1198 1199 1200 0
-25006 0
-1198 25007 0
-1199 25007 0
-1198 -1199 25008 0
-1200 25009 0
-25006 25009 0
-1200 -25006 25010 0
-25007 25011 0
-25009 25011 0
-25007 -25009 25012 0
-25008 25013 0
-25010 25013 0
-25008 -25010 25014 0
-25012 25015 0
-25013 25015 0
-25012 -25013 25016 0
-25015 0
1618 1619 1620 0
-25017 0
-1618 25018 0
-1619 25018 0
-1618 -1619 25019 0
-1620 25020 0
-25017 25020 0
-1620 -25017 25021 0
-25018 25022 0
-25020 25022 0
-25018 -25020 25023 0
-25019 25024 0
-25021 25024 0
-25019 -25021 25025 0
-25023 25026 0
-25024 25026 0
-25023 -25024 25027 0
-25026 0
2038 2039 2040 0
-25028 0
-2038 25029 0
-2039 25029 0
-2038 -2039 25030 0
-2040 25031 0
-25028 25031 0
-2040 -25028 25032 0
-25029 25033 0
-25031 25033 0
-25029 -25031 25034 0
-25030 25035 0
-25032 25035 0
-25030 -25032 25036 0
-25034 25037 0
-25035 25037 0
-25034 -25035 25038 0
-25037 0
2458 2459 2460 0
-25039 0
-2458 25040 0
-2459 25040 0
-2458 -2459 25041 0
-2460 25042 0
-25039 25042 0
-2460 -25039 25043 0
-25040 25044 0
-25042 25044 0
-25040 -25042 25045 0
-25041 25046 0
-25043 25046 0
-25041 -25043 25047 0
-25045 25048 0
-25046 25048 0
-25045 -25046 25049 0
-25048 0
2878 2879 2880 0
-25050 0
-2878 25051 0
-2879 25051 0
-2878 -2879 25052 0
-2880 25053 0
-25050 25053 0
-2880 -25050 25054 0
-25051 25055 0
-25053 25055 0
-25051 -25053 25056 0
-25052 25057 0
-25054 25057 0
-25052 -25054 25058 0
-25056 25059 0
-25057 25059 0
-25056 -25057 25060 0
-25059 0
361 362 363 0
-25061 0
-361 25062 0
-362 25062 0
-361 -362 25063 0
-363 25064 0
-25061 25064 0
-363 -25061 25065 0
-25062 25066 0
-25064 25066 0
-25062 -25064 25067 0
-25063 25068 0
-25065 25068 0
-25063 -25065 25069 0
-25067 25070 0
-25068 25070 0
-25067 -25068 25071 0
-25070 0
781 782 783 0
-25072 0
-781 25073 0
-782 25073 0
-781 -782 25074 0
-783 25075 0
-25072 25075 0
-783 -25072 25076 0
-25073 25077 0
-25075 25077 0
-25073 -25075 25078 0
-25074 25079 0
-25076 25079 0
-25074 -25076 25080 0
-25078 25081 0
-25079 25081 0
-25078 -25079 25082 0
-25081 0
1201 1202 1203 0
-25083 0
-1201 25084 0
-1202 25084 0
-1201 -1202 25085 0
-1203 25086 0
-25083 25086 0
-1203 -25083 25087 0
-25084 25088 0
-25086 25088 0
-25084 -25086 25089 0
-25085 25090 0
-25087 25090 0
-25085 -25087 25091 0
-25089 25092 0
-25090 25092 0
-25089 -25090 25093 0
-25092 0
1621 1622 1623 0
-25094 0
-1621 25095 0
-1622 25095 0
-1621 -1622 25096 0
-1623 25097 0
-25094 25097 0
-1623 -25094 25098 0
-25095 25099 0
-25097 25099 0
-25095 -25097 25100 0
-25096 25101 0
-25098 25101 0
-25096 -25098 25102 0
-25100 25103 0
-25101 25103 0
-25100 -25101 25104 0
-25103 0
2041 2042 2043 0
-25105 0
-2041 25106 0
-2042 25106 0
-2041 -2042 25107 0
-2043 25108 0
-25105 25108 0
-2043 -25105 25109 0
-25106 25110 0
-25108 25110 0
-25106 -25108 25111 0
-25107 25112 0
-25109 25112 0
-25107 -25109 25113 0
-25111 25114 0
-25112 25114 0
-25111 -25112 25115 0
-25114 0
2461 2462 2463 0
-25116 0
-2461 25117 0
-2462 25117 0
-2461 -2462 25118 0
-2463 25119 0
-25116 25119 0
-2463 -25116 25120 0
-25117 25121 0
-25119 25121 0
-25117 -25119 25122 0
-25118 25123 0
-25120 25123 0
-25118 -25120 25124 0
-25122 25125 0
-25123 25125 0
-25122 -25123 25126 0
-25125 0
2881 2882 2883 0
-25127 0
-2881 25128 0
-2882 25128 0
-2881 -2882 25129 0
-2883 25130 0
-25127 25130 0
-2883 -25127 25131 0
-25128 25132 0
-25130 25132 0
-25128 -25130 25133 0
-25129 25134 0
-25131 25134 0
-25129 -25131 25135 0
-25133 25136 0
-25134 25136 0
-25133 -25134 25137 0
-25136 0
364 365 366 0
-25138 0
-364 25139 0
-365 25139 0
-364 -365 25140 0
-366 25141 0
-25138 25141 0
-366 -25138 25142 0
-25139 25143 0
-25141 25143 0
-25139 -25141 25144 0
-25140 25145 0
-25142 25145 0
-25140 -25142 25146 0
-25144 25147 0
-25145 25147 0
-25144 -25145 25148 0
-25147 0
784 785 786 0
-25149 0
-784 25150 0
-785 25150 0
-784 -785 25151 0
-786 25152 0
-25149 25152 0
-786 -25149 25153 0
-25150 25154 0
-25152 25154 0
-25150 -25152 25155 0
-25151 25156 0
-25153 25156 0
-25151 -25153 25157 0
-25155 25158 0
-25156 25158 0
-25155 -25156 25159 0
-25158 0
1204 1205 1206 0
-25160 0
-1204 25161 0
-1205 25161 0
-1204 -1205 25162 0
-1206 25163 0
-25160 25163 0
-1206 -25160 25164 0
-25161 25165 0
-25163 25165 0
-25161 -25163 25166 0
-25162 25167 0
-25164 25167 0
-25162 -25164 25168 0
-25166 25169 0
-25167 25169 0
-25166 -25167 25170 0
-25169 0
1624 1625 1626 0
-25171 0
-1624 25172 0
-1625 25172 0
-1624 -1625 25173 0
-1626 25174 0
-25171 25174 0
-1626 -25171 25175 0
-25172 25176 0
-25174 25176 0
-25172 -25174 25177 0
-25173 25178 0
-25175 25178 0
-25173 -25175 25179 0
-25177 25180 0
-25178 25180 0
-25177 -25178 25181 0
-25180 0
2044 2045 2046 0
-25182 0
-2044 25183 0
-2045 25183 0
-2044 -2045 25184 0
-2046 25185 0
-25182 25185 0
-2046 -25182 25186 0
-25183 25187 0
-25185 25187 0
-25183 -25185 25188 0
-25184 25189 0
-25186 25189 0
-25184 -25186 25190 0
-25188 25191 0
-25189 25191 0
-25188 -25189 25192 0
-25191 0
2464 2465 2466 0
-25193 0
-2464 25194 0
-2465 25194 0
-2464 -2465 25195 0
-2466 25196 0
-25193 25196 0
-2466 -25193 25197 0
-25194 25198 0
-25196 25198 0
-25194 -25196 25199 0
-25195 25200 0
-25197 25200 0
-25195 -25197 25201 0
-25199 25202 0
-25200 25202 0
-25199 -25200 25203 0
-25202 0
2884 2885 2886 0
-25204 0
-2884 25205 0
-2885 25205 0
-2884 -2885 25206 0
-2886 25207 0
-25204 25207 0
-2886 -25204 25208 0
-25205 25209 0
-25207 25209 0
-25205 -25207 25210 0
-25206 25211 0
-25208 25211 0
-25206 -25208 25212 0
-25210 25213 0
-25211 25213 0
-25210 -25211 25214 0
-25213 0
367 368 369 0
-25215 0
-367 25216 0
-368 25216 0
-367 -368 25217 0
-369 25218 0
-25215 25218 0
-369 -25215 25219 0
-25216 25220 0
-25218 25220 0
-25216 -25218 25221 0
-25217 25222 0
-25219 25222 0
-25217 -25219 25223 0
-25221 25224 0
-25222 25224 0
-25221 -25222 25225 0
-25224 0
787 788 789 0
-25226 0
-787 25227 0
-788 25227 0
-787 -788 25228 0
-789 25229 0
-25226 25229 0
-789 -25226 25230 0
-25227 25231 0
-25229 25231 0
-25227 -25229 25232 0
-25228 25233 0
-25230 25233 0
-25228 -25230 25234 0
-25232 25235 0
-25233 25235 0
-25232 -25233 25236 0
-25235 0
1207 1208 1209 0
-25237 0
-1207 25238 0
-1208 25238 0
-1207 -1208 25239 0
-1209 25240 0
-25237 25240 0
-1209 -25237 25241 0
-25238 25242 0
-25240 25242 0
-25238 -25240 25243 0
-25239 25244 0
-25241 25244 0
-25239 -25241 25245 0
-25243 25246 0
-25244 25246 0
-25243 -25244 25247 0
-25246 0
1627 1628 1629 0
-25248 0
-1627 25249 0
-1628 25249 0
-1627 -1628 25250 0
-1629 25251 0
-25248 25251 0
-1629 -25248 25252 0
-25249 25253 0
-25251 25253 0
-25249 -25251 25254 0
-25250 25255 0
-25252 25255 0
-25250 -25252 25256 0
-25254 25257 0
-25255 25257 0
-25254 -25255 25258 0
-25257 0
2047 2048 2049 0
-25259 0
-2047 25260 0
-2048 25260 0
-2047 -2048 25261 0
-2049 25262 0
-25259 25262 0
-2049 -25259 25263 0
-25260 25264 0
-25262 25264 0
-25260 -25262 25265 0
-25261 25266 0
-25263 25266 0
-25261 -25263 25267 0
-25265 25268 0
-25266 25268 0
-25265 -25266 25269 0
-25268 0
2467 2468 2469 0
-25270 0
-2467 25271 0
-2468 25271 0
-2467 -2468 25272 0
-2469 25273 0
-25270 25273 0
-2469 -25270 25274 0
-25271 25275 0
-25273 25275 0
-25271 -25273 25276 0
-25272 25277 0
-25274 25277 0
-25272 -25274 25278 0
-25276 25279 0
-25277 25279 0
-25276 -25277 25280 0
-25279 0
2887 2888 2889 0
-25281 0
-2887 25282 0
-2888 25282 0
-2887 -2888 25283 0
-2889 25284 0
-25281 25284 0
-2889 -25281 25285 0
-25282 25286 0
-25284 25286 0
-25282 -25284 25287 0
-25283 25288 0
-25285 25288 0
-25283 -25285 25289 0
-25287 25290 0
-25288 25290 0
-25287 -25288 25291 0
-25290 0
370 371 372 0
-25292 0
-370 25293 0
-371 25293 0
-370 -371 25294 0
-372 25295 0
-25292 25295 0
-372 -25292 25296 0
-25293 25297 0
-25295 25297 0
-25293 -25295 25298 0
-25294 25299 0
-25296 25299 0
-25294 -25296 25300 0
-25298 25301 0
-25299 25301 0
-25298 -25299 25302 0
-25301 0
790 791 792 0
-25303 0
-790 25304 0
-791 25304 0
-790 -791 25305 0
-792 25306 0
-25303 25306 0
-792 -25303 25307 0
-25304 25308 0
-25306 25308 0
-25304 -25306 25309 0
-25305 25310 0
-25307 25310 0
-25305 -25307 25311 0
-25309 25312 0
-25310 25312 0
-25309 -25310 25313 0
-25312 0
1210 1211 1212 0
-25314 0
-1210 25315 0
-1211 25315 0
-1210 -1211 25316 0
-1212 25317 0
-25314 25317 0
-1212 -25314 25318 0
-25315 25319 0
-25317 25319 0
-25315 -25317 25320 0
-25316 25321 0
-25318 25321 0
-25316 -25318 25322 0
-25320 25323 0
-25321 25323 0
-25320 -25321 25324 0
-25323 0
1630 1631 1632 0
-25325 0
-1630 25326 0
-1631 25326 0
-1630 -1631 25327 0
-1632 25328 0
-25325 25328 0
-1632 -25325 25329 0
-25326 25330 0
-25328 25330 0
-25326 -25328 25331 0
-25327 25332 0
-25329 25332 0
-25327 -25329 25333 0
-25331 25334 0
-25332 25334 0
-25331 -25332 25335 0
-25334 0
2050 2051 2052 0
-25336 0
-2050 25337 0
-2051 25337 0
-2050 -2051 25338 0
-2052 25339 0
-25336 25339 0
-2052 -25336 25340 0
-25337 25341 0
-25339 25341 0
-25337 -25339 25342 0
-25338 25343 0
-25340 25343 0
-25338 -25340 25344 0
-25342 25345 0
-25343 25345 0
-25342 -25343 25346 0
-25345 0
2470 2471 2472 0
-25347 0
-2470 25348 0
-2471 25348 0
-2470 -2471 25349 0
-2472 25350 0
-25347 25350 0
-2472 -25347 25351 0
-25348 25352 0
-25350 25352 0
-25348 -25350 25353 0
-25349 25354 0
-25351 25354 0
-25349 -25351 25355 0
-25353 25356 0
-25354 25356 0
-25353 -25354 25357 0
-25356 0
2890 2891 2892 0
-25358 0
-2890 25359 0
-2891 25359 0
-2890 -2891 25360 0
-2892 25361 0
-25358 25361 0
-2892 -25358 25362 0
-25359 25363 0
-25361 25363 0
-25359 -25361 25364 0
-25360 25365 0
-25362 25365 0
-25360 -25362 25366 0
-25364 25367 0
-25365 25367 0
-25364 -25365 25368 0
-25367 0
373 374 375 0
-25369 0
-373 25370 0
-374 25370 0
-373 -374 25371 0
-375 25372 0
-25369 25372 0
-375 -25369 25373 0
-25370 25374 0
-25372 25374 0
-25370 -25372 25375 0
-25371 25376 0
-25373 25376 0
-25371 -25373 25377 0
-25375 25378 0
-25376 25378 0
-25375 -25376 25379 0
-25378 0
793 794 795 0
-25380 0
-793 25381 0
-794 25381 0
-793 -794 25382 0
-795 25383 0
-25380 25383 0
-795 -25380 25384 0
-25381 25385 0
-25383 25385 0
-25381 -25383 25386 0
-25382 25387 0
-25384 25387 0
-25382 -25384 25388 0
-25386 25389 0
-25387 25389 0
-25386 -25387 25390 0
-25389 0
1213 1214 1215 0
-25391 0
-1213 25392 0
-1214 25392 0
-1213 -1214 25393 0
-1215 25394 0
-25391 25394 0
-1215 -25391 25395 0
-25392 25396 0
-25394 25396 0
-25392 -25394 25397 0
-25393 25398 0
-25395 25398 0
-25393 -25395 25399 0
-25397 25400 0
-25398 25400 0
-25397 -25398 25401 0
-25400 0
1633 1634 1635 0
-25402 0
-1633 25403 0
-1634 25403 0
-1633 -1634 25404 0
-1635 25405 0
-25402 25405 0
-1635 -25402 25406 0
-25403 25407 0
-25405 25407 0
-25403 -25405 25408 0
-25404 25409 0
-25406 25409 0
-25404 -25406 25410 0
-25408 25411 0
-25409 25411 0
-25408 -25409 25412 0
-25411 0
2053 2054 2055 0
-25413 0
-2053 25414 0
-2054 25414 0
-2053 -2054 25415 0
-2055 25416 0
-25413 25416 0
-2055 -25413 25417 0
-25414 25418 0
-25416 25418 0
-25414 -25416 25419 0
-25415 25420 0
-25417 25420 0
-25415 -25417 25421 0
-25419 25422 0
-25420 25422 0
-25419 -25420 25423 0
-25422 0
2473 2474 2475 0
-25424 0
-2473 25425 0
-2474 25425 0
-2473 -2474 25426 0
-2475 25427 0
-25424 25427 0
-2475 -25424 25428 0
-25425 25429 0
-25427 25429 0
-25425 -25427 25430 0
-25426 25431 0
-25428 25431 0
-25426 -25428 25432 0
-25430 25433 0
-25431 25433 0
-25430 -25431 25434 0
-25433 0
2893 2894 2895 0
-25435 0
-2893 25436 0
-2894 25436 0
-2893 -2894 25437 0
-2895 25438 0
-25435 25438 0
-2895 -25435 25439 0
-25436 25440 0
-25438 25440 0
-25436 -25438 25441 0
-25437 25442 0
-25439 25442 0
-25437 -25439 25443 0
-25441 25444 0
-25442 25444 0
-25441 -25442 25445 0
-25444 0
376 377 378 0
-25446 0
-376 25447 0
-377 25447 0
-376 -377 25448 0
-378 25449 0
-25446 25449 0
-378 -25446 25450 0
-25447 25451 0
-25449 25451 0
-25447 -25449 25452 0
-25448 25453 0
-25450 25453 0
-25448 -25450 25454 0
-25452 25455 0
-25453 25455 0
-25452 -25453 25456 0
-25455 0
796 797 798 0
-25457 0
-796 25458 0
-797 25458 0
-796 -797 25459 0
-798 25460 0
-25457 25460 0
-798 -25457 25461 0
-25458 25462 0
-25460 25462 0
-25458 -25460 25463 0
-25459 25464 0
-25461 25464 0
-25459 -25461 25465 0
-25463 25466 0
-25464 25466 0
-25463 -25464 25467 0
-25466 0
1216 1217 1218 0
-25468 0
-1216 25469 0
-1217 25469 0
-1216 -1217 25470 0
-1218 25471 0
-25468 25471 0
-1218 -25468 25472 0
-25469 25473 0
-25471 25473 0
-25469 -25471 25474 0
-25470 25475 0
-25472 25475 0
-25470 -25472 25476 0
-25474 25477 0
-25475 25477 0
-25474 -25475 25478 0
-25477 0
1636 1637 1638 0
-25479 0
-1636 25480 0
-1637 25480 0
-1636 -1637 25481 0
-1638 25482 0
-25479 25482 0
-1638 -25479 25483 0
-25480 25484 0
-25482 25484 0
-25480 -25482 25485 0
-25481 25486 0
-25483 25486 0
-25481 -25483 25487 0
-25485 25488 0
-25486 25488 0
-25485 -25486 25489 0
-25488 0
2056 2057 2058 0
-25490 0
-2056 25491 0
-2057 25491 0
-2056 -2057 25492 0
-2058 25493 0
-25490 25493 0
-2058 -25490 25494 0
-25491 25495 0
-25493 25495 0
-25491 -25493 25496 0
-25492 25497 0
-25494 25497 0
-25492 -25494 25498 0
-25496 25499 0
-25497 25499 0
-25496 -25497 25500 0
-25499 0
2476 2477 2478 0
-25501 0
-2476 25502 0
-2477 25502 0
-2476 -2477 25503 0
-2478 25504 0
-25501 25504 0
-2478 -25501 25505 0
-25502 25506 0
-25504 25506 0
-25502 -25504 25507 0
-25503 25508 0
-25505 25508 0
-25503 -25505 25509 0
-25507 25510 0
-25508 25510 0
-25507 -25508 25511 0
-25510 0
2896 2897 2898 0
-25512 0
-2896 25513 0
-2897 25513 0
-2896 -2897 25514 0
-2898 25515 0
-25512 25515 0
-2898 -25512 25516 0
-25513 25517 0
-25515 25517 0
-25513 -25515 25518 0
-25514 25519 0
-25516 25519 0
-25514 -25516 25520 0
-25518 25521 0
-25519 25521 0
-25518 -25519 25522 0
-25521 0
379 380 381 0
-25523 0
-379 25524 0
-380 25524 0
-379 -380 25525 0
-381 25526 0
-25523 25526 0
-381 -25523 25527 0
-25524 25528 0
-25526 25528 0
-25524 -25526 25529 0
-25525 25530 0
-25527 25530 0
-25525 -25527 25531 0
-25529 25532 0
-25530 25532 0
-25529 -25530 25533 0
-25532 0
799 800 801 0
-25534 0
-799 25535 0
-800 25535 0
-799 -800 25536 0
-801 25537 0
-25534 25537 0
-801 -25534 25538 0
-25535 25539 0
-25537 25539 0
-25535 -25537 25540 0
-25536 25541 0
-25538 25541 0
-25536 -25538 25542 0
-25540 25543 0
-25541 25543 0
-25540 -25541 25544 0
-25543 0
1219 1220 1221 0
-25545 0
-1219 25546 0
-1220 25546 0
-1219 -1220 25547 0
-1221 25548 0
-25545 25548 0
-1221 -25545 25549 0
-25546 25550 0
-25548 25550 0
-25546 -25548 25551 0
-25547 25552 0
-25549 25552 0
-25547 -25549 25553 0
-25551 25554 0
-25552 25554 0
-25551 -25552 25555 0
-25554 0
1639 1640 1641 0
-25556 0
-1639 25557 0
-1640 25557 0
-1639 -1640 25558 0
-1641 25559 0
-25556 25559 0
-1641 -25556 25560 0
-25557 25561 0
-25559 25561 0
-25557 -25559 25562 0
-25558 25563 0
-25560 25563 0
-25558 -25560 25564 0
-25562 25565 0
-25563 25565 0
-25562 -25563 25566 0
-25565 0
2059 2060 2061 0
-25567 0
-2059 25568 0
-2060 25568 0
-2059 -2060 25569 0
-2061 25570 0
-25567 25570 0
-2061 -25567 25571 0
-25568 25572 0
-25570 25572 0
-25568 -25570 25573 0
-25569 25574 0
-25571 25574 0
-25569 -25571 25575 0
-25573 25576 0
-25574 25576 0
-25573 -25574 25577 0
-25576 0
2479 2480 2481 0
-25578 0
-2479 25579 0
-2480 25579 0
-2479 -2480 25580 0
-2481 25581 0
-25578 25581 0
-2481 -25578 25582 0
-25579 25583 0
-25581 25583 0
-25579 -25581 25584 0
-25580 25585 0
-25582 25585 0
-25580 -25582 25586 0
-25584 25587 0
-25585 25587 0
-25584 -25585 25588 0
-25587 0
2899 2900 2901 0
-25589 0
-2899 25590 0
-2900 25590 0
-2899 -2900 25591 0
-2901 25592 0
-25589 25592 0
-2901 -25589 25593 0
-25590 25594 0
-25592 25594 0
-25590 -25592 25595 0
-25591 25596 0
-25593 25596 0
-25591 -25593 25597 0
-25595 25598 0
-25596 25598 0
-25595 -25596 25599 0
-25598 0
382 383 384 0
-25600 0
-382 25601 0
-383 25601 0
-382 -383 25602 0
-384 25603 0
-25600 25603 0
-384 -25600 25604 0
-25601 25605 0
-25603 25605 0
-25601 -25603 25606 0
-25602 25607 0
-25604 25607 0
-25602 -25604 25608 0
-25606 25609 0
-25607 25609 0
-25606 -25607 25610 0
-25609 0
802 803 804 0
-25611 0
-802 25612 0
-803 25612 0
-802 -803 25613 0
-804 25614 0
-25611 25614 0
-804 -25611 25615 0
-25612 25616 0
-25614 25616 0
-25612 -25614 25617 0
-25613 25618 0
-25615 25618 0
-25613 -25615 25619 0
-25617 25620 0
-25618 25620 0
-25617 -25618 25621 0
-25620 0
1222 1223 1224 0
-25622 0
-1222 25623 0
-1223 25623 0
-1222 -1223 25624 0
-1224 25625 0
-25622 25625 0
-1224 -25622 25626 0
-25623 25627 0
-25625 25627 0
-25623 -25625 25628 0
-25624 25629 0
-25626 25629 0
-25624 -25626 25630 0
-25628 25631 0
-25629 25631 0
-25628 -25629 25632 0
-25631 0
1642 1643 1644 0
-25633 0
-1642 25634 0
-1643 25634 0
-1642 -1643 25635 0
-1644 25636 0
-25633 25636 0
-1644 -25633 25637 0
-25634 25638 0
-25636 25638 0
-25634 -25636 25639 0
-25635 25640 0
-25637 25640 0
-25635 -25637 25641 0
-25639 25642 0
-25640 25642 0
-25639 -25640 25643 0
-25642 0
2062 2063 2064 0
-25644 0
-2062 25645 0
-2063 25645 0
-2062 -2063 25646 0
-2064 25647 0
-25644 25647 0
-2064 -25644 25648 0
-25645 25649 0
-25647 25649 0
-25645 -25647 25650 0
-25646 25651 0
-25648 25651 0
-25646 -25648 25652 0
-25650 25653 0
-25651 25653 0
-25650 -25651 25654 0
-25653 0
2482 2483 2484 0
-25655 0
-2482 25656 0
-2483 25656 0
-2482 -2483 25657 0
-2484 25658 0
-25655 25658 0
-2484 -25655 25659 0
-25656 25660 0
-25658 25660 0
-25656 -25658 25661 0
-25657 25662 0
-25659 25662 0
-25657 -25659 25663 0
-25661 25664 0
-25662 25664 0
-25661 -25662 25665 0
-25664 0
2902 2903 2904 0
-25666 0
-2902 25667 0
-2903 25667 0
-2902 -2903 25668 0
-2904 25669 0
-25666 25669 0
-2904 -25666 25670 0
-25667 25671 0
-25669 25671 0
-25667 -25669 25672 0
-25668 25673 0
-25670 25673 0
-25668 -25670 25674 0
-25672 25675 0
-25673 25675 0
-25672 -25673 25676 0
-25675 0
385 386 387 0
-25677 0
-385 25678 0
-386 25678 0
-385 -386 25679 0
-387 25680 0
-25677 25680 0
-387 -25677 25681 0
-25678 25682 0
-25680 25682 0
-25678 -25680 25683 0
-25679 25684 0
-25681 25684 0
-25679 -25681 25685 0
-25683 25686 0
-25684 25686 0
-25683 -25684 25687 0
-25686 0
805 806 807 0
-25688 0
-805 25689 0
-806 25689 0
-805 -806 25690 0
-807 25691 0
-25688 25691 0
-807 -25688 25692 0
-25689 25693 0
-25691 25693 0
-25689 -25691 25694 0
-25690 25695 0
-25692 25695 0
-25690 -25692 25696 0
-25694 25697 0
-25695 25697 0
-25694 -25695 25698 0
-25697 0
1225 1226 1227 0
-25699 0
-1225 25700 0
-1226 25700 0
-1225 -1226 25701 0
-1227 25702 0
-25699 25702 0
-1227 -25699 25703 0
-25700 25704 0
-25702 25704 0
-25700 -25702 25705 0
-25701 25706 0
-25703 25706 0
-25701 -25703 25707 0
-25705 25708 0
-25706 25708 0
-25705 -25706 25709 0
-25708 0
1645 1646 1647 0
-25710 0
-1645 25711 0
-1646 25711 0
-1645 -1646 25712 0
-1647 25713 0
-25710 25713 0
-1647 -25710 25714 0
-25711 25715 0
-25713 25715 0
-25711 -25713 25716 0
-25712 25717 0
-25714 25717 0
-25712 -25714 25718 0
-25716 25719 0
-25717 25719 0
-25716 -25717 25720 0
-25719 0
2065 2066 2067 0
-25721 0
-2065 25722 0
-2066 25722 0
-2065 -2066 25723 0
-2067 25724 0
-25721 25724 0
-2067 -25721 25725 0
-25722 25726 0
-25724 25726 0
-25722 -25724 25727 0
-25723 25728 0
-25725 25728 0
-25723 -25725 25729 0
-25727 25730 0
-25728 25730 0
-25727 -25728 25731 0
-25730 0
2485 2486 2487 0
-25732 0
-2485 25733 0
-2486 25733 0
-2485 -2486 25734 0
-2487 25735 0
-25732 25735 0
-2487 -25732 25736 0
-25733 25737 0
-25735 25737 0
-25733 -25735 25738 0
-25734 25739 0
-25736 25739 0
-25734 -25736 25740 0
-25738 25741 0
-25739 25741 0
-25738 -25739 25742 0
-25741 0
2905 2906 2907 0
-25743 0
-2905 25744 0
-2906 25744 0
-2905 -2906 25745 0
-2907 25746 0
-25743 25746 0
-2907 -25743 25747 0
-25744 25748 0
-25746 25748 0
-25744 -25746 25749 0
-25745 25750 0
-25747 25750 0
-25745 -25747 25751 0
-25749 25752 0
-25750 25752 0
-25749 -25750 25753 0
-25752 0
388 389 390 0
-25754 0
-388 25755 0
-389 25755 0
-388 -389 25756 0
-390 25757 0
-25754 25757 0
-390 -25754 25758 0
-25755 25759 0
-25757 25759 0
-25755 -25757 25760 0
-25756 25761 0
-25758 25761 0
-25756 -25758 25762 0
-25760 25763 0
-25761 25763 0
-25760 -25761 25764 0
-25763 0
808 809 810 0
-25765 0
-808 25766 0
-809 25766 0
-808 -809 25767 0
-810 25768 0
-25765 25768 0
-810 -25765 25769 0
-25766 25770 0
-25768 25770 0
-25766 -25768 25771 0
-25767 25772 0
-25769 25772 0
-25767 -25769 25773 0
-25771 25774 0
-25772 25774 0
-25771 -25772 25775 0
-25774 0
1228 1229 1230 0
-25776 0
-1228 25777 0
-1229 25777 0
-1228 -1229 25778 0
-1230 25779 0
-25776 25779 0
-1230 -25776 25780 0
-25777 25781 0
-25779 25781 0
-25777 -25779 25782 0
-25778 25783 0
-25780 25783 0
-25778 -25780 25784 0
-25782 25785 0
-25783 25785 0
-25782 -25783 25786 0
-25785 0
1648 1649 1650 0
-25787 0
-1648 25788 0
-1649 25788 0
-1648 -1649 25789 0
-1650 25790 0
-25787 25790 0
-1650 -25787 25791 0
-25788 25792 0
-25790 25792 0
-25788 -25790 25793 0
-25789 25794 0
-25791 25794 0
-25789 -25791 25795 0
-25793 25796 0
-25794 25796 0
-25793 -25794 25797 0
-25796 0
2068 2069 2070 0
-25798 0
-2068 25799 0
-2069 25799 0
-2068 -2069 25800 0
-2070 25801 0
-25798 25801 0
-2070 -25798 25802 0
-25799 25803 0
-25801 25803 0
-25799 -25801 25804 0
-25800 25805 0
-25802 25805 0
-25800 -25802 25806 0
-25804 25807 0
-25805 25807 0
-25804 -25805 25808 0
-25807 0
2488 2489 2490 0
-25809 0
-2488 25810 0
-2489 25810 0
-2488 -2489 25811 0
-2490 25812 0
-25809 25812 0
-2490 -25809 25813 0
-25810 25814 0
-25812 25814 0
-25810 -25812 25815 0
-25811 25816 0
-25813 25816 0
-25811 -25813 25817 0
-25815 25818 0
-25816 25818 0
-25815 -25816 25819 0
-25818 0
2908 2909 2910 0
-25820 0
-2908 25821 0
-2909 25821 0
-2908 -2909 25822 0
-2910 25823 0
-25820 25823 0
-2910 -25820 25824 0
-25821 25825 0
-25823 25825 0
-25821 -25823 25826 0
-25822 25827 0
-25824 25827 0
-25822 -25824 25828 0
-25826 25829 0
-25827 25829 0
-25826 -25827 25830 0
-25829 0
391 392 393 0
-25831 0
-391 25832 0
-392 25832 0
-391 -392 25833 0
-393 25834 0
-25831 25834 0
-393 -25831 25835 0
-25832 25836 0
-25834 25836 0
-25832 -25834 25837 0
-25833 25838 0
-25835 25838 0
-25833 -25835 25839 0
-25837 25840 0
-25838 25840 0
-25837 -25838 25841 0
-25840 0
811 812 813 0
-25842 0
-811 25843 0
-812 25843 0
-811 -812 25844 0
-813 25845 0
-25842 25845 0
-813 -25842 25846 0
-25843 25847 0
-25845 25847 0
-25843 -25845 25848 0
-25844 25849 0
-25846 25849 0
-25844 -25846 25850 0
-25848 25851 0
-25849 25851 0
-25848 -25849 25852 0
-25851 0
1231 1232 1233 0
-25853 0
-1231 25854 0
-1232 25854 0
-1231 -1232 25855 0
-1233 25856 0
-25853 25856 0
-1233 -25853 25857 0
-25854 25858 0
-25856 25858 0
-25854 -25856 25859 0
-25855 25860 0
-25857 25860 0
-25855 -25857 25861 0
-25859 25862 0
-25860 25862 0
-25859 -25860 25863 0
-25862 0
1651 1652 1653 0
-25864 0
-1651 25865 0
-1652 25865 0
-1651 -1652 25866 0
-1653 25867 0
-25864 25867 0
-1653 -25864 25868 0
-25865 25869 0
-25867 25869 0
-25865 -25867 25870 0
-25866 25871 0
-25868 25871 0
-25866 -25868 25872 0
-25870 25873 0
-25871 25873 0
-25870 -25871 25874 0
-25873 0
2071 2072 2073 0
-25875 0
-2071 25876 0
-2072 25876 0
-2071 -2072 25877 0
-2073 25878 0
-25875 25878 0
-2073 -25875 25879 0
-25876 25880 0
-25878 25880 0
-25876 -25878 25881 0
-25877 25882 0
-25879 25882 0
-25877 -25879 25883 0
-25881 25884 0
-25882 25884 0
-25881 -25882 25885 0
-25884 0
2491 2492 2493 0
-25886 0
-2491 25887 0
-2492 25887 0
-2491 -2492 25888 0
-2493 25889 0
-25886 25889 0
-2493 -25886 25890 0
-25887 25891 0
-25889 25891 0
-25887 -25889 25892 0
-25888 25893 0
-25890 25893 0
-25888 -25890 25894 0
-25892 25895 0
-25893 25895 0
-25892 -25893 25896 0
-25895 0
2911 2912 2913 0
-25897 0
-2911 25898 0
-2912 25898 0
-2911 -2912 25899 0
-2913 25900 0
-25897 25900 0
-2913 -25897 25901 0
-25898 25902 0
-25900 25902 0
-25898 -25900 25903 0
-25899 25904 0
-25901 25904 0
-25899 -25901 25905 0
-25903 25906 0
-25904 25906 0
-25903 -25904 25907 0
-25906 0
394 395 396 0
-25908 0
-394 25909 0
-395 25909 0
-394 -395 25910 0
-396 25911 0
-25908 25911 0
-396 -25908 25912 0
-25909 25913 0
-25911 25913 0
-25909 -25911 25914 0
-25910 25915 0
-25912 25915 0
-25910 -25912 25916 0
-25914 25917 0
-25915 25917 0
-25914 -25915 25918 0
-25917 0
814 815 816 0
-25919 0
-814 25920 0
-815 25920 0
-814 -815 25921 0
-816 25922 0
-25919 25922 0
-816 -25919 25923 0
-25920 25924 0
-25922 25924 0
-25920 -25922 25925 0
-25921 25926 0
-25923 25926 0
-25921 -25923 25927 0
-25925 25928 0
-25926 25928 0
-25925 -25926 25929 0
-25928 0
1234 1235 1236 0
-25930 0
-1234 25931 0
-1235 25931 0
-1234 -1235 25932 0
-1236 25933 0
-25930 25933 0
-1236 -25930 25934 0
-25931 25935 0
-25933 25935 0
-25931 -25933 25936 0
-25932 25937 0
-25934 25937 0
-25932 -25934 25938 0
-25936 25939 0
-25937 25939 0
-25936 -25937 25940 0
-25939 0
1654 1655 1656 0
-25941 0
-1654 25942 0
-1655 25942 0
-1654 -1655 25943 0
-1656 25944 0
-25941 25944 0
-1656 -25941 25945 0
-25942 25946 0
-25944 25946 0
-25942 -25944 25947 0
-25943 25948 0
-25945 25948 0
-25943 -25945 25949 0
-25947 25950 0
-25948 25950 0
-25947 -25948 25951 0
-25950 0
2074 2075 2076 0
-25952 0
-2074 25953 0
-2075 25953 0
-2074 -2075 25954 0
-2076 25955 0
-25952 25955 0
-2076 -25952 25956 0
-25953 25957 0
-25955 25957 0
-25953 -25955 25958 0
-25954 25959 0
-25956 25959 0
-25954 -25956 25960 0
-25958 25961 0
-25959 25961 0
-25958 -25959 25962 0
-25961 0
2494 2495 2496 0
-25963 0
-2494 25964 0
-2495 25964 0
-2494 -2495 25965 0
-2496 25966 0
-25963 25966 0
-2496 -25963 25967 0
-25964 25968 0
-25966 25968 0
-25964 -25966 25969 0
-25965 25970 0
-25967 25970 0
-25965 -25967 25971 0
-25969 25972 0
-25970 25972 0
-25969 -25970 25973 0
-25972 0
2914 2915 2916 0
-25974 0
-2914 25975 0
-2915 25975 0
-2914 -2915 25976 0
-2916 25977 0
-25974 25977 0
-2916 -25974 25978 0
-25975 25979 0
-25977 25979 0
-25975 -25977 25980 0
-25976 25981 0
-25978 25981 0
-25976 -25978 25982 0
-25980 25983 0
-25981 25983 0
-25980 -25981 25984 0
-25983 0
397 398 399 0
-25985 0
-397 25986 0
-398 25986 0
-397 -398 25987 0
-399 25988 0
-25985 25988 0
-399 -25985 25989 0
-25986 25990 0
-25988 25990 0
-25986 -25988 25991 0
-25987 25992 0
-25989 25992 0
-25987 -25989 25993 0
-25991 25994 0
-25992 25994 0
-25991 -25992 25995 0
-25994 0
817 818 819 0
-25996 0
-817 25997 0
-818 25997 0
-817 -818 25998 0
-819 25999 0
-25996 25999 0
-819 -25996 26000 0
-25997 26001 0
-25999 26001 0
-25997 -25999 26002 0
-25998 26003 0
-26000 26003 0
-25998 -26000 26004 0
-26002 26005 0
-26003 26005 0
-26002 -26003 26006 0
-26005 0
1237 1238 1239 0
-26007 0
-1237 26008 0
-1238 26008 0
-1237 -1238 26009 0
-1239 26010 0
-26007 26010 0
-1239 -26007 26011 0
-26008 26012 0
-26010 26012 0
-26008 -26010 26013 0
-26009 26014 0
-26011 26014 0
-26009 -26011 26015 0
-26013 26016 0
-26014 26016 0
-26013 -26014 26017 0
-26016 0
1657 1658 1659 0
-26018 0
-1657 26019 0
-1658 26019 0
-1657 -1658 26020 0
-1659 26021 0
-26018 26021 0
-1659 -26018 26022 0
-26019 26023 0
-26021 26023 0
-26019 -26021 26024 0
-26020 26025 0
-26022 26025 0
-26020 -26022 26026 0
-26024 26027 0
-26025 26027 0
-26024 -26025 26028 0
-26027 0
2077 2078 2079 0
-26029 0
-2077 26030 0
-2078 26030 0
-2077 -2078 26031 0
-2079 26032 0
-26029 26032 0
-2079 -26029 26033 0
-26030 26034 0
-26032 26034 0
-26030 -26032 26035 0
-26031 26036 0
-26033 26036 0
-26031 -26033 26037 0
-26035 26038 0
-26036 26038 0
-26035 -26036 26039 0
-26038 0
2497 2498 2499 0
-26040 0
-2497 26041 0
-2498 26041 0
-2497 -2498 26042 0
-2499 26043 0
-26040 26043 0
-2499 -26040 26044 0
-26041 26045 0
-26043 26045 0
-26041 -26043 26046 0
-26042 26047 0
-26044 26047 0
-26042 -26044 26048 0
-26046 26049 0
-26047 26049 0
-26046 -26047 26050 0
-26049 0
2917 2918 2919 0
-26051 0
-2917 26052 0
-2918 26052 0
-2917 -2918 26053 0
-2919 26054 0
-26051 26054 0
-2919 -26051 26055 0
-26052 26056 0
-26054 26056 0
-26052 -26054 26057 0
-26053 26058 0
-26055 26058 0
-26053 -26055 26059 0
-26057 26060 0
-26058 26060 0
-26057 -26058 26061 0
-26060 0
400 401 402 0
-26062 0
-400 26063 0
-401 26063 0
-400 -401 26064 0
-402 26065 0
-26062 26065 0
-402 -26062 26066 0
-26063 26067 0
-26065 26067 0
-26063 -26065 26068 0
-26064 26069 0
-26066 26069 0
-26064 -26066 26070 0
-26068 26071 0
-26069 26071 0
-26068 -26069 26072 0
-26071 0
820 821 822 0
-26073 0
-820 26074 0
-821 26074 0
-820 -821 26075 0
-822 26076 0
-26073 26076 0
-822 -26073 26077 0
-26074 26078 0
-26076 26078 0
-26074 -26076 26079 0
-26075 26080 0
-26077 26080 0
-26075 -26077 26081 0
-26079 26082 0
-26080 26082 0
-26079 -26080 26083 0
-26082 0
1240 1241 1242 0
-26084 0
-1240 26085 0
-1241 26085 0
-1240 -1241 26086 0
-1242 26087 0
-26084 26087 0
-1242 -26084 26088 0
-26085 26089 0
-26087 26089 0
-26085 -26087 26090 0
-26086 26091 0
-26088 26091 0
-26086 -26088 26092 0
-26090 26093 0
-26091 26093 0
-26090 -26091 26094 0
-26093 0
1660 1661 1662 0
-26095 0
-1660 26096 0
-1661 26096 0
-1660 -1661 26097 0
-1662 26098 0
-26095 26098 0
-1662 -26095 26099 0
-26096 26100 0
-26098 26100 0
-26096 -26098 26101 0
-26097 26102 0
-26099 26102 0
-26097 -26099 26103 0
-26101 26104 0
-26102 26104 0
-26101 -26102 26105 0
-26104 0
2080 2081 2082 0
-26106 0
-2080 26107 0
-2081 26107 0
-2080 -2081 26108 0
-2082 26109 0
-26106 26109 0
-2082 -26106 26110 0
-26107 26111 0
-26109 26111 0
-26107 -26109 26112 0
-26108 26113 0
-26110 26113 0
-26108 -26110 26114 0
-26112 26115 0
-26113 26115 0
-26112 -26113 26116 0
-26115 0
2500 2501 2502 0
-26117 0
-2500 26118 0
-2501 26118 0
-2500 -2501 26119 0
-2502 26120 0
-26117 26120 0
-2502 -26117 26121 0
-26118 26122 0
-26120 26122 0
-26118 -26120 26123 0
-26119 26124 0
-26121 26124 0
-26119 -26121 26125 0
-26123 26126 0
-26124 26126 0
-26123 -26124 26127 0
-26126 0
2920 2921 2922 0
-26128 0
-2920 26129 0
-2921 26129 0
-2920 -2921 26130 0
-2922 26131 0
-26128 26131 0
-2922 -26128 26132 0
-26129 26133 0
-26131 26133 0
-26129 -26131 26134 0
-26130 26135 0
-26132 26135 0
-26130 -26132 26136 0
-26134 26137 0
-26135 26137 0
-26134 -26135 26138 0
-26137 0
403 404 405 0
-26139 0
-403 26140 0
-404 26140 0
-403 -404 26141 0
-405 26142 0
-26139 26142 0
-405 -26139 26143 0
-26140 26144 0
-26142 26144 0
-26140 -26142 26145 0
-26141 26146 0
-26143 26146 0
-26141 -26143 26147 0
-26145 26148 0
-26146 26148 0
-26145 -26146 26149 0
-26148 0
823 824 825 0
-26150 0
-823 26151 0
-824 26151 0
-823 -824 26152 0
-825 26153 0
-26150 26153 0
-825 -26150 26154 0
-26151 26155 0
-26153 26155 0
-26151 -26153 26156 0
-26152 26157 0
-26154 26157 0
-26152 -26154 26158 0
-26156 26159 0
-26157 26159 0
-26156 -26157 26160 0
-26159 0
1243 1244 1245 0
-26161 0
-1243 26162 0
-1244 26162 0
-1243 -1244 26163 0
-1245 26164 0
-26161 26164 0
-1245 -26161 26165 0
-26162 26166 0
-26164 26166 0
-26162 -26164 26167 0
-26163 26168 0
-26165 26168 0
-26163 -26165 26169 0
-26167 26170 0
-26168 26170 0
-26167 -26168 26171 0
-26170 0
1663 1664 1665 0
-26172 0
-1663 26173 0
-1664 26173 0
-1663 -1664 26174 0
-1665 26175 0
-26172 26175 0
-1665 -26172 26176 0
-26173 26177 0
-26175 26177 0
-26173 -26175 26178 0
-26174 26179 0
-26176 26179 0
-26174 -26176 26180 0
-26178 26181 0
-26179 26181 0
-26178 -26179 26182 0
-26181 0
2083 2084 2085 0
-26183 0
-2083 26184 0
-2084 26184 0
-2083 -2084 26185 0
-2085 26186 0
-26183 26186 0
-2085 -26183 26187 0
-26184 26188 0
-26186 26188 0
-26184 -26186 26189 0
-26185 26190 0
-26187 26190 0
-26185 -26187 26191 0
-26189 26192 0
-26190 26192 0
-26189 -26190 26193 0
-26192 0
2503 2504 2505 0
-26194 0
-2503 26195 0
-2504 26195 0
-2503 -2504 26196 0
-2505 26197 0
-26194 26197 0
-2505 -26194 26198 0
-26195 26199 0
-26197 26199 0
-26195 -26197 26200 0
-26196 26201 0
-26198 26201 0
-26196 -26198 26202 0
-26200 26203 0
-26201 26203 0
-26200 -26201 26204 0
-26203 0
2923 2924 2925 0
-26205 0
-2923 26206 0
-2924 26206 0
-2923 -2924 26207 0
-2925 26208 0
-26205 26208 0
-2925 -26205 26209 0
-26206 26210 0
-26208 26210 0
-26206 -26208 26211 0
-26207 26212 0
-26209 26212 0
-26207 -26209 26213 0
-26211 26214 0
-26212 26214 0
-26211 -26212 26215 0
-26214 0
406 407 408 0
-26216 0
-406 26217 0
-407 26217 0
-406 -407 26218 0
-408 26219 0
-26216 26219 0
-408 -26216 26220 0
-26217 26221 0
-26219 26221 0
-26217 -26219 26222 0
-26218 26223 0
-26220 26223 0
-26218 -26220 26224 0
-26222 26225 0
-26223 26225 0
-26222 -26223 26226 0
-26225 0
826 827 828 0
-26227 0
-826 26228 0
-827 26228 0
-826 -827 26229 0
-828 26230 0
-26227 26230 0
-828 -26227 26231 0
-26228 26232 0
-26230 26232 0
-26228 -26230 26233 0
-26229 26234 0
-26231 26234 0
-26229 -26231 26235 0
-26233 26236 0
-26234 26236 0
-26233 -26234 26237 0
-26236 0
1246 1247 1248 0
-26238 0
-1246 26239 0
-1247 26239 0
-1246 -1247 26240 0
-1248 26241 0
-26238 26241 0
-1248 -26238 26242 0
-26239 26243 0
-26241 26243 0
-26239 -26241 26244 0
-26240 26245 0
-26242 26245 0
-26240 -26242 26246 0
-26244 26247 0
-26245 26247 0
-26244 -26245 26248 0
-26247 0
1666 1667 1668 0
-26249 0
-1666 26250 0
-1667 26250 0
-1666 -1667 26251 0
-1668 26252 0
-26249 26252 0
-1668 -26249 26253 0
-26250 26254 0
-26252 26254 0
-26250 -26252 26255 0
-26251 26256 0
-26253 26256 0
-26251 -26253 26257 0
-26255 26258 0
-26256 26258 0
-26255 -26256 26259 0
-26258 0
2086 2087 2088 0
-26260 0
-2086 26261 0
-2087 26261 0
-2086 -2087 26262 0
-2088 26263 0
-26260 26263 0
-2088 -26260 26264 0
-26261 26265 0
-26263 26265 0
-26261 -26263 26266 0
-26262 26267 0
-26264 26267 0
-26262 -26264 26268 0
-26266 26269 0
-26267 26269 0
-26266 -26267 26270 0
-26269 0
2506 2507 2508 0
-26271 0
-2506 26272 0
-2507 26272 0
-2506 -2507 26273 0
-2508 26274 0
-26271 26274 0
-2508 -26271 26275 0
-26272 26276 0
-26274 26276 0
-26272 -26274 26277 0
-26273 26278 0
-26275 26278 0
-26273 -26275 26279 0
-26277 26280 0
-26278 26280 0
-26277 -26278 26281 0
-26280 0
2926 2927 2928 0
-26282 0
-2926 26283 0
-2927 26283 0
-2926 -2927 26284 0
-2928 26285 0
-26282 26285 0
-2928 -26282 26286 0
-26283 26287 0
-26285 26287 0
-26283 -26285 26288 0
-26284 26289 0
-26286 26289 0
-26284 -26286 26290 0
-26288 26291 0
-26289 26291 0
-26288 -26289 26292 0
-26291 0
409 410 411 0
-26293 0
-409 26294 0
-410 26294 0
-409 -410 26295 0
-411 26296 0
-26293 26296 0
-411 -26293 26297 0
-26294 26298 0
-26296 26298 0
-26294 -26296 26299 0
-26295 26300 0
-26297 26300 0
-26295 -26297 26301 0
-26299 26302 0
-26300 26302 0
-26299 -26300 26303 0
-26302 0
829 830 831 0
-26304 0
-829 26305 0
-830 26305 0
-829 -830 26306 0
-831 26307 0
-26304 26307 0
-831 -26304 26308 0
-26305 26309 0
-26307 26309 0
-26305 -26307 26310 0
-26306 26311 0
-26308 26311 0
-26306 -26308 26312 0
-26310 26313 0
-26311 26313 0
-26310 -26311 26314 0
-26313 0
1249 1250 1251 0
-26315 0
-1249 26316 0
-1250 26316 0
-1249 -1250 26317 0
-1251 26318 0
-26315 26318 0
-1251 -26315 26319 0
-26316 26320 0
-26318 26320 0
-26316 -26318 26321 0
-26317 26322 0
-26319 26322 0
-26317 -26319 26323 0
-26321 26324 0
-26322 26324 0
-26321 -26322 26325 0
-26324 0
1669 1670 1671 0
-26326 0
-1669 26327 0
-1670 26327 0
-1669 -1670 26328 0
-1671 26329 0
-26326 26329 0
-1671 -26326 26330 0
-26327 26331 0
-26329 26331 0
-26327 -26329 26332 0
-26328 26333 0
-26330 26333 0
-26328 -26330 26334 0
-26332 26335 0
-26333 26335 0
-26332 -26333 26336 0
-26335 0
2089 2090 2091 0
-26337 0
-2089 26338 0
-2090 26338 0
-2089 -2090 26339 0
-2091 26340 0
-26337 26340 0
-2091 -26337 26341 0
-26338 26342 0
-26340 26342 0
-26338 -26340 26343 0
-26339 26344 0
-26341 26344 0
-26339 -26341 26345 0
-26343 26346 0
-26344 26346 0
-26343 -26344 26347 0
-26346 0
2509 2510 2511 0
-26348 0
-2509 26349 0
-2510 26349 0
-2509 -2510 26350 0
-2511 26351 0
-26348 26351 0
-2511 -26348 26352 0
-26349 26353 0
-26351 26353 0
-26349 -26351 26354 0
-26350 26355 0
-26352 26355 0
-26350 -26352 26356 0
-26354 26357 0
-26355 26357 0
-26354 -26355 26358 0
-26357 0
2929 2930 2931 0
-26359 0
-2929 26360 0
-2930 26360 0
-2929 -2930 26361 0
-2931 26362 0
-26359 26362 0
-2931 -26359 26363 0
-26360 26364 0
-26362 26364 0
-26360 -26362 26365 0
-26361 26366 0
-26363 26366 0
-26361 -26363 26367 0
-26365 26368 0
-26366 26368 0
-26365 -26366 26369 0
-26368 0
412 413 414 0
-26370 0
-412 26371 0
-413 26371 0
-412 -413 26372 0
-414 26373 0
-26370 26373 0
-414 -26370 26374 0
-26371 26375 0
-26373 26375 0
-26371 -26373 26376 0
-26372 26377 0
-26374 26377 0
-26372 -26374 26378 0
-26376 26379 0
-26377 26379 0
-26376 -26377 26380 0
-26379 0
832 833 834 0
-26381 0
-832 26382 0
-833 26382 0
-832 -833 26383 0
-834 26384 0
-26381 26384 0
-834 -26381 26385 0
-26382 26386 0
-26384 26386 0
-26382 -26384 26387 0
-26383 26388 0
-26385 26388 0
-26383 -26385 26389 0
-26387 26390 0
-26388 26390 0
-26387 -26388 26391 0
-26390 0
1252 1253 1254 0
-26392 0
-1252 26393 0
-1253 26393 0
-1252 -1253 26394 0
-1254 26395 0
-26392 26395 0
-1254 -26392 26396 0
-26393 26397 0
-26395 26397 0
-26393 -26395 26398 0
-26394 26399 0
-26396 26399 0
-26394 -26396 26400 0
-26398 26401 0
-26399 26401 0
-26398 -26399 26402 0
-26401 0
1672 1673 1674 0
-26403 0
-1672 26404 0
-1673 26404 0
-1672 -1673 26405 0
-1674 26406 0
-26403 26406 0
-1674 -26403 26407 0
-26404 26408 0
-26406 26408 0
-26404 -26406 26409 0
-26405 26410 0
-26407 26410 0
-26405 -26407 26411 0
-26409 26412 0
-26410 26412 0
-26409 -26410 26413 0
-26412 0
2092 2093 2094 0
-26414 0
-2092 26415 0
-2093 26415 0
-2092 -2093 26416 0
-2094 26417 0
-26414 26417 0
-2094 -26414 26418 0
-26415 26419 0
-26417 26419 0
-26415 -26417 26420 0
-26416 26421 0
-26418 26421 0
-26416 -26418 26422 0
-26420 26423 0
-26421 26423 0
-26420 -26421 26424 0
-26423 0
2512 2513 2514 0
-26425 0
-2512 26426 0
-2513 26426 0
-2512 -2513 26427 0
-2514 26428 0
-26425 26428 0
-2514 -26425 26429 0
-26426 26430 0
-26428 26430 0
-26426 -26428 26431 0
-26427 26432 0
-26429 26432 0
-26427 -26429 26433 0
-26431 26434 0
-26432 26434 0
-26431 -26432 26435 0
-26434 0
2932 2933 2934 0
-26436 0
-2932 26437 0
-2933 26437 0
-2932 -2933 26438 0
-2934 26439 0
-26436 26439 0
-2934 -26436 26440 0
-26437 26441 0
-26439 26441 0
-26437 -26439 26442 0
-26438 26443 0
-26440 26443 0
-26438 -26440 26444 0
-26442 26445 0
-26443 26445 0
-26442 -26443 26446 0
-26445 0
415 416 417 0
-26447 0
-415 26448 0
-416 26448 0
-415 -416 26449 0
-417 26450 0
-26447 26450 0
-417 -26447 26451 0
-26448 26452 0
-26450 26452 0
-26448 -26450 26453 0
-26449 26454 0
-26451 26454 0
-26449 -26451 26455 0
-26453 26456 0
-26454 26456 0
-26453 -26454 26457 0
-26456 0
835 836 837 0
-26458 0
-835 26459 0
-836 26459 0
-835 -836 26460 0
-837 26461 0
-26458 26461 0
-837 -26458 26462 0
-26459 26463 0
-26461 26463 0
-26459 -26461 26464 0
-26460 26465 0
-26462 26465 0
-26460 -26462 26466 0
-26464 26467 0
-26465 26467 0
-26464 -26465 26468 0
-26467 0
1255 1256 1257 0
-26469 0
-1255 26470 0
-1256 26470 0
-1255 -1256 26471 0
-1257 26472 0
-26469 26472 0
-1257 -26469 26473 0
-26470 26474 0
-26472 26474 0
-26470 -26472 26475 0
-26471 26476 0
-26473 26476 0
-26471 -26473 26477 0
-26475 26478 0
-26476 26478 0
-26475 -26476 26479 0
-26478 0
1675 1676 1677 0
-26480 0
-1675 26481 0
-1676 26481 0
-1675 -1676 26482 0
-1677 26483 0
-26480 26483 0
-1677 -26480 26484 0
-26481 26485 0
-26483 26485 0
-26481 -26483 26486 0
-26482 26487 0
-26484 26487 0
-26482 -26484 26488 0
-26486 26489 0
-26487 26489 0
-26486 -26487 26490 0
-26489 0
2095 2096 2097 0
-26491 0
-2095 26492 0
-2096 26492 0
-2095 -2096 26493 0
-2097 26494 0
-26491 26494 0
-2097 -26491 26495 0
-26492 26496 0
-26494 26496 0
-26492 -26494 26497 0
-26493 26498 0
-26495 26498 0
-26493 -26495 26499 0
-26497 26500 0
-26498 26500 0
-26497 -26498 26501 0
-26500 0
2515 2516 2517 0
-26502 0
-2515 26503 0
-2516 26503 0
-2515 -2516 26504 0
-2517 26505 0
-26502 26505 0
-2517 -26502 26506 0
-26503 26507 0
-26505 26507 0
-26503 -26505 26508 0
-26504 26509 0
-26506 26509 0
-26504 -26506 26510 0
-26508 26511 0
-26509 26511 0
-26508 -26509 26512 0
-26511 0
2935 2936 2937 0
-26513 0
-2935 26514 0
-2936 26514 0
-2935 -2936 26515 0
-2937 26516 0
-26513 26516 0
-2937 -26513 26517 0
-26514 26518 0
-26516 26518 0
-26514 -26516 26519 0
-26515 26520 0
-26517 26520 0
-26515 -26517 26521 0
-26519 26522 0
-26520 26522 0
-26519 -26520 26523 0
-26522 0
418 419 420 0
-26524 0
-418 26525 0
-419 26525 0
-418 -419 26526 0
-420 26527 0
-26524 26527 0
-420 -26524 26528 0
-26525 26529 0
-26527 26529 0
-26525 -26527 26530 0
-26526 26531 0
-26528 26531 0
-26526 -26528 26532 0
-26530 26533 0
-26531 26533 0
-26530 -26531 26534 0
-26533 0
838 839 840 0
-26535 0
-838 26536 0
-839 26536 0
-838 -839 26537 0
-840 26538 0
-26535 26538 0
-840 -26535 26539 0
-26536 26540 0
-26538 26540 0
-26536 -26538 26541 0
-26537 26542 0
-26539 26542 0
-26537 -26539 26543 0
-26541 26544 0
-26542 26544 0
-26541 -26542 26545 0
-26544 0
1258 1259 1260 0
-26546 0
-1258 26547 0
-1259 26547 0
-1258 -1259 26548 0
-1260 26549 0
-26546 26549 0
-1260 -26546 26550 0
-26547 26551 0
-26549 26551 0
-26547 -26549 26552 0
-26548 26553 0
-26550 26553 0
-26548 -26550 26554 0
-26552 26555 0
-26553 26555 0
-26552 -26553 26556 0
-26555 0
1678 1679 1680 0
-26557 0
-1678 26558 0
-1679 26558 0
-1678 -1679 26559 0
-1680 26560 0
-26557 26560 0
-1680 -26557 26561 0
-26558 26562 0
-26560 26562 0
-26558 -26560 26563 0
-26559 26564 0
-26561 26564 0
-26559 -26561 26565 0
-26563 26566 0
-26564 26566 0
-26563 -26564 26567 0
-26566 0
2098 2099 2100 0
-26568 0
-2098 26569 0
-2099 26569 0
-2098 -2099 26570 0
-2100 26571 0
-26568 26571 0
-2100 -26568 26572 0
-26569 26573 0
-26571 26573 0
-26569 -26571 26574 0
-26570 26575 0
-26572 26575 0
-26570 -26572 26576 0
-26574 26577 0
-26575 26577 0
-26574 -26575 26578 0
-26577 0
2518 2519 2520 0
-26579 0
-2518 26580 0
-2519 26580 0
-2518 -2519 26581 0
-2520 26582 0
-26579 26582 0
-2520 -26579 26583 0
-26580 26584 0
-26582 26584 0
-26580 -26582 26585 0
-26581 26586 0
-26583 26586 0
-26581 -26583 26587 0
-26585 26588 0
-26586 26588 0
-26585 -26586 26589 0
-26588 0
2938 2939 2940 0
-26590 0
-2938 26591 0
-2939 26591 0
-2938 -2939 26592 0
-2940 26593 0
-26590 26593 0
-2940 -26590 26594 0
-26591 26595 0
-26593 26595 0
-26591 -26593 26596 0
-26592 26597 0
-26594 26597 0
-26592 -26594 26598 0
-26596 26599 0
-26597 26599 0
-26596 -26597 26600 0
-26599 0
-2941 7841 7842 7843 0
2941 -7841 0
7841 -1 -422 0
-7841 422 0
-7841 1 0
2941 -7842 0
7842 -2 -423 0
-7842 423 0
-7842 2 0
2941 -7843 0
7843 -3 -421 0
-7843 421 0
-7843 3 0
-3081 8261 8262 8263 0
3081 -8261 0
8261 -421 -842 0
-8261 842 0
-8261 421 0
3081 -8262 0
8262 -422 -843 0
-8262 843 0
-8262 422 0
3081 -8263 0
8263 -423 -841 0
-8263 841 0
-8263 423 0
-3221 8681 8682 8683 0
3221 -8681 0
8681 -841 -1262 0
-8681 1262 0
-8681 841 0
3221 -8682 0
8682 -842 -1263 0
-8682 1263 0
-8682 842 0
3221 -8683 0
8683 -843 -1261 0
-8683 1261 0
-8683 843 0
-3361 9101 9102 9103 0
3361 -9101 0
9101 -1261 -1682 0
-9101 1682 0
-9101 1261 0
3361 -9102 0
9102 -1262 -1683 0
-9102 1683 0
-9102 1262 0
3361 -9103 0
9103 -1263 -1681 0
-9103 1681 0
-9103 1263 0
-3501 9521 9522 9523 0
3501 -9521 0
9521 -1681 -2102 0
-9521 2102 0
-9521 1681 0
3501 -9522 0
9522 -1682 -2103 0
-9522 2103 0
-9522 1682 0
3501 -9523 0
9523 -1683 -2101 0
-9523 2101 0
-9523 1683 0
-3641 9941 9942 9943 0
3641 -9941 0
9941 -2101 -2522 0
-9941 2522 0
-9941 2101 0
3641 -9942 0
9942 -2102 -2523 0
-9942 2523 0
-9942 2102 0
3641 -9943 0
9943 -2103 -2521 0
-9943 2521 0
-9943 2103 0
-4061 5321 5322 5323 0
4061 -5321 0
4061 -5322 0
4061 -5323 0
-4201 5741 5742 5743 0
4201 -5741 0
4201 -5742 0
4201 -5743 0
-4341 6161 6162 6163 0
4341 -6161 0
4341 -6162 0
4341 -6163 0
-4481 6581 6582 6583 0
4481 -6581 0
4481 -6582 0
4481 -6583 0
-4621 7001 7002 7003 0
4621 -7001 0
4621 -7002 0
4621 -7003 0
-4761 7421 7422 7423 0
4761 -7421 0
4761 -7422 0
4761 -7423 0
5321 -421 -2 0
-5321 2 0
-5321 421 0
5322 -422 -3 0
-5322 3 0
-5322 422 0
5323 -423 -1 0
-5323 1 0
-5323 423 0
5741 -841 -422 0
-5741 422 0
-5741 841 0
5742 -842 -423 0
-5742 423 0
-5742 842 0
5743 -843 -421 0
-5743 421 0
-5743 843 0
6161 -1261 -842 0
-6161 842 0
-6161 1261 0
6162 -1262 -843 0
-6162 843 0
-6162 1262 0
6163 -1263 -841 0
-6163 841 0
-6163 1263 0
6581 -1681 -1262 0
-6581 1262 0
-6581 1681 0
6582 -1682 -1263 0
-6582 1263 0
-6582 1682 0
6583 -1683 -1261 0
-6583 1261 0
-6583 1683 0
7001 -2101 -1682 0
-7001 1682 0
-7001 2101 0
7002 -2102 -1683 0
-7002 1683 0
-7002 2102 0
7003 -2103 -1681 0
-7003 1681 0
-7003 2103 0
-7421 1 0
-7421 2101 0
-7421 -2522 0
7421 -1 -2101 2522 0
-7422 2 0
-7422 2102 0
-7422 -2523 0
7422 -2 -2102 2523 0
-7423 3 0
-7423 2103 0
-7423 -2521 0
7423 -3 -2103 2521 0
-2942 7844 7845 7846 0
2942 -7844 0
7844 -4 -425 0
-7844 425 0
-7844 4 0
2942 -7845 0
7845 -5 -426 0
-7845 426 0
-7845 5 0
2942 -7846 0
7846 -6 -424 0
-7846 424 0
-7846 6 0
-3082 8264 8265 8266 0
3082 -8264 0
8264 -424 -845 0
-8264 845 0
-8264 424 0
3082 -8265 0
8265 -425 -846 0
-8265 846 0
-8265 425 0
3082 -8266 0
8266 -426 -844 0
-8266 844 0
-8266 426 0
-3222 8684 8685 8686 0
3222 -8684 0
8684 -844 -1265 0
-8684 1265 0
-8684 844 0
3222 -8685 0
8685 -845 -1266 0
-8685 1266 0
-8685 845 0
3222 -8686 0
8686 -846 -1264 0
-8686 1264 0
-8686 846 0
-3362 9104 9105 9106 0
3362 -9104 0
9104 -1264 -1685 0
-9104 1685 0
-9104 1264 0
3362 -9105 0
9105 -1265 -1686 0
-9105 1686 0
-9105 1265 0
3362 -9106 0
9106 -1266 -1684 0
-9106 1684 0
-9106 1266 0
-3502 9524 9525 9526 0
3502 -9524 0
9524 -1684 -2105 0
-9524 2105 0
-9524 1684 0
3502 -9525 0
9525 -1685 -2106 0
-9525 2106 0
-9525 1685 0
3502 -9526 0
9526 -1686 -2104 0
-9526 2104 0
-9526 1686 0
-3642 9944 9945 9946 0
3642 -9944 0
9944 -2104 -2525 0
-9944 2525 0
-9944 2104 0
3642 -9945 0
9945 -2105 -2526 0
-9945 2526 0
-9945 2105 0
3642 -9946 0
9946 -2106 -2524 0
-9946 2524 0
-9946 2106 0
-4062 5324 5325 5326 0
4062 -5324 0
4062 -5325 0
4062 -5326 0
-4202 5744 5745 5746 0
4202 -5744 0
4202 -5745 0
4202 -5746 0
-4342 6164 6165 6166 0
4342 -6164 0
4342 -6165 0
4342 -6166 0
-4482 6584 6585 6586 0
4482 -6584 0
4482 -6585 0
4482 -6586 0
-4622 7004 7005 7006 0
4622 -7004 0
4622 -7005 0
4622 -7006 0
-4762 7424 7425 7426 0
4762 -7424 0
4762 -7425 0
4762 -7426 0
5324 -424 -5 0
-5324 5 0
-5324 424 0
5325 -425 -6 0
-5325 6 0
-5325 425 0
5326 -426 -4 0
-5326 4 0
-5326 426 0
5744 -844 -425 0
-5744 425 0
-5744 844 0
5745 -845 -426 0
-5745 426 0
-5745 845 0
5746 -846 -424 0
-5746 424 0
-5746 846 0
6164 -1264 -845 0
-6164 845 0
-6164 1264 0
6165 -1265 -846 0
-6165 846 0
-6165 1265 0
6166 -1266 -844 0
-6166 844 0
-6166 1266 0
6584 -1684 -1265 0
-6584 1265 0
-6584 1684 0
6585 -1685 -1266 0
-6585 1266 0
-6585 1685 0
6586 -1686 -1264 0
-6586 1264 0
-6586 1686 0
7004 -2104 -1685 0
-7004 1685 0
-7004 2104 0
7005 -2105 -1686 0
-7005 1686 0
-7005 2105 0
7006 -2106 -1684 0
-7006 1684 0
-7006 2106 0
-7424 4 0
-7424 2104 0
-7424 -2525 0
7424 -4 -2104 2525 0
-7425 5 0
-7425 2105 0
-7425 -2526 0
7425 -5 -2105 2526 0
-7426 6 0
-7426 2106 0
-7426 -2524 0
7426 -6 -2106 2524 0
-2943 7847 7848 7849 0
2943 -7847 0
7847 -7 -428 0
-7847 428 0
-7847 7 0
2943 -7848 0
7848 -8 -429 0
-7848 429 0
-7848 8 0
2943 -7849 0
7849 -9 -427 0
-7849 427 0
-7849 9 0
-3083 8267 8268 8269 0
3083 -8267 0
8267 -427 -848 0
-8267 848 0
-8267 427 0
3083 -8268 0
8268 -428 -849 0
-8268 849 0
-8268 428 0
3083 -8269 0
8269 -429 -847 0
-8269 847 0
-8269 429 0
-3223 8687 8688 8689 0
3223 -8687 0
8687 -847 -1268 0
-8687 1268 0
-8687 847 0
3223 -8688 0
8688 -848 -1269 0
-8688 1269 0
-8688 848 0
3223 -8689 0
8689 -849 -1267 0
-8689 1267 0
-8689 849 0
-3363 9107 9108 9109 0
3363 -9107 0
9107 -1267 -1688 0
-9107 1688 0
-9107 1267 0
3363 -9108 0
9108 -1268 -1689 0
-9108 1689 0
-9108 1268 0
3363 -9109 0
9109 -1269 -1687 0
-9109 1687 0
-9109 1269 0
-3503 9527 9528 9529 0
3503 -9527 0
9527 -1687 -2108 0
-9527 2108 0
-9527 1687 0
3503 -9528 0
9528 -1688 -2109 0
-9528 2109 0
-9528 1688 0
3503 -9529 0
9529 -1689 -2107 0
-9529 2107 0
-9529 1689 0
-3643 9947 9948 9949 0
3643 -9947 0
9947 -2107 -2528 0
-9947 2528 0
-9947 2107 0
3643 -9948 0
9948 -2108 -2529 0
-9948 2529 0
-9948 2108 0
3643 -9949 0
9949 -2109 -2527 0
-9949 2527 0
-9949 2109 0
-4063 5327 5328 5329 0
4063 -5327 0
4063 -5328 0
4063 -5329 0
-4203 5747 5748 5749 0
4203 -5747 0
4203 -5748 0
4203 -5749 0
-4343 6167 6168 6169 0
4343 -6167 0
4343 -6168 0
4343 -6169 0
-4483 6587 6588 6589 0
4483 -6587 0
4483 -6588 0
4483 -6589 0
-4623 7007 7008 7009 0
4623 -7007 0
4623 -7008 0
4623 -7009 0
-4763 7427 7428 7429 0
4763 -7427 0
4763 -7428 0
4763 -7429 0
5327 -427 -8 0
-5327 8 0
-5327 427 0
5328 -428 -9 0
-5328 9 0
-5328 428 0
5329 -429 -7 0
-5329 7 0
-5329 429 0
5747 -847 -428 0
-5747 428 0
-5747 847 0
5748 -848 -429 0
-5748 429 0
-5748 848 0
5749 -849 -427 0
-5749 427 0
-5749 849 0
6167 -1267 -848 0
-6167 848 0
-6167 1267 0
6168 -1268 -849 0
-6168 849 0
-6168 1268 0
6169 -1269 -847 0
-6169 847 0
-6169 1269 0
6587 -1687 -1268 0
-6587 1268 0
-6587 1687 0
6588 -1688 -1269 0
-6588 1269 0
-6588 1688 0
6589 -1689 -1267 0
-6589 1267 0
-6589 1689 0
7007 -2107 -1688 0
-7007 1688 0
-7007 2107 0
7008 -2108 -1689 0
-7008 1689 0
-7008 2108 0
7009 -2109 -1687 0
-7009 1687 0
-7009 2109 0
-7427 7 0
-7427 2107 0
-7427 -2528 0
7427 -7 -2107 2528 0
-7428 8 0
-7428 2108 0
-7428 -2529 0
7428 -8 -2108 2529 0
-7429 9 0
-7429 2109 0
-7429 -2527 0
7429 -9 -2109 2527 0
-2944 7850 7851 7852 0
2944 -7850 0
7850 -10 -431 0
-7850 431 0
-7850 10 0
2944 -7851 0
7851 -11 -432 0
-7851 432 0
-7851 11 0
2944 -7852 0
7852 -12 -430 0
-7852 430 0
-7852 12 0
-3084 8270 8271 8272 0
3084 -8270 0
8270 -430 -851 0
-8270 851 0
-8270 430 0
3084 -8271 0
8271 -431 -852 0
-8271 852 0
-8271 431 0
3084 -8272 0
8272 -432 -850 0
-8272 850 0
-8272 432 0
-3224 8690 8691 8692 0
3224 -8690 0
8690 -850 -1271 0
-8690 1271 0
-8690 850 0
3224 -8691 0
8691 -851 -1272 0
-8691 1272 0
-8691 851 0
3224 -8692 0
8692 -852 -1270 0
-8692 1270 0
-8692 852 0
-3364 9110 9111 9112 0
3364 -9110 0
9110 -1270 -1691 0
-9110 1691 0
-9110 1270 0
3364 -9111 0
9111 -1271 -1692 0
-9111 1692 0
-9111 1271 0
3364 -9112 0
9112 -1272 -1690 0
-9112 1690 0
-9112 1272 0
-3504 9530 9531 9532 0
3504 -9530 0
9530 -1690 -2111 0
-9530 2111 0
-9530 1690 0
3504 -9531 0
9531 -1691 -2112 0
-9531 2112 0
-9531 1691 0
3504 -9532 0
9532 -1692 -2110 0
-9532 2110 0
-9532 1692 0
-3644 9950 9951 9952 0
3644 -9950 0
9950 -2110 -2531 0
-9950 2531 0
-9950 2110 0
3644 -9951 0
9951 -2111 -2532 0
-9951 2532 0
-9951 2111 0
3644 -9952 0
9952 -2112 -2530 0
-9952 2530 0
-9952 2112 0
-4064 5330 5331 5332 0
4064 -5330 0
4064 -5331 0
4064 -5332 0
-4204 5750 5751 5752 0
4204 -5750 0
4204 -5751 0
4204 -5752 0
-4344 6170 6171 6172 0
4344 -6170 0
4344 -6171 0
4344 -6172 0
-4484 6590 6591 6592 0
4484 -6590 0
4484 -6591 0
4484 -6592 0
-4624 7010 7011 7012 0
4624 -7010 0
4624 -7011 0
4624 -7012 0
-4764 7430 7431 7432 0
4764 -7430 0
4764 -7431 0
4764 -7432 0
5330 -430 -11 0
-5330 11 0
-5330 430 0
5331 -431 -12 0
-5331 12 0
-5331 431 0
5332 -432 -10 0
-5332 10 0
-5332 432 0
5750 -850 -431 0
-5750 431 0
-5750 850 0
5751 -851 -432 0
-5751 432 0
-5751 851 0
5752 -852 -430 0
-5752 430 0
-5752 852 0
6170 -1270 -851 0
-6170 851 0
-6170 1270 0
6171 -1271 -852 0
-6171 852 0
-6171 1271 0
6172 -1272 -850 0
-6172 850 0
-6172 1272 0
6590 -1690 -1271 0
-6590 1271 0
-6590 1690 0
6591 -1691 -1272 0
-6591 1272 0
-6591 1691 0
6592 -1692 -1270 0
-6592 1270 0
-6592 1692 0
7010 -2110 -1691 0
-7010 1691 0
-7010 2110 0
7011 -2111 -1692 0
-7011 1692 0
-7011 2111 0
7012 -2112 -1690 0
-7012 1690 0
-7012 2112 0
-7430 10 0
-7430 2110 0
-7430 -2531 0
7430 -10 -2110 2531 0
-7431 11 0
-7431 2111 0
-7431 -2532 0
7431 -11 -2111 2532 0
-7432 12 0
-7432 2112 0
-7432 -2530 0
7432 -12 -2112 2530 0
-2945 7853 7854 7855 0
2945 -7853 0
7853 -13 -434 0
-7853 434 0
-7853 13 0
2945 -7854 0
7854 -14 -435 0
-7854 435 0
-7854 14 0
2945 -7855 0
7855 -15 -433 0
-7855 433 0
-7855 15 0
-3085 8273 8274 8275 0
3085 -8273 0
8273 -433 -854 0
-8273 854 0
-8273 433 0
3085 -8274 0
8274 -434 -855 0
-8274 855 0
-8274 434 0
3085 -8275 0
8275 -435 -853 0
-8275 853 0
-8275 435 0
-3225 8693 8694 8695 0
3225 -8693 0
8693 -853 -1274 0
-8693 1274 0
-8693 853 0
3225 -8694 0
8694 -854 -1275 0
-8694 1275 0
-8694 854 0
3225 -8695 0
8695 -855 -1273 0
-8695 1273 0
-8695 855 0
-3365 9113 9114 9115 0
3365 -9113 0
9113 -1273 -1694 0
-9113 1694 0
-9113 1273 0
3365 -9114 0
9114 -1274 -1695 0
-9114 1695 0
-9114 1274 0
3365 -9115 0
9115 -1275 -1693 0
-9115 1693 0
-9115 1275 0
-3505 9533 9534 9535 0
3505 -9533 0
9533 -1693 -2114 0
-9533 2114 0
-9533 1693 0
3505 -9534 0
9534 -1694 -2115 0
-9534 2115 0
-9534 1694 0
3505 -9535 0
9535 -1695 -2113 0
-9535 2113 0
-9535 1695 0
-3645 9953 9954 9955 0
3645 -9953 0
9953 -2113 -2534 0
-9953 2534 0
-9953 2113 0
3645 -9954 0
9954 -2114 -2535 0
-9954 2535 0
-9954 2114 0
3645 -9955 0
9955 -2115 -2533 0
-9955 2533 0
-9955 2115 0
-4065 5333 5334 5335 0
4065 -5333 0
4065 -5334 0
4065 -5335 0
-4205 5753 5754 5755 0
4205 -5753 0
4205 -5754 0
4205 -5755 0
-4345 6173 6174 6175 0
4345 -6173 0
4345 -6174 0
4345 -6175 0
-4485 6593 6594 6595 0
4485 -6593 0
4485 -6594 0
4485 -6595 0
-4625 7013 7014 7015 0
4625 -7013 0
4625 -7014 0
4625 -7015 0
-4765 7433 7434 7435 0
4765 -7433 0
4765 -7434 0
4765 -7435 0
5333 -433 -14 0
-5333 14 0
-5333 433 0
5334 -434 -15 0
-5334 15 0
-5334 434 0
5335 -435 -13 0
-5335 13 0
-5335 435 0
5753 -853 -434 0
-5753 434 0
-5753 853 0
5754 -854 -435 0
-5754 435 0
-5754 854 0
5755 -855 -433 0
-5755 433 0
-5755 855 0
6173 -1273 -854 0
-6173 854 0
-6173 1273 0
6174 -1274 -855 0
-6174 855 0
-6174 1274 0
6175 -1275 -853 0
-6175 853 0
-6175 1275 0
6593 -1693 -1274 0
-6593 1274 0
-6593 1693 0
6594 -1694 -1275 0
-6594 1275 0
-6594 1694 0
6595 -1695 -1273 0
-6595 1273 0
-6595 1695 0
7013 -2113 -1694 0
-7013 1694 0
-7013 2113 0
7014 -2114 -1695 0
-7014 1695 0
-7014 2114 0
7015 -2115 -1693 0
-7015 1693 0
-7015 2115 0
-7433 13 0
-7433 2113 0
-7433 -2534 0
7433 -13 -2113 2534 0
-7434 14 0
-7434 2114 0
-7434 -2535 0
7434 -14 -2114 2535 0
-7435 15 0
-7435 2115 0
-7435 -2533 0
7435 -15 -2115 2533 0
-2946 7856 7857 7858 0
2946 -7856 0
7856 -16 -437 0
-7856 437 0
-7856 16 0
2946 -7857 0
7857 -17 -438 0
-7857 438 0
-7857 17 0
2946 -7858 0
7858 -18 -436 0
-7858 436 0
-7858 18 0
-3086 8276 8277 8278 0
3086 -8276 0
8276 -436 -857 0
-8276 857 0
-8276 436 0
3086 -8277 0
8277 -437 -858 0
-8277 858 0
-8277 437 0
3086 -8278 0
8278 -438 -856 0
-8278 856 0
-8278 438 0
-3226 8696 8697 8698 0
3226 -8696 0
8696 -856 -1277 0
-8696 1277 0
-8696 856 0
3226 -8697 0
8697 -857 -1278 0
-8697 1278 0
-8697 857 0
3226 -8698 0
8698 -858 -1276 0
-8698 1276 0
-8698 858 0
-3366 9116 9117 9118 0
3366 -9116 0
9116 -1276 -1697 0
-9116 1697 0
-9116 1276 0
3366 -9117 0
9117 -1277 -1698 0
-9117 1698 0
-9117 1277 0
3366 -9118 0
9118 -1278 -1696 0
-9118 1696 0
-9118 1278 0
-3506 9536 9537 9538 0
3506 -9536 0
9536 -1696 -2117 0
-9536 2117 0
-9536 1696 0
3506 -9537 0
9537 -1697 -2118 0
-9537 2118 0
-9537 1697 0
3506 -9538 0
9538 -1698 -2116 0
-9538 2116 0
-9538 1698 0
-3646 9956 9957 9958 0
3646 -9956 0
9956 -2116 -2537 0
-9956 2537 0
-9956 2116 0
3646 -9957 0
9957 -2117 -2538 0
-9957 2538 0
-9957 2117 0
3646 -9958 0
9958 -2118 -2536 0
-9958 2536 0
-9958 2118 0
-4066 5336 5337 5338 0
4066 -5336 0
4066 -5337 0
4066 -5338 0
-4206 5756 5757 5758 0
4206 -5756 0
4206 -5757 0
4206 -5758 0
-4346 6176 6177 6178 0
4346 -6176 0
4346 -6177 0
4346 -6178 0
-4486 6596 6597 6598 0
4486 -6596 0
4486 -6597 0
4486 -6598 0
-4626 7016 7017 7018 0
4626 -7016 0
4626 -7017 0
4626 -7018 0
-4766 7436 7437 7438 0
4766 -7436 0
4766 -7437 0
4766 -7438 0
5336 -436 -17 0
-5336 17 0
-5336 436 0
5337 -437 -18 0
-5337 18 0
-5337 437 0
5338 -438 -16 0
-5338 16 0
-5338 438 0
5756 -856 -437 0
-5756 437 0
-5756 856 0
5757 -857 -438 0
-5757 438 0
-5757 857 0
5758 -858 -436 0
-5758 436 0
-5758 858 0
6176 -1276 -857 0
-6176 857 0
-6176 1276 0
6177 -1277 -858 0
-6177 858 0
-6177 1277 0
6178 -1278 -856 0
-6178 856 0
-6178 1278 0
6596 -1696 -1277 0
-6596 1277 0
-6596 1696 0
6597 -1697 -1278 0
-6597 1278 0
-6597 1697 0
6598 -1698 -1276 0
-6598 1276 0
-6598 1698 0
7016 -2116 -1697 0
-7016 1697 0
-7016 2116 0
7017 -2117 -1698 0
-7017 1698 0
-7017 2117 0
7018 -2118 -1696 0
-7018 1696 0
-7018 2118 0
-7436 16 0
-7436 2116 0
-7436 -2537 0
7436 -16 -2116 2537 0
-7437 17 0
-7437 2117 0
-7437 -2538 0
7437 -17 -2117 2538 0
-7438 18 0
-7438 2118 0
-7438 -2536 0
7438 -18 -2118 2536 0
-2947 7859 7860 7861 0
2947 -7859 0
7859 -19 -440 0
-7859 440 0
-7859 19 0
2947 -7860 0
7860 -20 -441 0
-7860 441 0
-7860 20 0
2947 -7861 0
7861 -21 -439 0
-7861 439 0
-7861 21 0
-3087 8279 8280 8281 0
3087 -8279 0
8279 -439 -860 0
-8279 860 0
-8279 439 0
3087 -8280 0
8280 -440 -861 0
-8280 861 0
-8280 440 0
3087 -8281 0
8281 -441 -859 0
-8281 859 0
-8281 441 0
-3227 8699 8700 8701 0
3227 -8699 0
8699 -859 -1280 0
-8699 1280 0
-8699 859 0
3227 -8700 0
8700 -860 -1281 0
-8700 1281 0
-8700 860 0
3227 -8701 0
8701 -861 -1279 0
-8701 1279 0
-8701 861 0
-3367 9119 9120 9121 0
3367 -9119 0
9119 -1279 -1700 0
-9119 1700 0
-9119 1279 0
3367 -9120 0
9120 -1280 -1701 0
-9120 1701 0
-9120 1280 0
3367 -9121 0
9121 -1281 -1699 0
-9121 1699 0
-9121 1281 0
-3507 9539 9540 9541 0
3507 -9539 0
9539 -1699 -2120 0
-9539 2120 0
-9539 1699 0
3507 -9540 0
9540 -1700 -2121 0
-9540 2121 0
-9540 1700 0
3507 -9541 0
9541 -1701 -2119 0
-9541 2119 0
-9541 1701 0
-3647 9959 9960 9961 0
3647 -9959 0
9959 -2119 -2540 0
-9959 2540 0
-9959 2119 0
3647 -9960 0
9960 -2120 -2541 0
-9960 2541 0
-9960 2120 0
3647 -9961 0
9961 -2121 -2539 0
-9961 2539 0
-9961 2121 0
-4067 5339 5340 5341 0
4067 -5339 0
4067 -5340 0
4067 -5341 0
-4207 5759 5760 5761 0
4207 -5759 0
4207 -5760 0
4207 -5761 0
-4347 6179 6180 6181 0
4347 -6179 0
4347 -6180 0
4347 -6181 0
-4487 6599 6600 6601 0
4487 -6599 0
4487 -6600 0
4487 -6601 0
-4627 7019 7020 7021 0
4627 -7019 0
4627 -7020 0
4627 -7021 0
-4767 7439 7440 7441 0
4767 -7439 0
4767 -7440 0
4767 -7441 0
5339 -439 -20 0
-5339 20 0
-5339 439 0
5340 -440 -21 0
-5340 21 0
-5340 440 0
5341 -441 -19 0
-5341 19 0
-5341 441 0
5759 -859 -440 0
-5759 440 0
-5759 859 0
5760 -860 -441 0
-5760 441 0
-5760 860 0
5761 -861 -439 0
-5761 439 0
-5761 861 0
6179 -1279 -860 0
-6179 860 0
-6179 1279 0
6180 -1280 -861 0
-6180 861 0
-6180 1280 0
6181 -1281 -859 0
-6181 859 0
-6181 1281 0
6599 -1699 -1280 0
-6599 1280 0
-6599 1699 0
6600 -1700 -1281 0
-6600 1281 0
-6600 1700 0
6601 -1701 -1279 0
-6601 1279 0
-6601 1701 0
7019 -2119 -1700 0
-7019 1700 0
-7019 2119 0
7020 -2120 -1701 0
-7020 1701 0
-7020 2120 0
7021 -2121 -1699 0
-7021 1699 0
-7021 2121 0
-7439 19 0
-7439 2119 0
-7439 -2540 0
7439 -19 -2119 2540 0
-7440 20 0
-7440 2120 0
-7440 -2541 0
7440 -20 -2120 2541 0
-7441 21 0
-7441 2121 0
-7441 -2539 0
7441 -21 -2121 2539 0
-2948 7862 7863 7864 0
2948 -7862 0
7862 -22 -443 0
-7862 443 0
-7862 22 0
2948 -7863 0
7863 -23 -444 0
-7863 444 0
-7863 23 0
2948 -7864 0
7864 -24 -442 0
-7864 442 0
-7864 24 0
-3088 8282 8283 8284 0
3088 -8282 0
8282 -442 -863 0
-8282 863 0
-8282 442 0
3088 -8283 0
8283 -443 -864 0
-8283 864 0
-8283 443 0
3088 -8284 0
8284 -444 -862 0
-8284 862 0
-8284 444 0
-3228 8702 8703 8704 0
3228 -8702 0
8702 -862 -1283 0
-8702 1283 0
-8702 862 0
3228 -8703 0
8703 -863 -1284 0
-8703 1284 0
-8703 863 0
3228 -8704 0
8704 -864 -1282 0
-8704 1282 0
-8704 864 0
-3368 9122 9123 9124 0
3368 -9122 0
9122 -1282 -1703 0
-9122 1703 0
-9122 1282 0
3368 -9123 0
9123 -1283 -1704 0
-9123 1704 0
-9123 1283 0
3368 -9124 0
9124 -1284 -1702 0
-9124 1702 0
-9124 1284 0
-3508 9542 9543 9544 0
3508 -9542 0
9542 -1702 -2123 0
-9542 2123 0
-9542 1702 0
3508 -9543 0
9543 -1703 -2124 0
-9543 2124 0
-9543 1703 0
3508 -9544 0
9544 -1704 -2122 0
-9544 2122 0
-9544 1704 0
-3648 9962 9963 9964 0
3648 -9962 0
9962 -2122 -2543 0
-9962 2543 0
-9962 2122 0
3648 -9963 0
9963 -2123 -2544 0
-9963 2544 0
-9963 2123 0
3648 -9964 0
9964 -2124 -2542 0
-9964 2542 0
-9964 2124 0
-4068 5342 5343 5344 0
4068 -5342 0
4068 -5343 0
4068 -5344 0
-4208 5762 5763 5764 0
4208 -5762 0
4208 -5763 0
4208 -5764 0
-4348 6182 6183 6184 0
4348 -6182 0
4348 -6183 0
4348 -6184 0
-4488 6602 6603 6604 0
4488 -6602 0
4488 -6603 0
4488 -6604 0
-4628 7022 7023 7024 0
4628 -7022 0
4628 -7023 0
4628 -7024 0
-4768 7442 7443 7444 0
4768 -7442 0
4768 -7443 0
4768 -7444 0
5342 -442 -23 0
-5342 23 0
-5342 442 0
5343 -443 -24 0
-5343 24 0
-5343 443 0
5344 -444 -22 0
-5344 22 0
-5344 444 0
5762 -862 -443 0
-5762 443 0
-5762 862 0
5763 -863 -444 0
-5763 444 0
-5763 863 0
5764 -864 -442 0
-5764 442 0
-5764 864 0
6182 -1282 -863 0
-6182 863 0
-6182 1282 0
6183 -1283 -864 0
-6183 864 0
-6183 1283 0
6184 -1284 -862 0
-6184 862 0
-6184 1284 0
6602 -1702 -1283 0
-6602 1283 0
-6602 1702 0
6603 -1703 -1284 0
-6603 1284 0
-6603 1703 0
6604 -1704 -1282 0
-6604 1282 0
-6604 1704 0
7022 -2122 -1703 0
-7022 1703 0
-7022 2122 0
7023 -2123 -1704 0
-7023 1704 0
-7023 2123 0
7024 -2124 -1702 0
-7024 1702 0
-7024 2124 0
-7442 22 0
-7442 2122 0
-7442 -2543 0
7442 -22 -2122 2543 0
-7443 23 0
-7443 2123 0
-7443 -2544 0
7443 -23 -2123 2544 0
-7444 24 0
-7444 2124 0
-7444 -2542 0
7444 -24 -2124 2542 0
-2949 7865 7866 7867 0
2949 -7865 0
7865 -25 -446 0
-7865 446 0
-7865 25 0
2949 -7866 0
7866 -26 -447 0
-7866 447 0
-7866 26 0
2949 -7867 0
7867 -27 -445 0
-7867 445 0
-7867 27 0
-3089 8285 8286 8287 0
3089 -8285 0
8285 -445 -866 0
-8285 866 0
-8285 445 0
3089 -8286 0
8286 -446 -867 0
-8286 867 0
-8286 446 0
3089 -8287 0
8287 -447 -865 0
-8287 865 0
-8287 447 0
-3229 8705 8706 8707 0
3229 -8705 0
8705 -865 -1286 0
-8705 1286 0
-8705 865 0
3229 -8706 0
8706 -866 -1287 0
-8706 1287 0
-8706 866 0
3229 -8707 0
8707 -867 -1285 0
-8707 1285 0
-8707 867 0
-3369 9125 9126 9127 0
3369 -9125 0
9125 -1285 -1706 0
-9125 1706 0
-9125 1285 0
3369 -9126 0
9126 -1286 -1707 0
-9126 1707 0
-9126 1286 0
3369 -9127 0
9127 -1287 -1705 0
-9127 1705 0
-9127 1287 0
-3509 9545 9546 9547 0
3509 -9545 0
9545 -1705 -2126 0
-9545 2126 0
-9545 1705 0
3509 -9546 0
9546 -1706 -2127 0
-9546 2127 0
-9546 1706 0
3509 -9547 0
9547 -1707 -2125 0
-9547 2125 0
-9547 1707 0
-3649 9965 9966 9967 0
3649 -9965 0
9965 -2125 -2546 0
-9965 2546 0
-9965 2125 0
3649 -9966 0
9966 -2126 -2547 0
-9966 2547 0
-9966 2126 0
3649 -9967 0
9967 -2127 -2545 0
-9967 2545 0
-9967 2127 0
-4069 5345 5346 5347 0
4069 -5345 0
4069 -5346 0
4069 -5347 0
-4209 5765 5766 5767 0
4209 -5765 0
4209 -5766 0
4209 -5767 0
-4349 6185 6186 6187 0
4349 -6185 0
4349 -6186 0
4349 -6187 0
-4489 6605 6606 6607 0
4489 -6605 0
4489 -6606 0
4489 -6607 0
-4629 7025 7026 7027 0
4629 -7025 0
4629 -7026 0
4629 -7027 0
-4769 7445 7446 7447 0
4769 -7445 0
4769 -7446 0
4769 -7447 0
5345 -445 -26 0
-5345 26 0
-5345 445 0
5346 -446 -27 0
-5346 27 0
-5346 446 0
5347 -447 -25 0
-5347 25 0
-5347 447 0
5765 -865 -446 0
-5765 446 0
-5765 865 0
5766 -866 -447 0
-5766 447 0
-5766 866 0
5767 -867 -445 0
-5767 445 0
-5767 867 0
6185 -1285 -866 0
-6185 866 0
-6185 1285 0
6186 -1286 -867 0
-6186 867 0
-6186 1286 0
6187 -1287 -865 0
-6187 865 0
-6187 1287 0
6605 -1705 -1286 0
-6605 1286 0
-6605 1705 0
6606 -1706 -1287 0
-6606 1287 0
-6606 1706 0
6607 -1707 -1285 0
-6607 1285 0
-6607 1707 0
7025 -2125 -1706 0
-7025 1706 0
-7025 2125 0
7026 -2126 -1707 0
-7026 1707 0
-7026 2126 0
7027 -2127 -1705 0
-7027 1705 0
-7027 2127 0
-7445 25 0
-7445 2125 0
-7445 -2546 0
7445 -25 -2125 2546 0
-7446 26 0
-7446 2126 0
-7446 -2547 0
7446 -26 -2126 2547 0
-7447 27 0
-7447 2127 0
-7447 -2545 0
7447 -27 -2127 2545 0
-2950 7868 7869 7870 0
2950 -7868 0
7868 -28 -449 0
-7868 449 0
-7868 28 0
2950 -7869 0
7869 -29 -450 0
-7869 450 0
-7869 29 0
2950 -7870 0
7870 -30 -448 0
-7870 448 0
-7870 30 0
-3090 8288 8289 8290 0
3090 -8288 0
8288 -448 -869 0
-8288 869 0
-8288 448 0
3090 -8289 0
8289 -449 -870 0
-8289 870 0
-8289 449 0
3090 -8290 0
8290 -450 -868 0
-8290 868 0
-8290 450 0
-3230 8708 8709 8710 0
3230 -8708 0
8708 -868 -1289 0
-8708 1289 0
-8708 868 0
3230 -8709 0
8709 -869 -1290 0
-8709 1290 0
-8709 869 0
3230 -8710 0
8710 -870 -1288 0
-8710 1288 0
-8710 870 0
-3370 9128 9129 9130 0
3370 -9128 0
9128 -1288 -1709 0
-9128 1709 0
-9128 1288 0
3370 -9129 0
9129 -1289 -1710 0
-9129 1710 0
-9129 1289 0
3370 -9130 0
9130 -1290 -1708 0
-9130 1708 0
-9130 1290 0
-3510 9548 9549 9550 0
3510 -9548 0
9548 -1708 -2129 0
-9548 2129 0
-9548 1708 0
3510 -9549 0
9549 -1709 -2130 0
-9549 2130 0
-9549 1709 0
3510 -9550 0
9550 -1710 -2128 0
-9550 2128 0
-9550 1710 0
-3650 9968 9969 9970 0
3650 -9968 0
9968 -2128 -2549 0
-9968 2549 0
-9968 2128 0
3650 -9969 0
9969 -2129 -2550 0
-9969 2550 0
-9969 2129 0
3650 -9970 0
9970 -2130 -2548 0
-9970 2548 0
-9970 2130 0
-4070 5348 5349 5350 0
4070 -5348 0
4070 -5349 0
4070 -5350 0
-4210 5768 5769 5770 0
4210 -5768 0
4210 -5769 0
4210 -5770 0
-4350 6188 6189 6190 0
4350 -6188 0
4350 -6189 0
4350 -6190 0
-4490 6608 6609 6610 0
4490 -6608 0
4490 -6609 0
4490 -6610 0
-4630 7028 7029 7030 0
4630 -7028 0
4630 -7029 0
4630 -7030 0
-4770 7448 7449 7450 0
4770 -7448 0
4770 -7449 0
4770 -7450 0
5348 -448 -29 0
-5348 29 0
-5348 448 0
5349 -449 -30 0
-5349 30 0
-5349 449 0
5350 -450 -28 0
-5350 28 0
-5350 450 0
5768 -868 -449 0
-5768 449 0
-5768 868 0
5769 -869 -450 0
-5769 450 0
-5769 869 0
5770 -870 -448 0
-5770 448 0
-5770 870 0
6188 -1288 -869 0
-6188 869 0
-6188 1288 0
6189 -1289 -870 0
-6189 870 0
-6189 1289 0
6190 -1290 -868 0
-6190 868 0
-6190 1290 0
6608 -1708 -1289 0
-6608 1289 0
-6608 1708 0
6609 -1709 -1290 0
-6609 1290 0
-6609 1709 0
6610 -1710 -1288 0
-6610 1288 0
-6610 1710 0
7028 -2128 -1709 0
-7028 1709 0
-7028 2128 0
7029 -2129 -1710 0
-7029 1710 0
-7029 2129 0
7030 -2130 -1708 0
-7030 1708 0
-7030 2130 0
-7448 28 0
-7448 2128 0
-7448 -2549 0
7448 -28 -2128 2549 0
-7449 29 0
-7449 2129 0
-7449 -2550 0
7449 -29 -2129 2550 0
-7450 30 0
-7450 2130 0
-7450 -2548 0
7450 -30 -2130 2548 0
-2951 7871 7872 7873 0
2951 -7871 0
7871 -31 -452 0
-7871 452 0
-7871 31 0
2951 -7872 0
7872 -32 -453 0
-7872 453 0
-7872 32 0
2951 -7873 0
7873 -33 -451 0
-7873 451 0
-7873 33 0
-3091 8291 8292 8293 0
3091 -8291 0
8291 -451 -872 0
-8291 872 0
-8291 451 0
3091 -8292 0
8292 -452 -873 0
-8292 873 0
-8292 452 0
3091 -8293 0
8293 -453 -871 0
-8293 871 0
-8293 453 0
-3231 8711 8712 8713 0
3231 -8711 0
8711 -871 -1292 0
-8711 1292 0
-8711 871 0
3231 -8712 0
8712 -872 -1293 0
-8712 1293 0
-8712 872 0
3231 -8713 0
8713 -873 -1291 0
-8713 1291 0
-8713 873 0
-3371 9131 9132 9133 0
3371 -9131 0
9131 -1291 -1712 0
-9131 1712 0
-9131 1291 0
3371 -9132 0
9132 -1292 -1713 0
-9132 1713 0
-9132 1292 0
3371 -9133 0
9133 -1293 -1711 0
-9133 1711 0
-9133 1293 0
-3511 9551 9552 9553 0
3511 -9551 0
9551 -1711 -2132 0
-9551 2132 0
-9551 1711 0
3511 -9552 0
9552 -1712 -2133 0
-9552 2133 0
-9552 1712 0
3511 -9553 0
9553 -1713 -2131 0
-9553 2131 0
-9553 1713 0
-3651 9971 9972 9973 0
3651 -9971 0
9971 -2131 -2552 0
-9971 2552 0
-9971 2131 0
3651 -9972 0
9972 -2132 -2553 0
-9972 2553 0
-9972 2132 0
3651 -9973 0
9973 -2133 -2551 0
-9973 2551 0
-9973 2133 0
-4071 5351 5352 5353 0
4071 -5351 0
4071 -5352 0
4071 -5353 0
-4211 5771 5772 5773 0
4211 -5771 0
4211 -5772 0
4211 -5773 0
-4351 6191 6192 6193 0
4351 -6191 0
4351 -6192 0
4351 -6193 0
-4491 6611 6612 6613 0
4491 -6611 0
4491 -6612 0
4491 -6613 0
-4631 7031 7032 7033 0
4631 -7031 0
4631 -7032 0
4631 -7033 0
-4771 7451 7452 7453 0
4771 -7451 0
4771 -7452 0
4771 -7453 0
5351 -451 -32 0
-5351 32 0
-5351 451 0
5352 -452 -33 0
-5352 33 0
-5352 452 0
5353 -453 -31 0
-5353 31 0
-5353 453 0
5771 -871 -452 0
-5771 452 0
-5771 871 0
5772 -872 -453 0
-5772 453 0
-5772 872 0
5773 -873 -451 0
-5773 451 0
-5773 873 0
6191 -1291 -872 0
-6191 872 0
-6191 1291 0
6192 -1292 -873 0
-6192 873 0
-6192 1292 0
6193 -1293 -871 0
-6193 871 0
-6193 1293 0
6611 -1711 -1292 0
-6611 1292 0
-6611 1711 0
6612 -1712 -1293 0
-6612 1293 0
-6612 1712 0
6613 -1713 -1291 0
-6613 1291 0
-6613 1713 0
7031 -2131 -1712 0
-7031 1712 0
-7031 2131 0
7032 -2132 -1713 0
-7032 1713 0
-7032 2132 0
7033 -2133 -1711 0
-7033 1711 0
-7033 2133 0
-7451 31 0
-7451 2131 0
-7451 -2552 0
7451 -31 -2131 2552 0
-7452 32 0
-7452 2132 0
-7452 -2553 0
7452 -32 -2132 2553 0
-7453 33 0
-7453 2133 0
-7453 -2551 0
7453 -33 -2133 2551 0
-2952 7874 7875 7876 0
2952 -7874 0
7874 -34 -455 0
-7874 455 0
-7874 34 0
2952 -7875 0
7875 -35 -456 0
-7875 456 0
-7875 35 0
2952 -7876 0
7876 -36 -454 0
-7876 454 0
-7876 36 0
-3092 8294 8295 8296 0
3092 -8294 0
8294 -454 -875 0
-8294 875 0
-8294 454 0
3092 -8295 0
8295 -455 -876 0
-8295 876 0
-8295 455 0
3092 -8296 0
8296 -456 -874 0
-8296 874 0
-8296 456 0
-3232 8714 8715 8716 0
3232 -8714 0
8714 -874 -1295 0
-8714 1295 0
-8714 874 0
3232 -8715 0
8715 -875 -1296 0
-8715 1296 0
-8715 875 0
3232 -8716 0
8716 -876 -1294 0
-8716 1294 0
-8716 876 0
-3372 9134 9135 9136 0
3372 -9134 0
9134 -1294 -1715 0
-9134 1715 0
-9134 1294 0
3372 -9135 0
9135 -1295 -1716 0
-9135 1716 0
-9135 1295 0
3372 -9136 0
9136 -1296 -1714 0
-9136 1714 0
-9136 1296 0
-3512 9554 9555 9556 0
3512 -9554 0
9554 -1714 -2135 0
-9554 2135 0
-9554 1714 0
3512 -9555 0
9555 -1715 -2136 0
-9555 2136 0
-9555 1715 0
3512 -9556 0
9556 -1716 -2134 0
-9556 2134 0
-9556 1716 0
-3652 9974 9975 9976 0
3652 -9974 0
9974 -2134 -2555 0
-9974 2555 0
-9974 2134 0
3652 -9975 0
9975 -2135 -2556 0
-9975 2556 0
-9975 2135 0
3652 -9976 0
9976 -2136 -2554 0
-9976 2554 0
-9976 2136 0
-4072 5354 5355 5356 0
4072 -5354 0
4072 -5355 0
4072 -5356 0
-4212 5774 5775 5776 0
4212 -5774 0
4212 -5775 0
4212 -5776 0
-4352 6194 6195 6196 0
4352 -6194 0
4352 -6195 0
4352 -6196 0
-4492 6614 6615 6616 0
4492 -6614 0
4492 -6615 0
4492 -6616 0
-4632 7034 7035 7036 0
4632 -7034 0
4632 -7035 0
4632 -7036 0
-4772 7454 7455 7456 0
4772 -7454 0
4772 -7455 0
4772 -7456 0
5354 -454 -35 0
-5354 35 0
-5354 454 0
5355 -455 -36 0
-5355 36 0
-5355 455 0
5356 -456 -34 0
-5356 34 0
-5356 456 0
5774 -874 -455 0
-5774 455 0
-5774 874 0
5775 -875 -456 0
-5775 456 0
-5775 875 0
5776 -876 -454 0
-5776 454 0
-5776 876 0
6194 -1294 -875 0
-6194 875 0
-6194 1294 0
6195 -1295 -876 0
-6195 876 0
-6195 1295 0
6196 -1296 -874 0
-6196 874 0
-6196 1296 0
6614 -1714 -1295 0
-6614 1295 0
-6614 1714 0
6615 -1715 -1296 0
-6615 1296 0
-6615 1715 0
6616 -1716 -1294 0
-6616 1294 0
-6616 1716 0
7034 -2134 -1715 0
-7034 1715 0
-7034 2134 0
7035 -2135 -1716 0
-7035 1716 0
-7035 2135 0
7036 -2136 -1714 0
-7036 1714 0
-7036 2136 0
-7454 34 0
-7454 2134 0
-7454 -2555 0
7454 -34 -2134 2555 0
-7455 35 0
-7455 2135 0
-7455 -2556 0
7455 -35 -2135 2556 0
-7456 36 0
-7456 2136 0
-7456 -2554 0
7456 -36 -2136 2554 0
-2953 7877 7878 7879 0
2953 -7877 0
7877 -37 -458 0
-7877 458 0
-7877 37 0
2953 -7878 0
7878 -38 -459 0
-7878 459 0
-7878 38 0
2953 -7879 0
7879 -39 -457 0
-7879 457 0
-7879 39 0
-3093 8297 8298 8299 0
3093 -8297 0
8297 -457 -878 0
-8297 878 0
-8297 457 0
3093 -8298 0
8298 -458 -879 0
-8298 879 0
-8298 458 0
3093 -8299 0
8299 -459 -877 0
-8299 877 0
-8299 459 0
-3233 8717 8718 8719 0
3233 -8717 0
8717 -877 -1298 0
-8717 1298 0
-8717 877 0
3233 -8718 0
8718 -878 -1299 0
-8718 1299 0
-8718 878 0
3233 -8719 0
8719 -879 -1297 0
-8719 1297 0
-8719 879 0
-3373 9137 9138 9139 0
3373 -9137 0
9137 -1297 -1718 0
-9137 1718 0
-9137 1297 0
3373 -9138 0
9138 -1298 -1719 0
-9138 1719 0
-9138 1298 0
3373 -9139 0
9139 -1299 -1717 0
-9139 1717 0
-9139 1299 0
-3513 9557 9558 9559 0
3513 -9557 0
9557 -1717 -2138 0
-9557 2138 0
-9557 1717 0
3513 -9558 0
9558 -1718 -2139 0
-9558 2139 0
-9558 1718 0
3513 -9559 0
9559 -1719 -2137 0
-9559 2137 0
-9559 1719 0
-3653 9977 9978 9979 0
3653 -9977 0
9977 -2137 -2558 0
-9977 2558 0
-9977 2137 0
3653 -9978 0
9978 -2138 -2559 0
-9978 2559 0
-9978 2138 0
3653 -9979 0
9979 -2139 -2557 0
-9979 2557 0
-9979 2139 0
-4073 5357 5358 5359 0
4073 -5357 0
4073 -5358 0
4073 -5359 0
-4213 5777 5778 5779 0
4213 -5777 0
4213 -5778 0
4213 -5779 0
-4353 6197 6198 6199 0
4353 -6197 0
4353 -6198 0
4353 -6199 0
-4493 6617 6618 6619 0
4493 -6617 0
4493 -6618 0
4493 -6619 0
-4633 7037 7038 7039 0
4633 -7037 0
4633 -7038 0
4633 -7039 0
-4773 7457 7458 7459 0
4773 -7457 0
4773 -7458 0
4773 -7459 0
5357 -457 -38 0
-5357 38 0
-5357 457 0
5358 -458 -39 0
-5358 39 0
-5358 458 0
5359 -459 -37 0
-5359 37 0
-5359 459 0
5777 -877 -458 0
-5777 458 0
-5777 877 0
5778 -878 -459 0
-5778 459 0
-5778 878 0
5779 -879 -457 0
-5779 457 0
-5779 879 0
6197 -1297 -878 0
-6197 878 0
-6197 1297 0
6198 -1298 -879 0
-6198 879 0
-6198 1298 0
6199 -1299 -877 0
-6199 877 0
-6199 1299 0
6617 -1717 -1298 0
-6617 1298 0
-6617 1717 0
6618 -1718 -1299 0
-6618 1299 0
-6618 1718 0
6619 -1719 -1297 0
-6619 1297 0
-6619 1719 0
7037 -2137 -1718 0
-7037 1718 0
-7037 2137 0
7038 -2138 -1719 0
-7038 1719 0
-7038 2138 0
7039 -2139 -1717 0
-7039 1717 0
-7039 2139 0
-7457 37 0
-7457 2137 0
-7457 -2558 0
7457 -37 -2137 2558 0
-7458 38 0
-7458 2138 0
-7458 -2559 0
7458 -38 -2138 2559 0
-7459 39 0
-7459 2139 0
-7459 -2557 0
7459 -39 -2139 2557 0
-2954 7880 7881 7882 0
2954 -7880 0
7880 -40 -461 0
-7880 461 0
-7880 40 0
2954 -7881 0
7881 -41 -462 0
-7881 462 0
-7881 41 0
2954 -7882 0
7882 -42 -460 0
-7882 460 0
-7882 42 0
-3094 8300 8301 8302 0
3094 -8300 0
8300 -460 -881 0
-8300 881 0
-8300 460 0
3094 -8301 0
8301 -461 -882 0
-8301 882 0
-8301 461 0
3094 -8302 0
8302 -462 -880 0
-8302 880 0
-8302 462 0
-3234 8720 8721 8722 0
3234 -8720 0
8720 -880 -1301 0
-8720 1301 0
-8720 880 0
3234 -8721 0
8721 -881 -1302 0
-8721 1302 0
-8721 881 0
3234 -8722 0
8722 -882 -1300 0
-8722 1300 0
-8722 882 0
-3374 9140 9141 9142 0
3374 -9140 0
9140 -1300 -1721 0
-9140 1721 0
-9140 1300 0
3374 -9141 0
9141 -1301 -1722 0
-9141 1722 0
-9141 1301 0
3374 -9142 0
9142 -1302 -1720 0
-9142 1720 0
-9142 1302 0
-3514 9560 9561 9562 0
3514 -9560 0
9560 -1720 -2141 0
-9560 2141 0
-9560 1720 0
3514 -9561 0
9561 -1721 -2142 0
-9561 2142 0
-9561 1721 0
3514 -9562 0
9562 -1722 -2140 0
-9562 2140 0
-9562 1722 0
-3654 9980 9981 9982 0
3654 -9980 0
9980 -2140 -2561 0
-9980 2561 0
-9980 2140 0
3654 -9981 0
9981 -2141 -2562 0
-9981 2562 0
-9981 2141 0
3654 -9982 0
9982 -2142 -2560 0
-9982 2560 0
-9982 2142 0
-4074 5360 5361 5362 0
4074 -5360 0
4074 -5361 0
4074 -5362 0
-4214 5780 5781 5782 0
4214 -5780 0
4214 -5781 0
4214 -5782 0
-4354 6200 6201 6202 0
4354 -6200 0
4354 -6201 0
4354 -6202 0
-4494 6620 6621 6622 0
4494 -6620 0
4494 -6621 0
4494 -6622 0
-4634 7040 7041 7042 0
4634 -7040 0
4634 -7041 0
4634 -7042 0
-4774 7460 7461 7462 0
4774 -7460 0
4774 -7461 0
4774 -7462 0
5360 -460 -41 0
-5360 41 0
-5360 460 0
5361 -461 -42 0
-5361 42 0
-5361 461 0
5362 -462 -40 0
-5362 40 0
-5362 462 0
5780 -880 -461 0
-5780 461 0
-5780 880 0
5781 -881 -462 0
-5781 462 0
-5781 881 0
5782 -882 -460 0
-5782 460 0
-5782 882 0
6200 -1300 -881 0
-6200 881 0
-6200 1300 0
6201 -1301 -882 0
-6201 882 0
-6201 1301 0
6202 -1302 -880 0
-6202 880 0
-6202 1302 0
6620 -1720 -1301 0
-6620 1301 0
-6620 1720 0
6621 -1721 -1302 0
-6621 1302 0
-6621 1721 0
6622 -1722 -1300 0
-6622 1300 0
-6622 1722 0
7040 -2140 -1721 0
-7040 1721 0
-7040 2140 0
7041 -2141 -1722 0
-7041 1722 0
-7041 2141 0
7042 -2142 -1720 0
-7042 1720 0
-7042 2142 0
-7460 40 0
-7460 2140 0
-7460 -2561 0
7460 -40 -2140 2561 0
-7461 41 0
-7461 2141 0
-7461 -2562 0
7461 -41 -2141 2562 0
-7462 42 0
-7462 2142 0
-7462 -2560 0
7462 -42 -2142 2560 0
-2955 7883 7884 7885 0
2955 -7883 0
7883 -43 -464 0
-7883 464 0
-7883 43 0
2955 -7884 0
7884 -44 -465 0
-7884 465 0
-7884 44 0
2955 -7885 0
7885 -45 -463 0
-7885 463 0
-7885 45 0
-3095 8303 8304 8305 0
3095 -8303 0
8303 -463 -884 0
-8303 884 0
-8303 463 0
3095 -8304 0
8304 -464 -885 0
-8304 885 0
-8304 464 0
3095 -8305 0
8305 -465 -883 0
-8305 883 0
-8305 465 0
-3235 8723 8724 8725 0
3235 -8723 0
8723 -883 -1304 0
-8723 1304 0
-8723 883 0
3235 -8724 0
8724 -884 -1305 0
-8724 1305 0
-8724 884 0
3235 -8725 0
8725 -885 -1303 0
-8725 1303 0
-8725 885 0
-3375 9143 9144 9145 0
3375 -9143 0
9143 -1303 -1724 0
-9143 1724 0
-9143 1303 0
3375 -9144 0
9144 -1304 -1725 0
-9144 1725 0
-9144 1304 0
3375 -9145 0
9145 -1305 -1723 0
-9145 1723 0
-9145 1305 0
-3515 9563 9564 9565 0
3515 -9563 0
9563 -1723 -2144 0
-9563 2144 0
-9563 1723 0
3515 -9564 0
9564 -1724 -2145 0
-9564 2145 0
-9564 1724 0
3515 -9565 0
9565 -1725 -2143 0
-9565 2143 0
-9565 1725 0
-3655 9983 9984 9985 0
3655 -9983 0
9983 -2143 -2564 0
-9983 2564 0
-9983 2143 0
3655 -9984 0
9984 -2144 -2565 0
-9984 2565 0
-9984 2144 0
3655 -9985 0
9985 -2145 -2563 0
-9985 2563 0
-9985 2145 0
-4075 5363 5364 5365 0
4075 -5363 0
4075 -5364 0
4075 -5365 0
-4215 5783 5784 5785 0
4215 -5783 0
4215 -5784 0
4215 -5785 0
-4355 6203 6204 6205 0
4355 -6203 0
4355 -6204 0
4355 -6205 0
-4495 6623 6624 6625 0
4495 -6623 0
4495 -6624 0
4495 -6625 0
-4635 7043 7044 7045 0
4635 -7043 0
4635 -7044 0
4635 -7045 0
-4775 7463 7464 7465 0
4775 -7463 0
4775 -7464 0
4775 -7465 0
5363 -463 -44 0
-5363 44 0
-5363 463 0
5364 -464 -45 0
-5364 45 0
-5364 464 0
5365 -465 -43 0
-5365 43 0
-5365 465 0
5783 -883 -464 0
-5783 464 0
-5783 883 0
5784 -884 -465 0
-5784 465 0
-5784 884 0
5785 -885 -463 0
-5785 463 0
-5785 885 0
6203 -1303 -884 0
-6203 884 0
-6203 1303 0
6204 -1304 -885 0
-6204 885 0
-6204 1304 0
6205 -1305 -883 0
-6205 883 0
-6205 1305 0
6623 -1723 -1304 0
-6623 1304 0
-6623 1723 0
6624 -1724 -1305 0
-6624 1305 0
-6624 1724 0
6625 -1725 -1303 0
-6625 1303 0
-6625 1725 0
7043 -2143 -1724 0
-7043 1724 0
-7043 2143 0
7044 -2144 -1725 0
-7044 1725 0
-7044 2144 0
7045 -2145 -1723 0
-7045 1723 0
-7045 2145 0
-7463 43 0
-7463 2143 0
-7463 -2564 0
7463 -43 -2143 2564 0
-7464 44 0
-7464 2144 0
-7464 -2565 0
7464 -44 -2144 2565 0
-7465 45 0
-7465 2145 0
-7465 -2563 0
7465 -45 -2145 2563 0
-2956 7886 7887 7888 0
2956 -7886 0
7886 -46 -467 0
-7886 467 0
-7886 46 0
2956 -7887 0
7887 -47 -468 0
-7887 468 0
-7887 47 0
2956 -7888 0
7888 -48 -466 0
-7888 466 0
-7888 48 0
-3096 8306 8307 8308 0
3096 -8306 0
8306 -466 -887 0
-8306 887 0
-8306 466 0
3096 -8307 0
8307 -467 -888 0
-8307 888 0
-8307 467 0
3096 -8308 0
8308 -468 -886 0
-8308 886 0
-8308 468 0
-3236 8726 8727 8728 0
3236 -8726 0
8726 -886 -1307 0
-8726 1307 0
-8726 886 0
3236 -8727 0
8727 -887 -1308 0
-8727 1308 0
-8727 887 0
3236 -8728 0
8728 -888 -1306 0
-8728 1306 0
-8728 888 0
-3376 9146 9147 9148 0
3376 -9146 0
9146 -1306 -1727 0
-9146 1727 0
-9146 1306 0
3376 -9147 0
9147 -1307 -1728 0
-9147 1728 0
-9147 1307 0
3376 -9148 0
9148 -1308 -1726 0
-9148 1726 0
-9148 1308 0
-3516 9566 9567 9568 0
3516 -9566 0
9566 -1726 -2147 0
-9566 2147 0
-9566 1726 0
3516 -9567 0
9567 -1727 -2148 0
-9567 2148 0
-9567 1727 0
3516 -9568 0
9568 -1728 -2146 0
-9568 2146 0
-9568 1728 0
-3656 9986 9987 9988 0
3656 -9986 0
9986 -2146 -2567 0
-9986 2567 0
-9986 2146 0
3656 -9987 0
9987 -2147 -2568 0
-9987 2568 0
-9987 2147 0
3656 -9988 0
9988 -2148 -2566 0
-9988 2566 0
-9988 2148 0
-4076 5366 5367 5368 0
4076 -5366 0
4076 -5367 0
4076 -5368 0
-4216 5786 5787 5788 0
4216 -5786 0
4216 -5787 0
4216 -5788 0
-4356 6206 6207 6208 0
4356 -6206 0
4356 -6207 0
4356 -6208 0
-4496 6626 6627 6628 0
4496 -6626 0
4496 -6627 0
4496 -6628 0
-4636 7046 7047 7048 0
4636 -7046 0
4636 -7047 0
4636 -7048 0
-4776 7466 7467 7468 0
4776 -7466 0
4776 -7467 0
4776 -7468 0
5366 -466 -47 0
-5366 47 0
-5366 466 0
5367 -467 -48 0
-5367 48 0
-5367 467 0
5368 -468 -46 0
-5368 46 0
-5368 468 0
5786 -886 -467 0
-5786 467 0
-5786 886 0
5787 -887 -468 0
-5787 468 0
-5787 887 0
5788 -888 -466 0
-5788 466 0
-5788 888 0
6206 -1306 -887 0
-6206 887 0
-6206 1306 0
6207 -1307 -888 0
-6207 888 0
-6207 1307 0
6208 -1308 -886 0
-6208 886 0
-6208 1308 0
6626 -1726 -1307 0
-6626 1307 0
-6626 1726 0
6627 -1727 -1308 0
-6627 1308 0
-6627 1727 0
6628 -1728 -1306 0
-6628 1306 0
-6628 1728 0
7046 -2146 -1727 0
-7046 1727 0
-7046 2146 0
7047 -2147 -1728 0
-7047 1728 0
-7047 2147 0
7048 -2148 -1726 0
-7048 1726 0
-7048 2148 0
-7466 46 0
-7466 2146 0
-7466 -2567 0
7466 -46 -2146 2567 0
-7467 47 0
-7467 2147 0
-7467 -2568 0
7467 -47 -2147 2568 0
-7468 48 0
-7468 2148 0
-7468 -2566 0
7468 -48 -2148 2566 0
-2957 7889 7890 7891 0
2957 -7889 0
7889 -49 -470 0
-7889 470 0
-7889 49 0
2957 -7890 0
7890 -50 -471 0
-7890 471 0
-7890 50 0
2957 -7891 0
7891 -51 -469 0
-7891 469 0
-7891 51 0
-3097 8309 8310 8311 0
3097 -8309 0
8309 -469 -890 0
-8309 890 0
-8309 469 0
3097 -8310 0
8310 -470 -891 0
-8310 891 0
-8310 470 0
3097 -8311 0
8311 -471 -889 0
-8311 889 0
-8311 471 0
-3237 8729 8730 8731 0
3237 -8729 0
8729 -889 -1310 0
-8729 1310 0
-8729 889 0
3237 -8730 0
8730 -890 -1311 0
-8730 1311 0
-8730 890 0
3237 -8731 0
8731 -891 -1309 0
-8731 1309 0
-8731 891 0
-3377 9149 9150 9151 0
3377 -9149 0
9149 -1309 -1730 0
-9149 1730 0
-9149 1309 0
3377 -9150 0
9150 -1310 -1731 0
-9150 1731 0
-9150 1310 0
3377 -9151 0
9151 -1311 -1729 0
-9151 1729 0
-9151 1311 0
-3517 9569 9570 9571 0
3517 -9569 0
9569 -1729 -2150 0
-9569 2150 0
-9569 1729 0
3517 -9570 0
9570 -1730 -2151 0
-9570 2151 0
-9570 1730 0
3517 -9571 0
9571 -1731 -2149 0
-9571 2149 0
-9571 1731 0
-3657 9989 9990 9991 0
3657 -9989 0
9989 -2149 -2570 0
-9989 2570 0
-9989 2149 0
3657 -9990 0
9990 -2150 -2571 0
-9990 2571 0
-9990 2150 0
3657 -9991 0
9991 -2151 -2569 0
-9991 2569 0
-9991 2151 0
-4077 5369 5370 5371 0
4077 -5369 0
4077 -5370 0
4077 -5371 0
-4217 5789 5790 5791 0
4217 -5789 0
4217 -5790 0
4217 -5791 0
-4357 6209 6210 6211 0
4357 -6209 0
4357 -6210 0
4357 -6211 0
-4497 6629 6630 6631 0
4497 -6629 0
4497 -6630 0
4497 -6631 0
-4637 7049 7050 7051 0
4637 -7049 0
4637 -7050 0
4637 -7051 0
-4777 7469 7470 7471 0
4777 -7469 0
4777 -7470 0
4777 -7471 0
5369 -469 -50 0
-5369 50 0
-5369 469 0
5370 -470 -51 0
-5370 51 0
-5370 470 0
5371 -471 -49 0
-5371 49 0
-5371 471 0
5789 -889 -470 0
-5789 470 0
-5789 889 0
5790 -890 -471 0
-5790 471 0
-5790 890 0
5791 -891 -469 0
-5791 469 0
-5791 891 0
6209 -1309 -890 0
-6209 890 0
-6209 1309 0
6210 -1310 -891 0
-6210 891 0
-6210 1310 0
6211 -1311 -889 0
-6211 889 0
-6211 1311 0
6629 -1729 -1310 0
-6629 1310 0
-6629 1729 0
6630 -1730 -1311 0
-6630 1311 0
-6630 1730 0
6631 -1731 -1309 0
-6631 1309 0
-6631 1731 0
7049 -2149 -1730 0
-7049 1730 0
-7049 2149 0
7050 -2150 -1731 0
-7050 1731 0
-7050 2150 0
7051 -2151 -1729 0
-7051 1729 0
-7051 2151 0
-7469 49 0
-7469 2149 0
-7469 -2570 0
7469 -49 -2149 2570 0
-7470 50 0
-7470 2150 0
-7470 -2571 0
7470 -50 -2150 2571 0
-7471 51 0
-7471 2151 0
-7471 -2569 0
7471 -51 -2151 2569 0
-2958 7892 7893 7894 0
2958 -7892 0
7892 -52 -473 0
-7892 473 0
-7892 52 0
2958 -7893 0
7893 -53 -474 0
-7893 474 0
-7893 53 0
2958 -7894 0
7894 -54 -472 0
-7894 472 0
-7894 54 0
-3098 8312 8313 8314 0
3098 -8312 0
8312 -472 -893 0
-8312 893 0
-8312 472 0
3098 -8313 0
8313 -473 -894 0
-8313 894 0
-8313 473 0
3098 -8314 0
8314 -474 -892 0
-8314 892 0
-8314 474 0
-3238 8732 8733 8734 0
3238 -8732 0
8732 -892 -1313 0
-8732 1313 0
-8732 892 0
3238 -8733 0
8733 -893 -1314 0
-8733 1314 0
-8733 893 0
3238 -8734 0
8734 -894 -1312 0
-8734 1312 0
-8734 894 0
-3378 9152 9153 9154 0
3378 -9152 0
9152 -1312 -1733 0
-9152 1733 0
-9152 1312 0
3378 -9153 0
9153 -1313 -1734 0
-9153 1734 0
-9153 1313 0
3378 -9154 0
9154 -1314 -1732 0
-9154 1732 0
-9154 1314 0
-3518 9572 9573 9574 0
3518 -9572 0
9572 -1732 -2153 0
-9572 2153 0
-9572 1732 0
3518 -9573 0
9573 -1733 -2154 0
-9573 2154 0
-9573 1733 0
3518 -9574 0
9574 -1734 -2152 0
-9574 2152 0
-9574 1734 0
-3658 9992 9993 9994 0
3658 -9992 0
9992 -2152 -2573 0
-9992 2573 0
-9992 2152 0
3658 -9993 0
9993 -2153 -2574 0
-9993 2574 0
-9993 2153 0
3658 -9994 0
9994 -2154 -2572 0
-9994 2572 0
-9994 2154 0
-4078 5372 5373 5374 0
4078 -5372 0
4078 -5373 0
4078 -5374 0
-4218 5792 5793 5794 0
4218 -5792 0
4218 -5793 0
4218 -5794 0
-4358 6212 6213 6214 0
4358 -6212 0
4358 -6213 0
4358 -6214 0
-4498 6632 6633 6634 0
4498 -6632 0
4498 -6633 0
4498 -6634 0
-4638 7052 7053 7054 0
4638 -7052 0
4638 -7053 0
4638 -7054 0
-4778 7472 7473 7474 0
4778 -7472 0
4778 -7473 0
4778 -7474 0
5372 -472 -53 0
-5372 53 0
-5372 472 0
5373 -473 -54 0
-5373 54 0
-5373 473 0
5374 -474 -52 0
-5374 52 0
-5374 474 0
5792 -892 -473 0
-5792 473 0
-5792 892 0
5793 -893 -474 0
-5793 474 0
-5793 893 0
5794 -894 -472 0
-5794 472 0
-5794 894 0
6212 -1312 -893 0
-6212 893 0
-6212 1312 0
6213 -1313 -894 0
-6213 894 0
-6213 1313 0
6214 -1314 -892 0
-6214 892 0
-6214 1314 0
6632 -1732 -1313 0
-6632 1313 0
-6632 1732 0
6633 -1733 -1314 0
-6633 1314 0
-6633 1733 0
6634 -1734 -1312 0
-6634 1312 0
-6634 1734 0
7052 -2152 -1733 0
-7052 1733 0
-7052 2152 0
7053 -2153 -1734 0
-7053 1734 0
-7053 2153 0
7054 -2154 -1732 0
-7054 1732 0
-7054 2154 0
-7472 52 0
-7472 2152 0
-7472 -2573 0
7472 -52 -2152 2573 0
-7473 53 0
-7473 2153 0
-7473 -2574 0
7473 -53 -2153 2574 0
-7474 54 0
-7474 2154 0
-7474 -2572 0
7474 -54 -2154 2572 0
-2959 7895 7896 7897 0
2959 -7895 0
7895 -55 -476 0
-7895 476 0
-7895 55 0
2959 -7896 0
7896 -56 -477 0
-7896 477 0
-7896 56 0
2959 -7897 0
7897 -57 -475 0
-7897 475 0
-7897 57 0
-3099 8315 8316 8317 0
3099 -8315 0
8315 -475 -896 0
-8315 896 0
-8315 475 0
3099 -8316 0
8316 -476 -897 0
-8316 897 0
-8316 476 0
3099 -8317 0
8317 -477 -895 0
-8317 895 0
-8317 477 0
-3239 8735 8736 8737 0
3239 -8735 0
8735 -895 -1316 0
-8735 1316 0
-8735 895 0
3239 -8736 0
8736 -896 -1317 0
-8736 1317 0
-8736 896 0
3239 -8737 0
8737 -897 -1315 0
-8737 1315 0
-8737 897 0
-3379 9155 9156 9157 0
3379 -9155 0
9155 -1315 -1736 0
-9155 1736 0
-9155 1315 0
3379 -9156 0
9156 -1316 -1737 0
-9156 1737 0
-9156 1316 0
3379 -9157 0
9157 -1317 -1735 0
-9157 1735 0
-9157 1317 0
-3519 9575 9576 9577 0
3519 -9575 0
9575 -1735 -2156 0
-9575 2156 0
-9575 1735 0
3519 -9576 0
9576 -1736 -2157 0
-9576 2157 0
-9576 1736 0
3519 -9577 0
9577 -1737 -2155 0
-9577 2155 0
-9577 1737 0
-3659 9995 9996 9997 0
3659 -9995 0
9995 -2155 -2576 0
-9995 2576 0
-9995 2155 0
3659 -9996 0
9996 -2156 -2577 0
-9996 2577 0
-9996 2156 0
3659 -9997 0
9997 -2157 -2575 0
-9997 2575 0
-9997 2157 0
-4079 5375 5376 5377 0
4079 -5375 0
4079 -5376 0
4079 -5377 0
-4219 5795 5796 5797 0
4219 -5795 0
4219 -5796 0
4219 -5797 0
-4359 6215 6216 6217 0
4359 -6215 0
4359 -6216 0
4359 -6217 0
-4499 6635 6636 6637 0
4499 -6635 0
4499 -6636 0
4499 -6637 0
-4639 7055 7056 7057 0
4639 -7055 0
4639 -7056 0
4639 -7057 0
-4779 7475 7476 7477 0
4779 -7475 0
4779 -7476 0
4779 -7477 0
5375 -475 -56 0
-5375 56 0
-5375 475 0
5376 -476 -57 0
-5376 57 0
-5376 476 0
5377 -477 -55 0
-5377 55 0
-5377 477 0
5795 -895 -476 0
-5795 476 0
-5795 895 0
5796 -896 -477 0
-5796 477 0
-5796 896 0
5797 -897 -475 0
-5797 475 0
-5797 897 0
6215 -1315 -896 0
-6215 896 0
-6215 1315 0
6216 -1316 -897 0
-6216 897 0
-6216 1316 0
6217 -1317 -895 0
-6217 895 0
-6217 1317 0
6635 -1735 -1316 0
-6635 1316 0
-6635 1735 0
6636 -1736 -1317 0
-6636 1317 0
-6636 1736 0
6637 -1737 -1315 0
-6637 1315 0
-6637 1737 0
7055 -2155 -1736 0
-7055 1736 0
-7055 2155 0
7056 -2156 -1737 0
-7056 1737 0
-7056 2156 0
7057 -2157 -1735 0
-7057 1735 0
-7057 2157 0
-7475 55 0
-7475 2155 0
-7475 -2576 0
7475 -55 -2155 2576 0
-7476 56 0
-7476 2156 0
-7476 -2577 0
7476 -56 -2156 2577 0
-7477 57 0
-7477 2157 0
-7477 -2575 0
7477 -57 -2157 2575 0
-2960 7898 7899 7900 0
2960 -7898 0
7898 -58 -479 0
-7898 479 0
-7898 58 0
2960 -7899 0
7899 -59 -480 0
-7899 480 0
-7899 59 0
2960 -7900 0
7900 -60 -478 0
-7900 478 0
-7900 60 0
-3100 8318 8319 8320 0
3100 -8318 0
8318 -478 -899 0
-8318 899 0
-8318 478 0
3100 -8319 0
8319 -479 -900 0
-8319 900 0
-8319 479 0
3100 -8320 0
8320 -480 -898 0
-8320 898 0
-8320 480 0
-3240 8738 8739 8740 0
3240 -8738 0
8738 -898 -1319 0
-8738 1319 0
-8738 898 0
3240 -8739 0
8739 -899 -1320 0
-8739 1320 0
-8739 899 0
3240 -8740 0
8740 -900 -1318 0
-8740 1318 0
-8740 900 0
-3380 9158 9159 9160 0
3380 -9158 0
9158 -1318 -1739 0
-9158 1739 0
-9158 1318 0
3380 -9159 0
9159 -1319 -1740 0
-9159 1740 0
-9159 1319 0
3380 -9160 0
9160 -1320 -1738 0
-9160 1738 0
-9160 1320 0
-3520 9578 9579 9580 0
3520 -9578 0
9578 -1738 -2159 0
-9578 2159 0
-9578 1738 0
3520 -9579 0
9579 -1739 -2160 0
-9579 2160 0
-9579 1739 0
3520 -9580 0
9580 -1740 -2158 0
-9580 2158 0
-9580 1740 0
-3660 9998 9999 10000 0
3660 -9998 0
9998 -2158 -2579 0
-9998 2579 0
-9998 2158 0
3660 -9999 0
9999 -2159 -2580 0
-9999 2580 0
-9999 2159 0
3660 -10000 0
10000 -2160 -2578 0
-10000 2578 0
-10000 2160 0
-4080 5378 5379 5380 0
4080 -5378 0
4080 -5379 0
4080 -5380 0
-4220 5798 5799 5800 0
4220 -5798 0
4220 -5799 0
4220 -5800 0
-4360 6218 6219 6220 0
4360 -6218 0
4360 -6219 0
4360 -6220 0
-4500 6638 6639 6640 0
4500 -6638 0
4500 -6639 0
4500 -6640 0
-4640 7058 7059 7060 0
4640 -7058 0
4640 -7059 0
4640 -7060 0
-4780 7478 7479 7480 0
4780 -7478 0
4780 -7479 0
4780 -7480 0
5378 -478 -59 0
-5378 59 0
-5378 478 0
5379 -479 -60 0
-5379 60 0
-5379 479 0
5380 -480 -58 0
-5380 58 0
-5380 480 0
5798 -898 -479 0
-5798 479 0
-5798 898 0
5799 -899 -480 0
-5799 480 0
-5799 899 0
5800 -900 -478 0
-5800 478 0
-5800 900 0
6218 -1318 -899 0
-6218 899 0
-6218 1318 0
6219 -1319 -900 0
-6219 900 0
-6219 1319 0
6220 -1320 -898 0
-6220 898 0
-6220 1320 0
6638 -1738 -1319 0
-6638 1319 0
-6638 1738 0
6639 -1739 -1320 0
-6639 1320 0
-6639 1739 0
6640 -1740 -1318 0
-6640 1318 0
-6640 1740 0
7058 -2158 -1739 0
-7058 1739 0
-7058 2158 0
7059 -2159 -1740 0
-7059 1740 0
-7059 2159 0
7060 -2160 -1738 0
-7060 1738 0
-7060 2160 0
-7478 58 0
-7478 2158 0
-7478 -2579 0
7478 -58 -2158 2579 0
-7479 59 0
-7479 2159 0
-7479 -2580 0
7479 -59 -2159 2580 0
-7480 60 0
-7480 2160 0
-7480 -2578 0
7480 -60 -2160 2578 0
-2961 7901 7902 7903 0
2961 -7901 0
7901 -61 -482 0
-7901 482 0
-7901 61 0
2961 -7902 0
7902 -62 -483 0
-7902 483 0
-7902 62 0
2961 -7903 0
7903 -63 -481 0
-7903 481 0
-7903 63 0
-3101 8321 8322 8323 0
3101 -8321 0
8321 -481 -902 0
-8321 902 0
-8321 481 0
3101 -8322 0
8322 -482 -903 0
-8322 903 0
-8322 482 0
3101 -8323 0
8323 -483 -901 0
-8323 901 0
-8323 483 0
-3241 8741 8742 8743 0
3241 -8741 0
8741 -901 -1322 0
-8741 1322 0
-8741 901 0
3241 -8742 0
8742 -902 -1323 0
-8742 1323 0
-8742 902 0
3241 -8743 0
8743 -903 -1321 0
-8743 1321 0
-8743 903 0
-3381 9161 9162 9163 0
3381 -9161 0
9161 -1321 -1742 0
-9161 1742 0
-9161 1321 0
3381 -9162 0
9162 -1322 -1743 0
-9162 1743 0
-9162 1322 0
3381 -9163 0
9163 -1323 -1741 0
-9163 1741 0
-9163 1323 0
-3521 9581 9582 9583 0
3521 -9581 0
9581 -1741 -2162 0
-9581 2162 0
-9581 1741 0
3521 -9582 0
9582 -1742 -2163 0
-9582 2163 0
-9582 1742 0
3521 -9583 0
9583 -1743 -2161 0
-9583 2161 0
-9583 1743 0
-3661 10001 10002 10003 0
3661 -10001 0
10001 -2161 -2582 0
-10001 2582 0
-10001 2161 0
3661 -10002 0
10002 -2162 -2583 0
-10002 2583 0
-10002 2162 0
3661 -10003 0
10003 -2163 -2581 0
-10003 2581 0
-10003 2163 0
-4081 5381 5382 5383 0
4081 -5381 0
4081 -5382 0
4081 -5383 0
-4221 5801 5802 5803 0
4221 -5801 0
4221 -5802 0
4221 -5803 0
-4361 6221 6222 6223 0
4361 -6221 0
4361 -6222 0
4361 -6223 0
-4501 6641 6642 6643 0
4501 -6641 0
4501 -6642 0
4501 -6643 0
-4641 7061 7062 7063 0
4641 -7061 0
4641 -7062 0
4641 -7063 0
-4781 7481 7482 7483 0
4781 -7481 0
4781 -7482 0
4781 -7483 0
5381 -481 -62 0
-5381 62 0
-5381 481 0
5382 -482 -63 0
-5382 63 0
-5382 482 0
5383 -483 -61 0
-5383 61 0
-5383 483 0
5801 -901 -482 0
-5801 482 0
-5801 901 0
5802 -902 -483 0
-5802 483 0
-5802 902 0
5803 -903 -481 0
-5803 481 0
-5803 903 0
6221 -1321 -902 0
-6221 902 0
-6221 1321 0
6222 -1322 -903 0
-6222 903 0
-6222 1322 0
6223 -1323 -901 0
-6223 901 0
-6223 1323 0
6641 -1741 -1322 0
-6641 1322 0
-6641 1741 0
6642 -1742 -1323 0
-6642 1323 0
-6642 1742 0
6643 -1743 -1321 0
-6643 1321 0
-6643 1743 0
7061 -2161 -1742 0
-7061 1742 0
-7061 2161 0
7062 -2162 -1743 0
-7062 1743 0
-7062 2162 0
7063 -2163 -1741 0
-7063 1741 0
-7063 2163 0
-7481 61 0
-7481 2161 0
-7481 -2582 0
7481 -61 -2161 2582 0
-7482 62 0
-7482 2162 0
-7482 -2583 0
7482 -62 -2162 2583 0
-7483 63 0
-7483 2163 0
-7483 -2581 0
7483 -63 -2163 2581 0
-2962 7904 7905 7906 0
2962 -7904 0
7904 -64 -485 0
-7904 485 0
-7904 64 0
2962 -7905 0
7905 -65 -486 0
-7905 486 0
-7905 65 0
2962 -7906 0
7906 -66 -484 0
-7906 484 0
-7906 66 0
-3102 8324 8325 8326 0
3102 -8324 0
8324 -484 -905 0
-8324 905 0
-8324 484 0
3102 -8325 0
8325 -485 -906 0
-8325 906 0
-8325 485 0
3102 -8326 0
8326 -486 -904 0
-8326 904 0
-8326 486 0
-3242 8744 8745 8746 0
3242 -8744 0
8744 -904 -1325 0
-8744 1325 0
-8744 904 0
3242 -8745 0
8745 -905 -1326 0
-8745 1326 0
-8745 905 0
3242 -8746 0
8746 -906 -1324 0
-8746 1324 0
-8746 906 0
-3382 9164 9165 9166 0
3382 -9164 0
9164 -1324 -1745 0
-9164 1745 0
-9164 1324 0
3382 -9165 0
9165 -1325 -1746 0
-9165 1746 0
-9165 1325 0
3382 -9166 0
9166 -1326 -1744 0
-9166 1744 0
-9166 1326 0
-3522 9584 9585 9586 0
3522 -9584 0
9584 -1744 -2165 0
-9584 2165 0
-9584 1744 0
3522 -9585 0
9585 -1745 -2166 0
-9585 2166 0
-9585 1745 0
3522 -9586 0
9586 -1746 -2164 0
-9586 2164 0
-9586 1746 0
-3662 10004 10005 10006 0
3662 -10004 0
10004 -2164 -2585 0
-10004 2585 0
-10004 2164 0
3662 -10005 0
10005 -2165 -2586 0
-10005 2586 0
-10005 2165 0
3662 -10006 0
10006 -2166 -2584 0
-10006 2584 0
-10006 2166 0
-4082 5384 5385 5386 0
4082 -5384 0
4082 -5385 0
4082 -5386 0
-4222 5804 5805 5806 0
4222 -5804 0
4222 -5805 0
4222 -5806 0
-4362 6224 6225 6226 0
4362 -6224 0
4362 -6225 0
4362 -6226 0
-4502 6644 6645 6646 0
4502 -6644 0
4502 -6645 0
4502 -6646 0
-4642 7064 7065 7066 0
4642 -7064 0
4642 -7065 0
4642 -7066 0
-4782 7484 7485 7486 0
4782 -7484 0
4782 -7485 0
4782 -7486 0
5384 -484 -65 0
-5384 65 0
-5384 484 0
5385 -485 -66 0
-5385 66 0
-5385 485 0
5386 -486 -64 0
-5386 64 0
-5386 486 0
5804 -904 -485 0
-5804 485 0
-5804 904 0
5805 -905 -486 0
-5805 486 0
-5805 905 0
5806 -906 -484 0
-5806 484 0
-5806 906 0
6224 -1324 -905 0
-6224 905 0
-6224 1324 0
6225 -1325 -906 0
-6225 906 0
-6225 1325 0
6226 -1326 -904 0
-6226 904 0
-6226 1326 0
6644 -1744 -1325 0
-6644 1325 0
-6644 1744 0
6645 -1745 -1326 0
-6645 1326 0
-6645 1745 0
6646 -1746 -1324 0
-6646 1324 0
-6646 1746 0
7064 -2164 -1745 0
-7064 1745 0
-7064 2164 0
7065 -2165 -1746 0
-7065 1746 0
-7065 2165 0
7066 -2166 -1744 0
-7066 1744 0
-7066 2166 0
-7484 64 0
-7484 2164 0
-7484 -2585 0
7484 -64 -2164 2585 0
-7485 65 0
-7485 2165 0
-7485 -2586 0
7485 -65 -2165 2586 0
-7486 66 0
-7486 2166 0
-7486 -2584 0
7486 -66 -2166 2584 0
-2963 7907 7908 7909 0
2963 -7907 0
7907 -67 -488 0
-7907 488 0
-7907 67 0
2963 -7908 0
7908 -68 -489 0
-7908 489 0
-7908 68 0
2963 -7909 0
7909 -69 -487 0
-7909 487 0
-7909 69 0
-3103 8327 8328 8329 0
3103 -8327 0
8327 -487 -908 0
-8327 908 0
-8327 487 0
3103 -8328 0
8328 -488 -909 0
-8328 909 0
-8328 488 0
3103 -8329 0
8329 -489 -907 0
-8329 907 0
-8329 489 0
-3243 8747 8748 8749 0
3243 -8747 0
8747 -907 -1328 0
-8747 1328 0
-8747 907 0
3243 -8748 0
8748 -908 -1329 0
-8748 1329 0
-8748 908 0
3243 -8749 0
8749 -909 -1327 0
-8749 1327 0
-8749 909 0
-3383 9167 9168 9169 0
3383 -9167 0
9167 -1327 -1748 0
-9167 1748 0
-9167 1327 0
3383 -9168 0
9168 -1328 -1749 0
-9168 1749 0
-9168 1328 0
3383 -9169 0
9169 -1329 -1747 0
-9169 1747 0
-9169 1329 0
-3523 9587 9588 9589 0
3523 -9587 0
9587 -1747 -2168 0
-9587 2168 0
-9587 1747 0
3523 -9588 0
9588 -1748 -2169 0
-9588 2169 0
-9588 1748 0
3523 -9589 0
9589 -1749 -2167 0
-9589 2167 0
-9589 1749 0
-3663 10007 10008 10009 0
3663 -10007 0
10007 -2167 -2588 0
-10007 2588 0
-10007 2167 0
3663 -10008 0
10008 -2168 -2589 0
-10008 2589 0
-10008 2168 0
3663 -10009 0
10009 -2169 -2587 0
-10009 2587 0
-10009 2169 0
-4083 5387 5388 5389 0
4083 -5387 0
4083 -5388 0
4083 -5389 0
-4223 5807 5808 5809 0
4223 -5807 0
4223 -5808 0
4223 -5809 0
-4363 6227 6228 6229 0
4363 -6227 0
4363 -6228 0
4363 -6229 0
-4503 6647 6648 6649 0
4503 -6647 0
4503 -6648 0
4503 -6649 0
-4643 7067 7068 7069 0
4643 -7067 0
4643 -7068 0
4643 -7069 0
-4783 7487 7488 7489 0
4783 -7487 0
4783 -7488 0
4783 -7489 0
5387 -487 -68 0
-5387 68 0
-5387 487 0
5388 -488 -69 0
-5388 69 0
-5388 488 0
5389 -489 -67 0
-5389 67 0
-5389 489 0
5807 -907 -488 0
-5807 488 0
-5807 907 0
5808 -908 -489 0
-5808 489 0
-5808 908 0
5809 -909 -487 0
-5809 487 0
-5809 909 0
6227 -1327 -908 0
-6227 908 0
-6227 1327 0
6228 -1328 -909 0
-6228 909 0
-6228 1328 0
6229 -1329 -907 0
-6229 907 0
-6229 1329 0
6647 -1747 -1328 0
-6647 1328 0
-6647 1747 0
6648 -1748 -1329 0
-6648 1329 0
-6648 1748 0
6649 -1749 -1327 0
-6649 1327 0
-6649 1749 0
7067 -2167 -1748 0
-7067 1748 0
-7067 2167 0
7068 -2168 -1749 0
-7068 1749 0
-7068 2168 0
7069 -2169 -1747 0
-7069 1747 0
-7069 2169 0
-7487 67 0
-7487 2167 0
-7487 -2588 0
7487 -67 -2167 2588 0
-7488 68 0
-7488 2168 0
-7488 -2589 0
7488 -68 -2168 2589 0
-7489 69 0
-7489 2169 0
-7489 -2587 0
7489 -69 -2169 2587 0
-2964 7910 7911 7912 0
2964 -7910 0
7910 -70 -491 0
-7910 491 0
-7910 70 0
2964 -7911 0
7911 -71 -492 0
-7911 492 0
-7911 71 0
2964 -7912 0
7912 -72 -490 0
-7912 490 0
-7912 72 0
-3104 8330 8331 8332 0
3104 -8330 0
8330 -490 -911 0
-8330 911 0
-8330 490 0
3104 -8331 0
8331 -491 -912 0
-8331 912 0
-8331 491 0
3104 -8332 0
8332 -492 -910 0
-8332 910 0
-8332 492 0
-3244 8750 8751 8752 0
3244 -8750 0
8750 -910 -1331 0
-8750 1331 0
-8750 910 0
3244 -8751 0
8751 -911 -1332 0
-8751 1332 0
-8751 911 0
3244 -8752 0
8752 -912 -1330 0
-8752 1330 0
-8752 912 0
-3384 9170 9171 9172 0
3384 -9170 0
9170 -1330 -1751 0
-9170 1751 0
-9170 1330 0
3384 -9171 0
9171 -1331 -1752 0
-9171 1752 0
-9171 1331 0
3384 -9172 0
9172 -1332 -1750 0
-9172 1750 0
-9172 1332 0
-3524 9590 9591 9592 0
3524 -9590 0
9590 -1750 -2171 0
-9590 2171 0
-9590 1750 0
3524 -9591 0
9591 -1751 -2172 0
-9591 2172 0
-9591 1751 0
3524 -9592 0
9592 -1752 -2170 0
-9592 2170 0
-9592 1752 0
-3664 10010 10011 10012 0
3664 -10010 0
10010 -2170 -2591 0
-10010 2591 0
-10010 2170 0
3664 -10011 0
10011 -2171 -2592 0
-10011 2592 0
-10011 2171 0
3664 -10012 0
10012 -2172 -2590 0
-10012 2590 0
-10012 2172 0
-4084 5390 5391 5392 0
4084 -5390 0
4084 -5391 0
4084 -5392 0
-4224 5810 5811 5812 0
4224 -5810 0
4224 -5811 0
4224 -5812 0
-4364 6230 6231 6232 0
4364 -6230 0
4364 -6231 0
4364 -6232 0
-4504 6650 6651 6652 0
4504 -6650 0
4504 -6651 0
4504 -6652 0
-4644 7070 7071 7072 0
4644 -7070 0
4644 -7071 0
4644 -7072 0
-4784 7490 7491 7492 0
4784 -7490 0
4784 -7491 0
4784 -7492 0
5390 -490 -71 0
-5390 71 0
-5390 490 0
5391 -491 -72 0
-5391 72 0
-5391 491 0
5392 -492 -70 0
-5392 70 0
-5392 492 0
5810 -910 -491 0
-5810 491 0
-5810 910 0
5811 -911 -492 0
-5811 492 0
-5811 911 0
5812 -912 -490 0
-5812 490 0
-5812 912 0
6230 -1330 -911 0
-6230 911 0
-6230 1330 0
6231 -1331 -912 0
-6231 912 0
-6231 1331 0
6232 -1332 -910 0
-6232 910 0
-6232 1332 0
6650 -1750 -1331 0
-6650 1331 0
-6650 1750 0
6651 -1751 -1332 0
-6651 1332 0
-6651 1751 0
6652 -1752 -1330 0
-6652 1330 0
-6652 1752 0
7070 -2170 -1751 0
-7070 1751 0
-7070 2170 0
7071 -2171 -1752 0
-7071 1752 0
-7071 2171 0
7072 -2172 -1750 0
-7072 1750 0
-7072 2172 0
-7490 70 0
-7490 2170 0
-7490 -2591 0
7490 -70 -2170 2591 0
-7491 71 0
-7491 2171 0
-7491 -2592 0
7491 -71 -2171 2592 0
-7492 72 0
-7492 2172 0
-7492 -2590 0
7492 -72 -2172 2590 0
-2965 7913 7914 7915 0
2965 -7913 0
7913 -73 -494 0
-7913 494 0
-7913 73 0
2965 -7914 0
7914 -74 -495 0
-7914 495 0
-7914 74 0
2965 -7915 0
7915 -75 -493 0
-7915 493 0
-7915 75 0
-3105 8333 8334 8335 0
3105 -8333 0
8333 -493 -914 0
-8333 914 0
-8333 493 0
3105 -8334 0
8334 -494 -915 0
-8334 915 0
-8334 494 0
3105 -8335 0
8335 -495 -913 0
-8335 913 0
-8335 495 0
-3245 8753 8754 8755 0
3245 -8753 0
8753 -913 -1334 0
-8753 1334 0
-8753 913 0
3245 -8754 0
8754 -914 -1335 0
-8754 1335 0
-8754 914 0
3245 -8755 0
8755 -915 -1333 0
-8755 1333 0
-8755 915 0
-3385 9173 9174 9175 0
3385 -9173 0
9173 -1333 -1754 0
-9173 1754 0
-9173 1333 0
3385 -9174 0
9174 -1334 -1755 0
-9174 1755 0
-9174 1334 0
3385 -9175 0
9175 -1335 -1753 0
-9175 1753 0
-9175 1335 0
-3525 9593 9594 9595 0
3525 -9593 0
9593 -1753 -2174 0
-9593 2174 0
-9593 1753 0
3525 -9594 0
9594 -1754 -2175 0
-9594 2175 0
-9594 1754 0
3525 -9595 0
9595 -1755 -2173 0
-9595 2173 0
-9595 1755 0
-3665 10013 10014 10015 0
3665 -10013 0
10013 -2173 -2594 0
-10013 2594 0
-10013 2173 0
3665 -10014 0
10014 -2174 -2595 0
-10014 2595 0
-10014 2174 0
3665 -10015 0
10015 -2175 -2593 0
-10015 2593 0
-10015 2175 0
-4085 5393 5394 5395 0
4085 -5393 0
4085 -5394 0
4085 -5395 0
-4225 5813 5814 5815 0
4225 -5813 0
4225 -5814 0
4225 -5815 0
-4365 6233 6234 6235 0
4365 -6233 0
4365 -6234 0
4365 -6235 0
-4505 6653 6654 6655 0
4505 -6653 0
4505 -6654 0
4505 -6655 0
-4645 7073 7074 7075 0
4645 -7073 0
4645 -7074 0
4645 -7075 0
-4785 7493 7494 7495 0
4785 -7493 0
4785 -7494 0
4785 -7495 0
5393 -493 -74 0
-5393 74 0
-5393 493 0
5394 -494 -75 0
-5394 75 0
-5394 494 0
5395 -495 -73 0
-5395 73 0
-5395 495 0
5813 -913 -494 0
-5813 494 0
-5813 913 0
5814 -914 -495 0
-5814 495 0
-5814 914 0
5815 -915 -493 0
-5815 493 0
-5815 915 0
6233 -1333 -914 0
-6233 914 0
-6233 1333 0
6234 -1334 -915 0
-6234 915 0
-6234 1334 0
6235 -1335 -913 0
-6235 913 0
-6235 1335 0
6653 -1753 -1334 0
-6653 1334 0
-6653 1753 0
6654 -1754 -1335 0
-6654 1335 0
-6654 1754 0
6655 -1755 -1333 0
-6655 1333 0
-6655 1755 0
7073 -2173 -1754 0
-7073 1754 0
-7073 2173 0
7074 -2174 -1755 0
-7074 1755 0
-7074 2174 0
7075 -2175 -1753 0
-7075 1753 0
-7075 2175 0
-7493 73 0
-7493 2173 0
-7493 -2594 0
7493 -73 -2173 2594 0
-7494 74 0
-7494 2174 0
-7494 -2595 0
7494 -74 -2174 2595 0
-7495 75 0
-7495 2175 0
-7495 -2593 0
7495 -75 -2175 2593 0
-2966 7916 7917 7918 0
2966 -7916 0
7916 -76 -497 0
-7916 497 0
-7916 76 0
2966 -7917 0
7917 -77 -498 0
-7917 498 0
-7917 77 0
2966 -7918 0
7918 -78 -496 0
-7918 496 0
-7918 78 0
-3106 8336 8337 8338 0
3106 -8336 0
8336 -496 -917 0
-8336 917 0
-8336 496 0
3106 -8337 0
8337 -497 -918 0
-8337 918 0
-8337 497 0
3106 -8338 0
8338 -498 -916 0
-8338 916 0
-8338 498 0
-3246 8756 8757 8758 0
3246 -8756 0
8756 -916 -1337 0
-8756 1337 0
-8756 916 0
3246 -8757 0
8757 -917 -1338 0
-8757 1338 0
-8757 917 0
3246 -8758 0
8758 -918 -1336 0
-8758 1336 0
-8758 918 0
-3386 9176 9177 9178 0
3386 -9176 0
9176 -1336 -1757 0
-9176 1757 0
-9176 1336 0
3386 -9177 0
9177 -1337 -1758 0
-9177 1758 0
-9177 1337 0
3386 -9178 0
9178 -1338 -1756 0
-9178 1756 0
-9178 1338 0
-3526 9596 9597 9598 0
3526 -9596 0
9596 -1756 -2177 0
-9596 2177 0
-9596 1756 0
3526 -9597 0
9597 -1757 -2178 0
-9597 2178 0
-9597 1757 0
3526 -9598 0
9598 -1758 -2176 0
-9598 2176 0
-9598 1758 0
-3666 10016 10017 10018 0
3666 -10016 0
10016 -2176 -2597 0
-10016 2597 0
-10016 2176 0
3666 -10017 0
10017 -2177 -2598 0
-10017 2598 0
-10017 2177 0
3666 -10018 0
10018 -2178 -2596 0
-10018 2596 0
-10018 2178 0
-4086 5396 5397 5398 0
4086 -5396 0
4086 -5397 0
4086 -5398 0
-4226 5816 5817 5818 0
4226 -5816 0
4226 -5817 0
4226 -5818 0
-4366 6236 6237 6238 0
4366 -6236 0
4366 -6237 0
4366 -6238 0
-4506 6656 6657 6658 0
4506 -6656 0
4506 -6657 0
4506 -6658 0
-4646 7076 7077 7078 0
4646 -7076 0
4646 -7077 0
4646 -7078 0
-4786 7496 7497 7498 0
4786 -7496 0
4786 -7497 0
4786 -7498 0
5396 -496 -77 0
-5396 77 0
-5396 496 0
5397 -497 -78 0
-5397 78 0
-5397 497 0
5398 -498 -76 0
-5398 76 0
-5398 498 0
5816 -916 -497 0
-5816 497 0
-5816 916 0
5817 -917 -498 0
-5817 498 0
-5817 917 0
5818 -918 -496 0
-5818 496 0
-5818 918 0
6236 -1336 -917 0
-6236 917 0
-6236 1336 0
6237 -1337 -918 0
-6237 918 0
-6237 1337 0
6238 -1338 -916 0
-6238 916 0
-6238 1338 0
6656 -1756 -1337 0
-6656 1337 0
-6656 1756 0
6657 -1757 -1338 0
-6657 1338 0
-6657 1757 0
6658 -1758 -1336 0
-6658 1336 0
-6658 1758 0
7076 -2176 -1757 0
-7076 1757 0
-7076 2176 0
7077 -2177 -1758 0
-7077 1758 0
-7077 2177 0
7078 -2178 -1756 0
-7078 1756 0
-7078 2178 0
-7496 76 0
-7496 2176 0
-7496 -2597 0
7496 -76 -2176 2597 0
-7497 77 0
-7497 2177 0
-7497 -2598 0
7497 -77 -2177 2598 0
-7498 78 0
-7498 2178 0
-7498 -2596 0
7498 -78 -2178 2596 0
-2967 7919 7920 7921 0
2967 -7919 0
7919 -79 -500 0
-7919 500 0
-7919 79 0
2967 -7920 0
7920 -80 -501 0
-7920 501 0
-7920 80 0
2967 -7921 0
7921 -81 -499 0
-7921 499 0
-7921 81 0
-3107 8339 8340 8341 0
3107 -8339 0
8339 -499 -920 0
-8339 920 0
-8339 499 0
3107 -8340 0
8340 -500 -921 0
-8340 921 0
-8340 500 0
3107 -8341 0
8341 -501 -919 0
-8341 919 0
-8341 501 0
-3247 8759 8760 8761 0
3247 -8759 0
8759 -919 -1340 0
-8759 1340 0
-8759 919 0
3247 -8760 0
8760 -920 -1341 0
-8760 1341 0
-8760 920 0
3247 -8761 0
8761 -921 -1339 0
-8761 1339 0
-8761 921 0
-3387 9179 9180 9181 0
3387 -9179 0
9179 -1339 -1760 0
-9179 1760 0
-9179 1339 0
3387 -9180 0
9180 -1340 -1761 0
-9180 1761 0
-9180 1340 0
3387 -9181 0
9181 -1341 -1759 0
-9181 1759 0
-9181 1341 0
-3527 9599 9600 9601 0
3527 -9599 0
9599 -1759 -2180 0
-9599 2180 0
-9599 1759 0
3527 -9600 0
9600 -1760 -2181 0
-9600 2181 0
-9600 1760 0
3527 -9601 0
9601 -1761 -2179 0
-9601 2179 0
-9601 1761 0
-3667 10019 10020 10021 0
3667 -10019 0
10019 -2179 -2600 0
-10019 2600 0
-10019 2179 0
3667 -10020 0
10020 -2180 -2601 0
-10020 2601 0
-10020 2180 0
3667 -10021 0
10021 -2181 -2599 0
-10021 2599 0
-10021 2181 0
-4087 5399 5400 5401 0
4087 -5399 0
4087 -5400 0
4087 -5401 0
-4227 5819 5820 5821 0
4227 -5819 0
4227 -5820 0
4227 -5821 0
-4367 6239 6240 6241 0
4367 -6239 0
4367 -6240 0
4367 -6241 0
-4507 6659 6660 6661 0
4507 -6659 0
4507 -6660 0
4507 -6661 0
-4647 7079 7080 7081 0
4647 -7079 0
4647 -7080 0
4647 -7081 0
-4787 7499 7500 7501 0
4787 -7499 0
4787 -7500 0
4787 -7501 0
5399 -499 -80 0
-5399 80 0
-5399 499 0
5400 -500 -81 0
-5400 81 0
-5400 500 0
5401 -501 -79 0
-5401 79 0
-5401 501 0
5819 -919 -500 0
-5819 500 0
-5819 919 0
5820 -920 -501 0
-5820 501 0
-5820 920 0
5821 -921 -499 0
-5821 499 0
-5821 921 0
6239 -1339 -920 0
-6239 920 0
-6239 1339 0
6240 -1340 -921 0
-6240 921 0
-6240 1340 0
6241 -1341 -919 0
-6241 919 0
-6241 1341 0
6659 -1759 -1340 0
-6659 1340 0
-6659 1759 0
6660 -1760 -1341 0
-6660 1341 0
-6660 1760 0
6661 -1761 -1339 0
-6661 1339 0
-6661 1761 0
7079 -2179 -1760 0
-7079 1760 0
-7079 2179 0
7080 -2180 -1761 0
-7080 1761 0
-7080 2180 0
7081 -2181 -1759 0
-7081 1759 0
-7081 2181 0
-7499 79 0
-7499 2179 0
-7499 -2600 0
7499 -79 -2179 2600 0
-7500 80 0
-7500 2180 0
-7500 -2601 0
7500 -80 -2180 2601 0
-7501 81 0
-7501 2181 0
-7501 -2599 0
7501 -81 -2181 2599 0
-2968 7922 7923 7924 0
2968 -7922 0
7922 -82 -503 0
-7922 503 0
-7922 82 0
2968 -7923 0
7923 -83 -504 0
-7923 504 0
-7923 83 0
2968 -7924 0
7924 -84 -502 0
-7924 502 0
-7924 84 0
-3108 8342 8343 8344 0
3108 -8342 0
8342 -502 -923 0
-8342 923 0
-8342 502 0
3108 -8343 0
8343 -503 -924 0
-8343 924 0
-8343 503 0
3108 -8344 0
8344 -504 -922 0
-8344 922 0
-8344 504 0
-3248 8762 8763 8764 0
3248 -8762 0
8762 -922 -1343 0
-8762 1343 0
-8762 922 0
3248 -8763 0
8763 -923 -1344 0
-8763 1344 0
-8763 923 0
3248 -8764 0
8764 -924 -1342 0
-8764 1342 0
-8764 924 0
-3388 9182 9183 9184 0
3388 -9182 0
9182 -1342 -1763 0
-9182 1763 0
-9182 1342 0
3388 -9183 0
9183 -1343 -1764 0
-9183 1764 0
-9183 1343 0
3388 -9184 0
9184 -1344 -1762 0
-9184 1762 0
-9184 1344 0
-3528 9602 9603 9604 0
3528 -9602 0
9602 -1762 -2183 0
-9602 2183 0
-9602 1762 0
3528 -9603 0
9603 -1763 -2184 0
-9603 2184 0
-9603 1763 0
3528 -9604 0
9604 -1764 -2182 0
-9604 2182 0
-9604 1764 0
-3668 10022 10023 10024 0
3668 -10022 0
10022 -2182 -2603 0
-10022 2603 0
-10022 2182 0
3668 -10023 0
10023 -2183 -2604 0
-10023 2604 0
-10023 2183 0
3668 -10024 0
10024 -2184 -2602 0
-10024 2602 0
-10024 2184 0
-4088 5402 5403 5404 0
4088 -5402 0
4088 -5403 0
4088 -5404 0
-4228 5822 5823 5824 0
4228 -5822 0
4228 -5823 0
4228 -5824 0
-4368 6242 6243 6244 0
4368 -6242 0
4368 -6243 0
4368 -6244 0
-4508 6662 6663 6664 0
4508 -6662 0
4508 -6663 0
4508 -6664 0
-4648 7082 7083 7084 0
4648 -7082 0
4648 -7083 0
4648 -7084 0
-4788 7502 7503 7504 0
4788 -7502 0
4788 -7503 0
4788 -7504 0
5402 -502 -83 0
-5402 83 0
-5402 502 0
5403 -503 -84 0
-5403 84 0
-5403 503 0
5404 -504 -82 0
-5404 82 0
-5404 504 0
5822 -922 -503 0
-5822 503 0
-5822 922 0
5823 -923 -504 0
-5823 504 0
-5823 923 0
5824 -924 -502 0
-5824 502 0
-5824 924 0
6242 -1342 -923 0
-6242 923 0
-6242 1342 0
6243 -1343 -924 0
-6243 924 0
-6243 1343 0
6244 -1344 -922 0
-6244 922 0
-6244 1344 0
6662 -1762 -1343 0
-6662 1343 0
-6662 1762 0
6663 -1763 -1344 0
-6663 1344 0
-6663 1763 0
6664 -1764 -1342 0
-6664 1342 0
-6664 1764 0
7082 -2182 -1763 0
-7082 1763 0
-7082 2182 0
7083 -2183 -1764 0
-7083 1764 0
-7083 2183 0
7084 -2184 -1762 0
-7084 1762 0
-7084 2184 0
-7502 82 0
-7502 2182 0
-7502 -2603 0
7502 -82 -2182 2603 0
-7503 83 0
-7503 2183 0
-7503 -2604 0
7503 -83 -2183 2604 0
-7504 84 0
-7504 2184 0
-7504 -2602 0
7504 -84 -2184 2602 0
-2969 7925 7926 7927 0
2969 -7925 0
7925 -85 -506 0
-7925 506 0
-7925 85 0
2969 -7926 0
7926 -86 -507 0
-7926 507 0
-7926 86 0
2969 -7927 0
7927 -87 -505 0
-7927 505 0
-7927 87 0
-3109 8345 8346 8347 0
3109 -8345 0
8345 -505 -926 0
-8345 926 0
-8345 505 0
3109 -8346 0
8346 -506 -927 0
-8346 927 0
-8346 506 0
3109 -8347 0
8347 -507 -925 0
-8347 925 0
-8347 507 0
-3249 8765 8766 8767 0
3249 -8765 0
8765 -925 -1346 0
-8765 1346 0
-8765 925 0
3249 -8766 0
8766 -926 -1347 0
-8766 1347 0
-8766 926 0
3249 -8767 0
8767 -927 -1345 0
-8767 1345 0
-8767 927 0
-3389 9185 9186 9187 0
3389 -9185 0
9185 -1345 -1766 0
-9185 1766 0
-9185 1345 0
3389 -9186 0
9186 -1346 -1767 0
-9186 1767 0
-9186 1346 0
3389 -9187 0
9187 -1347 -1765 0
-9187 1765 0
-9187 1347 0
-3529 9605 9606 9607 0
3529 -9605 0
9605 -1765 -2186 0
-9605 2186 0
-9605 1765 0
3529 -9606 0
9606 -1766 -2187 0
-9606 2187 0
-9606 1766 0
3529 -9607 0
9607 -1767 -2185 0
-9607 2185 0
-9607 1767 0
-3669 10025 10026 10027 0
3669 -10025 0
10025 -2185 -2606 0
-10025 2606 0
-10025 2185 0
3669 -10026 0
10026 -2186 -2607 0
-10026 2607 0
-10026 2186 0
3669 -10027 0
10027 -2187 -2605 0
-10027 2605 0
-10027 2187 0
-4089 5405 5406 5407 0
4089 -5405 0
4089 -5406 0
4089 -5407 0
-4229 5825 5826 5827 0
4229 -5825 0
4229 -5826 0
4229 -5827 0
-4369 6245 6246 6247 0
4369 -6245 0
4369 -6246 0
4369 -6247 0
-4509 6665 6666 6667 0
4509 -6665 0
4509 -6666 0
4509 -6667 0
-4649 7085 7086 7087 0
4649 -7085 0
4649 -7086 0
4649 -7087 0
-4789 7505 7506 7507 0
4789 -7505 0
4789 -7506 0
4789 -7507 0
5405 -505 -86 0
-5405 86 0
-5405 505 0
5406 -506 -87 0
-5406 87 0
-5406 506 0
5407 -507 -85 0
-5407 85 0
-5407 507 0
5825 -925 -506 0
-5825 506 0
-5825 925 0
5826 -926 -507 0
-5826 507 0
-5826 926 0
5827 -927 -505 0
-5827 505 0
-5827 927 0
6245 -1345 -926 0
-6245 926 0
-6245 1345 0
6246 -1346 -927 0
-6246 927 0
-6246 1346 0
6247 -1347 -925 0
-6247 925 0
-6247 1347 0
6665 -1765 -1346 0
-6665 1346 0
-6665 1765 0
6666 -1766 -1347 0
-6666 1347 0
-6666 1766 0
6667 -1767 -1345 0
-6667 1345 0
-6667 1767 0
7085 -2185 -1766 0
-7085 1766 0
-7085 2185 0
7086 -2186 -1767 0
-7086 1767 0
-7086 2186 0
7087 -2187 -1765 0
-7087 1765 0
-7087 2187 0
-7505 85 0
-7505 2185 0
-7505 -2606 0
7505 -85 -2185 2606 0
-7506 86 0
-7506 2186 0
-7506 -2607 0
7506 -86 -2186 2607 0
-7507 87 0
-7507 2187 0
-7507 -2605 0
7507 -87 -2187 2605 0
-2970 7928 7929 7930 0
2970 -7928 0
7928 -88 -509 0
-7928 509 0
-7928 88 0
2970 -7929 0
7929 -89 -510 0
-7929 510 0
-7929 89 0
2970 -7930 0
7930 -90 -508 0
-7930 508 0
-7930 90 0
-3110 8348 8349 8350 0
3110 -8348 0
8348 -508 -929 0
-8348 929 0
-8348 508 0
3110 -8349 0
8349 -509 -930 0
-8349 930 0
-8349 509 0
3110 -8350 0
8350 -510 -928 0
-8350 928 0
-8350 510 0
-3250 8768 8769 8770 0
3250 -8768 0
8768 -928 -1349 0
-8768 1349 0
-8768 928 0
3250 -8769 0
8769 -929 -1350 0
-8769 1350 0
-8769 929 0
3250 -8770 0
8770 -930 -1348 0
-8770 1348 0
-8770 930 0
-3390 9188 9189 9190 0
3390 -9188 0
9188 -1348 -1769 0
-9188 1769 0
-9188 1348 0
3390 -9189 0
9189 -1349 -1770 0
-9189 1770 0
-9189 1349 0
3390 -9190 0
9190 -1350 -1768 0
-9190 1768 0
-9190 1350 0
-3530 9608 9609 9610 0
3530 -9608 0
9608 -1768 -2189 0
-9608 2189 0
-9608 1768 0
3530 -9609 0
9609 -1769 -2190 0
-9609 2190 0
-9609 1769 0
3530 -9610 0
9610 -1770 -2188 0
-9610 2188 0
-9610 1770 0
-3670 10028 10029 10030 0
3670 -10028 0
10028 -2188 -2609 0
-10028 2609 0
-10028 2188 0
3670 -10029 0
10029 -2189 -2610 0
-10029 2610 0
-10029 2189 0
3670 -10030 0
10030 -2190 -2608 0
-10030 2608 0
-10030 2190 0
-4090 5408 5409 5410 0
4090 -5408 0
4090 -5409 0
4090 -5410 0
-4230 5828 5829 5830 0
4230 -5828 0
4230 -5829 0
4230 -5830 0
-4370 6248 6249 6250 0
4370 -6248 0
4370 -6249 0
4370 -6250 0
-4510 6668 6669 6670 0
4510 -6668 0
4510 -6669 0
4510 -6670 0
-4650 7088 7089 7090 0
4650 -7088 0
4650 -7089 0
4650 -7090 0
-4790 7508 7509 7510 0
4790 -7508 0
4790 -7509 0
4790 -7510 0
5408 -508 -89 0
-5408 89 0
-5408 508 0
5409 -509 -90 0
-5409 90 0
-5409 509 0
5410 -510 -88 0
-5410 88 0
-5410 510 0
5828 -928 -509 0
-5828 509 0
-5828 928 0
5829 -929 -510 0
-5829 510 0
-5829 929 0
5830 -930 -508 0
-5830 508 0
-5830 930 0
6248 -1348 -929 0
-6248 929 0
-6248 1348 0
6249 -1349 -930 0
-6249 930 0
-6249 1349 0
6250 -1350 -928 0
-6250 928 0
-6250 1350 0
6668 -1768 -1349 0
-6668 1349 0
-6668 1768 0
6669 -1769 -1350 0
-6669 1350 0
-6669 1769 0
6670 -1770 -1348 0
-6670 1348 0
-6670 1770 0
7088 -2188 -1769 0
-7088 1769 0
-7088 2188 0
7089 -2189 -1770 0
-7089 1770 0
-7089 2189 0
7090 -2190 -1768 0
-7090 1768 0
-7090 2190 0
-7508 88 0
-7508 2188 0
-7508 -2609 0
7508 -88 -2188 2609 0
-7509 89 0
-7509 2189 0
-7509 -2610 0
7509 -89 -2189 2610 0
-7510 90 0
-7510 2190 0
-7510 -2608 0
7510 -90 -2190 2608 0
-2971 7931 7932 7933 0
2971 -7931 0
7931 -91 -512 0
-7931 512 0
-7931 91 0
2971 -7932 0
7932 -92 -513 0
-7932 513 0
-7932 92 0
2971 -7933 0
7933 -93 -511 0
-7933 511 0
-7933 93 0
-3111 8351 8352 8353 0
3111 -8351 0
8351 -511 -932 0
-8351 932 0
-8351 511 0
3111 -8352 0
8352 -512 -933 0
-8352 933 0
-8352 512 0
3111 -8353 0
8353 -513 -931 0
-8353 931 0
-8353 513 0
-3251 8771 8772 8773 0
3251 -8771 0
8771 -931 -1352 0
-8771 1352 0
-8771 931 0
3251 -8772 0
8772 -932 -1353 0
-8772 1353 0
-8772 932 0
3251 -8773 0
8773 -933 -1351 0
-8773 1351 0
-8773 933 0
-3391 9191 9192 9193 0
3391 -9191 0
9191 -1351 -1772 0
-9191 1772 0
-9191 1351 0
3391 -9192 0
9192 -1352 -1773 0
-9192 1773 0
-9192 1352 0
3391 -9193 0
9193 -1353 -1771 0
-9193 1771 0
-9193 1353 0
-3531 9611 9612 9613 0
3531 -9611 0
9611 -1771 -2192 0
-9611 2192 0
-9611 1771 0
3531 -9612 0
9612 -1772 -2193 0
-9612 2193 0
-9612 1772 0
3531 -9613 0
9613 -1773 -2191 0
-9613 2191 0
-9613 1773 0
-3671 10031 10032 10033 0
3671 -10031 0
10031 -2191 -2612 0
-10031 2612 0
-10031 2191 0
3671 -10032 0
10032 -2192 -2613 0
-10032 2613 0
-10032 2192 0
3671 -10033 0
10033 -2193 -2611 0
-10033 2611 0
-10033 2193 0
-4091 5411 5412 5413 0
4091 -5411 0
4091 -5412 0
4091 -5413 0
-4231 5831 5832 5833 0
4231 -5831 0
4231 -5832 0
4231 -5833 0
-4371 6251 6252 6253 0
4371 -6251 0
4371 -6252 0
4371 -6253 0
-4511 6671 6672 6673 0
4511 -6671 0
4511 -6672 0
4511 -6673 0
-4651 7091 7092 7093 0
4651 -7091 0
4651 -7092 0
4651 -7093 0
-4791 7511 7512 7513 0
4791 -7511 0
4791 -7512 0
4791 -7513 0
5411 -511 -92 0
-5411 92 0
-5411 511 0
5412 -512 -93 0
-5412 93 0
-5412 512 0
5413 -513 -91 0
-5413 91 0
-5413 513 0
5831 -931 -512 0
-5831 512 0
-5831 931 0
5832 -932 -513 0
-5832 513 0
-5832 932 0
5833 -933 -511 0
-5833 511 0
-5833 933 0
6251 -1351 -932 0
-6251 932 0
-6251 1351 0
6252 -1352 -933 0
-6252 933 0
-6252 1352 0
6253 -1353 -931 0
-6253 931 0
-6253 1353 0
6671 -1771 -1352 0
-6671 1352 0
-6671 1771 0
6672 -1772 -1353 0
-6672 1353 0
-6672 1772 0
6673 -1773 -1351 0
-6673 1351 0
-6673 1773 0
7091 -2191 -1772 0
-7091 1772 0
-7091 2191 0
7092 -2192 -1773 0
-7092 1773 0
-7092 2192 0
7093 -2193 -1771 0
-7093 1771 0
-7093 2193 0
-7511 91 0
-7511 2191 0
-7511 -2612 0
7511 -91 -2191 2612 0
-7512 92 0
-7512 2192 0
-7512 -2613 0
7512 -92 -2192 2613 0
-7513 93 0
-7513 2193 0
-7513 -2611 0
7513 -93 -2193 2611 0
-2972 7934 7935 7936 0
2972 -7934 0
7934 -94 -515 0
-7934 515 0
-7934 94 0
2972 -7935 0
7935 -95 -516 0
-7935 516 0
-7935 95 0
2972 -7936 0
7936 -96 -514 0
-7936 514 0
-7936 96 0
-3112 8354 8355 8356 0
3112 -8354 0
8354 -514 -935 0
-8354 935 0
-8354 514 0
3112 -8355 0
8355 -515 -936 0
-8355 936 0
-8355 515 0
3112 -8356 0
8356 -516 -934 0
-8356 934 0
-8356 516 0
-3252 8774 8775 8776 0
3252 -8774 0
8774 -934 -1355 0
-8774 1355 0
-8774 934 0
3252 -8775 0
8775 -935 -1356 0
-8775 1356 0
-8775 935 0
3252 -8776 0
8776 -936 -1354 0
-8776 1354 0
-8776 936 0
-3392 9194 9195 9196 0
3392 -9194 0
9194 -1354 -1775 0
-9194 1775 0
-9194 1354 0
3392 -9195 0
9195 -1355 -1776 0
-9195 1776 0
-9195 1355 0
3392 -9196 0
9196 -1356 -1774 0
-9196 1774 0
-9196 1356 0
-3532 9614 9615 9616 0
3532 -9614 0
9614 -1774 -2195 0
-9614 2195 0
-9614 1774 0
3532 -9615 0
9615 -1775 -2196 0
-9615 2196 0
-9615 1775 0
3532 -9616 0
9616 -1776 -2194 0
-9616 2194 0
-9616 1776 0
-3672 10034 10035 10036 0
3672 -10034 0
10034 -2194 -2615 0
-10034 2615 0
-10034 2194 0
3672 -10035 0
10035 -2195 -2616 0
-10035 2616 0
-10035 2195 0
3672 -10036 0
10036 -2196 -2614 0
-10036 2614 0
-10036 2196 0
-4092 5414 5415 5416 0
4092 -5414 0
4092 -5415 0
4092 -5416 0
-4232 5834 5835 5836 0
4232 -5834 0
4232 -5835 0
4232 -5836 0
-4372 6254 6255 6256 0
4372 -6254 0
4372 -6255 0
4372 -6256 0
-4512 6674 6675 6676 0
4512 -6674 0
4512 -6675 0
4512 -6676 0
-4652 7094 7095 7096 0
4652 -7094 0
4652 -7095 0
4652 -7096 0
-4792 7514 7515 7516 0
4792 -7514 0
4792 -7515 0
4792 -7516 0
5414 -514 -95 0
-5414 95 0
-5414 514 0
5415 -515 -96 0
-5415 96 0
-5415 515 0
5416 -516 -94 0
-5416 94 0
-5416 516 0
5834 -934 -515 0
-5834 515 0
-5834 934 0
5835 -935 -516 0
-5835 516 0
-5835 935 0
5836 -936 -514 0
-5836 514 0
-5836 936 0
6254 -1354 -935 0
-6254 935 0
-6254 1354 0
6255 -1355 -936 0
-6255 936 0
-6255 1355 0
6256 -1356 -934 0
-6256 934 0
-6256 1356 0
6674 -1774 -1355 0
-6674 1355 0
-6674 1774 0
6675 -1775 -1356 0
-6675 1356 0
-6675 1775 0
6676 -1776 -1354 0
-6676 1354 0
-6676 1776 0
7094 -2194 -1775 0
-7094 1775 0
-7094 2194 0
7095 -2195 -1776 0
-7095 1776 0
-7095 2195 0
7096 -2196 -1774 0
-7096 1774 0
-7096 2196 0
-7514 94 0
-7514 2194 0
-7514 -2615 0
7514 -94 -2194 2615 0
-7515 95 0
-7515 2195 0
-7515 -2616 0
7515 -95 -2195 2616 0
-7516 96 0
-7516 2196 0
-7516 -2614 0
7516 -96 -2196 2614 0
-2973 7937 7938 7939 0
2973 -7937 0
7937 -97 -518 0
-7937 518 0
-7937 97 0
2973 -7938 0
7938 -98 -519 0
-7938 519 0
-7938 98 0
2973 -7939 0
7939 -99 -517 0
-7939 517 0
-7939 99 0
-3113 8357 8358 8359 0
3113 -8357 0
8357 -517 -938 0
-8357 938 0
-8357 517 0
3113 -8358 0
8358 -518 -939 0
-8358 939 0
-8358 518 0
3113 -8359 0
8359 -519 -937 0
-8359 937 0
-8359 519 0
-3253 8777 8778 8779 0
3253 -8777 0
8777 -937 -1358 0
-8777 1358 0
-8777 937 0
3253 -8778 0
8778 -938 -1359 0
-8778 1359 0
-8778 938 0
3253 -8779 0
8779 -939 -1357 0
-8779 1357 0
-8779 939 0
-3393 9197 9198 9199 0
3393 -9197 0
9197 -1357 -1778 0
-9197 1778 0
-9197 1357 0
3393 -9198 0
9198 -1358 -1779 0
-9198 1779 0
-9198 1358 0
3393 -9199 0
9199 -1359 -1777 0
-9199 1777 0
-9199 1359 0
-3533 9617 9618 9619 0
3533 -9617 0
9617 -1777 -2198 0
-9617 2198 0
-9617 1777 0
3533 -9618 0
9618 -1778 -2199 0
-9618 2199 0
-9618 1778 0
3533 -9619 0
9619 -1779 -2197 0
-9619 2197 0
-9619 1779 0
-3673 10037 10038 10039 0
3673 -10037 0
10037 -2197 -2618 0
-10037 2618 0
-10037 2197 0
3673 -10038 0
10038 -2198 -2619 0
-10038 2619 0
-10038 2198 0
3673 -10039 0
10039 -2199 -2617 0
-10039 2617 0
-10039 2199 0
-4093 5417 5418 5419 0
4093 -5417 0
4093 -5418 0
4093 -5419 0
-4233 5837 5838 5839 0
4233 -5837 0
4233 -5838 0
4233 -5839 0
-4373 6257 6258 6259 0
4373 -6257 0
4373 -6258 0
4373 -6259 0
-4513 6677 6678 6679 0
4513 -6677 0
4513 -6678 0
4513 -6679 0
-4653 7097 7098 7099 0
4653 -7097 0
4653 -7098 0
4653 -7099 0
-4793 7517 7518 7519 0
4793 -7517 0
4793 -7518 0
4793 -7519 0
5417 -517 -98 0
-5417 98 0
-5417 517 0
5418 -518 -99 0
-5418 99 0
-5418 518 0
5419 -519 -97 0
-5419 97 0
-5419 519 0
5837 -937 -518 0
-5837 518 0
-5837 937 0
5838 -938 -519 0
-5838 519 0
-5838 938 0
5839 -939 -517 0
-5839 517 0
-5839 939 0
6257 -1357 -938 0
-6257 938 0
-6257 1357 0
6258 -1358 -939 0
-6258 939 0
-6258 1358 0
6259 -1359 -937 0
-6259 937 0
-6259 1359 0
6677 -1777 -1358 0
-6677 1358 0
-6677 1777 0
6678 -1778 -1359 0
-6678 1359 0
-6678 1778 0
6679 -1779 -1357 0
-6679 1357 0
-6679 1779 0
7097 -2197 -1778 0
-7097 1778 0
-7097 2197 0
7098 -2198 -1779 0
-7098 1779 0
-7098 2198 0
7099 -2199 -1777 0
-7099 1777 0
-7099 2199 0
-7517 97 0
-7517 2197 0
-7517 -2618 0
7517 -97 -2197 2618 0
-7518 98 0
-7518 2198 0
-7518 -2619 0
7518 -98 -2198 2619 0
-7519 99 0
-7519 2199 0
-7519 -2617 0
7519 -99 -2199 2617 0
-2974 7940 7941 7942 0
2974 -7940 0
7940 -100 -521 0
-7940 521 0
-7940 100 0
2974 -7941 0
7941 -101 -522 0
-7941 522 0
-7941 101 0
2974 -7942 0
7942 -102 -520 0
-7942 520 0
-7942 102 0
-3114 8360 8361 8362 0
3114 -8360 0
8360 -520 -941 0
-8360 941 0
-8360 520 0
3114 -8361 0
8361 -521 -942 0
-8361 942 0
-8361 521 0
3114 -8362 0
8362 -522 -940 0
-8362 940 0
-8362 522 0
-3254 8780 8781 8782 0
3254 -8780 0
8780 -940 -1361 0
-8780 1361 0
-8780 940 0
3254 -8781 0
8781 -941 -1362 0
-8781 1362 0
-8781 941 0
3254 -8782 0
8782 -942 -1360 0
-8782 1360 0
-8782 942 0
-3394 9200 9201 9202 0
3394 -9200 0
9200 -1360 -1781 0
-9200 1781 0
-9200 1360 0
3394 -9201 0
9201 -1361 -1782 0
-9201 1782 0
-9201 1361 0
3394 -9202 0
9202 -1362 -1780 0
-9202 1780 0
-9202 1362 0
-3534 9620 9621 9622 0
3534 -9620 0
9620 -1780 -2201 0
-9620 2201 0
-9620 1780 0
3534 -9621 0
9621 -1781 -2202 0
-9621 2202 0
-9621 1781 0
3534 -9622 0
9622 -1782 -2200 0
-9622 2200 0
-9622 1782 0
-3674 10040 10041 10042 0
3674 -10040 0
10040 -2200 -2621 0
-10040 2621 0
-10040 2200 0
3674 -10041 0
10041 -2201 -2622 0
-10041 2622 0
-10041 2201 0
3674 -10042 0
10042 -2202 -2620 0
-10042 2620 0
-10042 2202 0
-4094 5420 5421 5422 0
4094 -5420 0
4094 -5421 0
4094 -5422 0
-4234 5840 5841 5842 0
4234 -5840 0
4234 -5841 0
4234 -5842 0
-4374 6260 6261 6262 0
4374 -6260 0
4374 -6261 0
4374 -6262 0
-4514 6680 6681 6682 0
4514 -6680 0
4514 -6681 0
4514 -6682 0
-4654 7100 7101 7102 0
4654 -7100 0
4654 -7101 0
4654 -7102 0
-4794 7520 7521 7522 0
4794 -7520 0
4794 -7521 0
4794 -7522 0
5420 -520 -101 0
-5420 101 0
-5420 520 0
5421 -521 -102 0
-5421 102 0
-5421 521 0
5422 -522 -100 0
-5422 100 0
-5422 522 0
5840 -940 -521 0
-5840 521 0
-5840 940 0
5841 -941 -522 0
-5841 522 0
-5841 941 0
5842 -942 -520 0
-5842 520 0
-5842 942 0
6260 -1360 -941 0
-6260 941 0
-6260 1360 0
6261 -1361 -942 0
-6261 942 0
-6261 1361 0
6262 -1362 -940 0
-6262 940 0
-6262 1362 0
6680 -1780 -1361 0
-6680 1361 0
-6680 1780 0
6681 -1781 -1362 0
-6681 1362 0
-6681 1781 0
6682 -1782 -1360 0
-6682 1360 0
-6682 1782 0
7100 -2200 -1781 0
-7100 1781 0
-7100 2200 0
7101 -2201 -1782 0
-7101 1782 0
-7101 2201 0
7102 -2202 -1780 0
-7102 1780 0
-7102 2202 0
-7520 100 0
-7520 2200 0
-7520 -2621 0
7520 -100 -2200 2621 0
-7521 101 0
-7521 2201 0
-7521 -2622 0
7521 -101 -2201 2622 0
-7522 102 0
-7522 2202 0
-7522 -2620 0
7522 -102 -2202 2620 0
-2975 7943 7944 7945 0
2975 -7943 0
7943 -103 -524 0
-7943 524 0
-7943 103 0
2975 -7944 0
7944 -104 -525 0
-7944 525 0
-7944 104 0
2975 -7945 0
7945 -105 -523 0
-7945 523 0
-7945 105 0
-3115 8363 8364 8365 0
3115 -8363 0
8363 -523 -944 0
-8363 944 0
-8363 523 0
3115 -8364 0
8364 -524 -945 0
-8364 945 0
-8364 524 0
3115 -8365 0
8365 -525 -943 0
-8365 943 0
-8365 525 0
-3255 8783 8784 8785 0
3255 -8783 0
8783 -943 -1364 0
-8783 1364 0
-8783 943 0
3255 -8784 0
8784 -944 -1365 0
-8784 1365 0
-8784 944 0
3255 -8785 0
8785 -945 -1363 0
-8785 1363 0
-8785 945 0
-3395 9203 9204 9205 0
3395 -9203 0
9203 -1363 -1784 0
-9203 1784 0
-9203 1363 0
3395 -9204 0
9204 -1364 -1785 0
-9204 1785 0
-9204 1364 0
3395 -9205 0
9205 -1365 -1783 0
-9205 1783 0
-9205 1365 0
-3535 9623 9624 9625 0
3535 -9623 0
9623 -1783 -2204 0
-9623 2204 0
-9623 1783 0
3535 -9624 0
9624 -1784 -2205 0
-9624 2205 0
-9624 1784 0
3535 -9625 0
9625 -1785 -2203 0
-9625 2203 0
-9625 1785 0
-3675 10043 10044 10045 0
3675 -10043 0
10043 -2203 -2624 0
-10043 2624 0
-10043 2203 0
3675 -10044 0
10044 -2204 -2625 0
-10044 2625 0
-10044 2204 0
3675 -10045 0
10045 -2205 -2623 0
-10045 2623 0
-10045 2205 0
-4095 5423 5424 5425 0
4095 -5423 0
4095 -5424 0
4095 -5425 0
-4235 5843 5844 5845 0
4235 -5843 0
4235 -5844 0
4235 -5845 0
-4375 6263 6264 6265 0
4375 -6263 0
4375 -6264 0
4375 -6265 0
-4515 6683 6684 6685 0
4515 -6683 0
4515 -6684 0
4515 -6685 0
-4655 7103 7104 7105 0
4655 -7103 0
4655 -7104 0
4655 -7105 0
-4795 7523 7524 7525 0
4795 -7523 0
4795 -7524 0
4795 -7525 0
5423 -523 -104 0
-5423 104 0
-5423 523 0
5424 -524 -105 0
-5424 105 0
-5424 524 0
5425 -525 -103 0
-5425 103 0
-5425 525 0
5843 -943 -524 0
-5843 524 0
-5843 943 0
5844 -944 -525 0
-5844 525 0
-5844 944 0
5845 -945 -523 0
-5845 523 0
-5845 945 0
6263 -1363 -944 0
-6263 944 0
-6263 1363 0
6264 -1364 -945 0
-6264 945 0
-6264 1364 0
6265 -1365 -943 0
-6265 943 0
-6265 1365 0
6683 -1783 -1364 0
-6683 1364 0
-6683 1783 0
6684 -1784 -1365 0
-6684 1365 0
-6684 1784 0
6685 -1785 -1363 0
-6685 1363 0
-6685 1785 0
7103 -2203 -1784 0
-7103 1784 0
-7103 2203 0
7104 -2204 -1785 0
-7104 1785 0
-7104 2204 0
7105 -2205 -1783 0
-7105 1783 0
-7105 2205 0
-7523 103 0
-7523 2203 0
-7523 -2624 0
7523 -103 -2203 2624 0
-7524 104 0
-7524 2204 0
-7524 -2625 0
7524 -104 -2204 2625 0
-7525 105 0
-7525 2205 0
-7525 -2623 0
7525 -105 -2205 2623 0
-2976 7946 7947 7948 0
2976 -7946 0
7946 -106 -527 0
-7946 527 0
-7946 106 0
2976 -7947 0
7947 -107 -528 0
-7947 528 0
-7947 107 0
2976 -7948 0
7948 -108 -526 0
-7948 526 0
-7948 108 0
-3116 8366 8367 8368 0
3116 -8366 0
8366 -526 -947 0
-8366 947 0
-8366 526 0
3116 -8367 0
8367 -527 -948 0
-8367 948 0
-8367 527 0
3116 -8368 0
8368 -528 -946 0
-8368 946 0
-8368 528 0
-3256 8786 8787 8788 0
3256 -8786 0
8786 -946 -1367 0
-8786 1367 0
-8786 946 0
3256 -8787 0
8787 -947 -1368 0
-8787 1368 0
-8787 947 0
3256 -8788 0
8788 -948 -1366 0
-8788 1366 0
-8788 948 0
-3396 9206 9207 9208 0
3396 -9206 0
9206 -1366 -1787 0
-9206 1787 0
-9206 1366 0
3396 -9207 0
9207 -1367 -1788 0
-9207 1788 0
-9207 1367 0
3396 -9208 0
9208 -1368 -1786 0
-9208 1786 0
-9208 1368 0
-3536 9626 9627 9628 0
3536 -9626 0
9626 -1786 -2207 0
-9626 2207 0
-9626 1786 0
3536 -9627 0
9627 -1787 -2208 0
-9627 2208 0
-9627 1787 0
3536 -9628 0
9628 -1788 -2206 0
-9628 2206 0
-9628 1788 0
-3676 10046 10047 10048 0
3676 -10046 0
10046 -2206 -2627 0
-10046 2627 0
-10046 2206 0
3676 -10047 0
10047 -2207 -2628 0
-10047 2628 0
-10047 2207 0
3676 -10048 0
10048 -2208 -2626 0
-10048 2626 0
-10048 2208 0
-4096 5426 5427 5428 0
4096 -5426 0
4096 -5427 0
4096 -5428 0
-4236 5846 5847 5848 0
4236 -5846 0
4236 -5847 0
4236 -5848 0
-4376 6266 6267 6268 0
4376 -6266 0
4376 -6267 0
4376 -6268 0
-4516 6686 6687 6688 0
4516 -6686 0
4516 -6687 0
4516 -6688 0
-4656 7106 7107 7108 0
4656 -7106 0
4656 -7107 0
4656 -7108 0
-4796 7526 7527 7528 0
4796 -7526 0
4796 -7527 0
4796 -7528 0
5426 -526 -107 0
-5426 107 0
-5426 526 0
5427 -527 -108 0
-5427 108 0
-5427 527 0
5428 -528 -106 0
-5428 106 0
-5428 528 0
5846 -946 -527 0
-5846 527 0
-5846 946 0
5847 -947 -528 0
-5847 528 0
-5847 947 0
5848 -948 -526 0
-5848 526 0
-5848 948 0
6266 -1366 -947 0
-6266 947 0
-6266 1366 0
6267 -1367 -948 0
-6267 948 0
-6267 1367 0
6268 -1368 -946 0
-6268 946 0
-6268 1368 0
6686 -1786 -1367 0
-6686 1367 0
-6686 1786 0
6687 -1787 -1368 0
-6687 1368 0
-6687 1787 0
6688 -1788 -1366 0
-6688 1366 0
-6688 1788 0
7106 -2206 -1787 0
-7106 1787 0
-7106 2206 0
7107 -2207 -1788 0
-7107 1788 0
-7107 2207 0
7108 -2208 -1786 0
-7108 1786 0
-7108 2208 0
-7526 106 0
-7526 2206 0
-7526 -2627 0
7526 -106 -2206 2627 0
-7527 107 0
-7527 2207 0
-7527 -2628 0
7527 -107 -2207 2628 0
-7528 108 0
-7528 2208 0
-7528 -2626 0
7528 -108 -2208 2626 0
-2977 7949 7950 7951 0
2977 -7949 0
7949 -109 -530 0
-7949 530 0
-7949 109 0
2977 -7950 0
7950 -110 -531 0
-7950 531 0
-7950 110 0
2977 -7951 0
7951 -111 -529 0
-7951 529 0
-7951 111 0
-3117 8369 8370 8371 0
3117 -8369 0
8369 -529 -950 0
-8369 950 0
-8369 529 0
3117 -8370 0
8370 -530 -951 0
-8370 951 0
-8370 530 0
3117 -8371 0
8371 -531 -949 0
-8371 949 0
-8371 531 0
-3257 8789 8790 8791 0
3257 -8789 0
8789 -949 -1370 0
-8789 1370 0
-8789 949 0
3257 -8790 0
8790 -950 -1371 0
-8790 1371 0
-8790 950 0
3257 -8791 0
8791 -951 -1369 0
-8791 1369 0
-8791 951 0
-3397 9209 9210 9211 0
3397 -9209 0
9209 -1369 -1790 0
-9209 1790 0
-9209 1369 0
3397 -9210 0
9210 -1370 -1791 0
-9210 1791 0
-9210 1370 0
3397 -9211 0
9211 -1371 -1789 0
-9211 1789 0
-9211 1371 0
-3537 9629 9630 9631 0
3537 -9629 0
9629 -1789 -2210 0
-9629 2210 0
-9629 1789 0
3537 -9630 0
9630 -1790 -2211 0
-9630 2211 0
-9630 1790 0
3537 -9631 0
9631 -1791 -2209 0
-9631 2209 0
-9631 1791 0
-3677 10049 10050 10051 0
3677 -10049 0
10049 -2209 -2630 0
-10049 2630 0
-10049 2209 0
3677 -10050 0
10050 -2210 -2631 0
-10050 2631 0
-10050 2210 0
3677 -10051 0
10051 -2211 -2629 0
-10051 2629 0
-10051 2211 0
-4097 5429 5430 5431 0
4097 -5429 0
4097 -5430 0
4097 -5431 0
-4237 5849 5850 5851 0
4237 -5849 0
4237 -5850 0
4237 -5851 0
-4377 6269 6270 6271 0
4377 -6269 0
4377 -6270 0
4377 -6271 0
-4517 6689 6690 6691 0
4517 -6689 0
4517 -6690 0
4517 -6691 0
-4657 7109 7110 7111 0
4657 -7109 0
4657 -7110 0
4657 -7111 0
-4797 7529 7530 7531 0
4797 -7529 0
4797 -7530 0
4797 -7531 0
5429 -529 -110 0
-5429 110 0
-5429 529 0
5430 -530 -111 0
-5430 111 0
-5430 530 0
5431 -531 -109 0
-5431 109 0
-5431 531 0
5849 -949 -530 0
-5849 530 0
-5849 949 0
5850 -950 -531 0
-5850 531 0
-5850 950 0
5851 -951 -529 0
-5851 529 0
-5851 951 0
6269 -1369 -950 0
-6269 950 0
-6269 1369 0
6270 -1370 -951 0
-6270 951 0
-6270 1370 0
6271 -1371 -949 0
-6271 949 0
-6271 1371 0
6689 -1789 -1370 0
-6689 1370 0
-6689 1789 0
6690 -1790 -1371 0
-6690 1371 0
-6690 1790 0
6691 -1791 -1369 0
-6691 1369 0
-6691 1791 0
7109 -2209 -1790 0
-7109 1790 0
-7109 2209 0
7110 -2210 -1791 0
-7110 1791 0
-7110 2210 0
7111 -2211 -1789 0
-7111 1789 0
-7111 2211 0
-7529 109 0
-7529 2209 0
-7529 -2630 0
7529 -109 -2209 2630 0
-7530 110 0
-7530 2210 0
-7530 -2631 0
7530 -110 -2210 2631 0
-7531 111 0
-7531 2211 0
-7531 -2629 0
7531 -111 -2211 2629 0
-2978 7952 7953 7954 0
2978 -7952 0
7952 -112 -533 0
-7952 533 0
-7952 112 0
2978 -7953 0
7953 -113 -534 0
-7953 534 0
-7953 113 0
2978 -7954 0
7954 -114 -532 0
-7954 532 0
-7954 114 0
-3118 8372 8373 8374 0
3118 -8372 0
8372 -532 -953 0
-8372 953 0
-8372 532 0
3118 -8373 0
8373 -533 -954 0
-8373 954 0
-8373 533 0
3118 -8374 0
8374 -534 -952 0
-8374 952 0
-8374 534 0
-3258 8792 8793 8794 0
3258 -8792 0
8792 -952 -1373 0
-8792 1373 0
-8792 952 0
3258 -8793 0
8793 -953 -1374 0
-8793 1374 0
-8793 953 0
3258 -8794 0
8794 -954 -1372 0
-8794 1372 0
-8794 954 0
-3398 9212 9213 9214 0
3398 -9212 0
9212 -1372 -1793 0
-9212 1793 0
-9212 1372 0
3398 -9213 0
9213 -1373 -1794 0
-9213 1794 0
-9213 1373 0
3398 -9214 0
9214 -1374 -1792 0
-9214 1792 0
-9214 1374 0
-3538 9632 9633 9634 0
3538 -9632 0
9632 -1792 -2213 0
-9632 2213 0
-9632 1792 0
3538 -9633 0
9633 -1793 -2214 0
-9633 2214 0
-9633 1793 0
3538 -9634 0
9634 -1794 -2212 0
-9634 2212 0
-9634 1794 0
-3678 10052 10053 10054 0
3678 -10052 0
10052 -2212 -2633 0
-10052 2633 0
-10052 2212 0
3678 -10053 0
10053 -2213 -2634 0
-10053 2634 0
-10053 2213 0
3678 -10054 0
10054 -2214 -2632 0
-10054 2632 0
-10054 2214 0
-4098 5432 5433 5434 0
4098 -5432 0
4098 -5433 0
4098 -5434 0
-4238 5852 5853 5854 0
4238 -5852 0
4238 -5853 0
4238 -5854 0
-4378 6272 6273 6274 0
4378 -6272 0
4378 -6273 0
4378 -6274 0
-4518 6692 6693 6694 0
4518 -6692 0
4518 -6693 0
4518 -6694 0
-4658 7112 7113 7114 0
4658 -7112 0
4658 -7113 0
4658 -7114 0
-4798 7532 7533 7534 0
4798 -7532 0
4798 -7533 0
4798 -7534 0
5432 -532 -113 0
-5432 113 0
-5432 532 0
5433 -533 -114 0
-5433 114 0
-5433 533 0
5434 -534 -112 0
-5434 112 0
-5434 534 0
5852 -952 -533 0
-5852 533 0
-5852 952 0
5853 -953 -534 0
-5853 534 0
-5853 953 0
5854 -954 -532 0
-5854 532 0
-5854 954 0
6272 -1372 -953 0
-6272 953 0
-6272 1372 0
6273 -1373 -954 0
-6273 954 0
-6273 1373 0
6274 -1374 -952 0
-6274 952 0
-6274 1374 0
6692 -1792 -1373 0
-6692 1373 0
-6692 1792 0
6693 -1793 -1374 0
-6693 1374 0
-6693 1793 0
6694 -1794 -1372 0
-6694 1372 0
-6694 1794 0
7112 -2212 -1793 0
-7112 1793 0
-7112 2212 0
7113 -2213 -1794 0
-7113 1794 0
-7113 2213 0
7114 -2214 -1792 0
-7114 1792 0
-7114 2214 0
-7532 112 0
-7532 2212 0
-7532 -2633 0
7532 -112 -2212 2633 0
-7533 113 0
-7533 2213 0
-7533 -2634 0
7533 -113 -2213 2634 0
-7534 114 0
-7534 2214 0
-7534 -2632 0
7534 -114 -2214 2632 0
-2979 7955 7956 7957 0
2979 -7955 0
7955 -115 -536 0
-7955 536 0
-7955 115 0
2979 -7956 0
7956 -116 -537 0
-7956 537 0
-7956 116 0
2979 -7957 0
7957 -117 -535 0
-7957 535 0
-7957 117 0
-3119 8375 8376 8377 0
3119 -8375 0
8375 -535 -956 0
-8375 956 0
-8375 535 0
3119 -8376 0
8376 -536 -957 0
-8376 957 0
-8376 536 0
3119 -8377 0
8377 -537 -955 0
-8377 955 0
-8377 537 0
-3259 8795 8796 8797 0
3259 -8795 0
8795 -955 -1376 0
-8795 1376 0
-8795 955 0
3259 -8796 0
8796 -956 -1377 0
-8796 1377 0
-8796 956 0
3259 -8797 0
8797 -957 -1375 0
-8797 1375 0
-8797 957 0
-3399 9215 9216 9217 0
3399 -9215 0
9215 -1375 -1796 0
-9215 1796 0
-9215 1375 0
3399 -9216 0
9216 -1376 -1797 0
-9216 1797 0
-9216 1376 0
3399 -9217 0
9217 -1377 -1795 0
-9217 1795 0
-9217 1377 0
-3539 9635 9636 9637 0
3539 -9635 0
9635 -1795 -2216 0
-9635 2216 0
-9635 1795 0
3539 -9636 0
9636 -1796 -2217 0
-9636 2217 0
-9636 1796 0
3539 -9637 0
9637 -1797 -2215 0
-9637 2215 0
-9637 1797 0
-3679 10055 10056 10057 0
3679 -10055 0
10055 -2215 -2636 0
-10055 2636 0
-10055 2215 0
3679 -10056 0
10056 -2216 -2637 0
-10056 2637 0
-10056 2216 0
3679 -10057 0
10057 -2217 -2635 0
-10057 2635 0
-10057 2217 0
-4099 5435 5436 5437 0
4099 -5435 0
4099 -5436 0
4099 -5437 0
-4239 5855 5856 5857 0
4239 -5855 0
4239 -5856 0
4239 -5857 0
-4379 6275 6276 6277 0
4379 -6275 0
4379 -6276 0
4379 -6277 0
-4519 6695 6696 6697 0
4519 -6695 0
4519 -6696 0
4519 -6697 0
-4659 7115 7116 7117 0
4659 -7115 0
4659 -7116 0
4659 -7117 0
-4799 7535 7536 7537 0
4799 -7535 0
4799 -7536 0
4799 -7537 0
5435 -535 -116 0
-5435 116 0
-5435 535 0
5436 -536 -117 0
-5436 117 0
-5436 536 0
5437 -537 -115 0
-5437 115 0
-5437 537 0
5855 -955 -536 0
-5855 536 0
-5855 955 0
5856 -956 -537 0
-5856 537 0
-5856 956 0
5857 -957 -535 0
-5857 535 0
-5857 957 0
6275 -1375 -956 0
-6275 956 0
-6275 1375 0
6276 -1376 -957 0
-6276 957 0
-6276 1376 0
6277 -1377 -955 0
-6277 955 0
-6277 1377 0
6695 -1795 -1376 0
-6695 1376 0
-6695 1795 0
6696 -1796 -1377 0
-6696 1377 0
-6696 1796 0
6697 -1797 -1375 0
-6697 1375 0
-6697 1797 0
7115 -2215 -1796 0
-7115 1796 0
-7115 2215 0
7116 -2216 -1797 0
-7116 1797 0
-7116 2216 0
7117 -2217 -1795 0
-7117 1795 0
-7117 2217 0
-7535 115 0
-7535 2215 0
-7535 -2636 0
7535 -115 -2215 2636 0
-7536 116 0
-7536 2216 0
-7536 -2637 0
7536 -116 -2216 2637 0
-7537 117 0
-7537 2217 0
-7537 -2635 0
7537 -117 -2217 2635 0
-2980 7958 7959 7960 0
2980 -7958 0
7958 -118 -539 0
-7958 539 0
-7958 118 0
2980 -7959 0
7959 -119 -540 0
-7959 540 0
-7959 119 0
2980 -7960 0
7960 -120 -538 0
-7960 538 0
-7960 120 0
-3120 8378 8379 8380 0
3120 -8378 0
8378 -538 -959 0
-8378 959 0
-8378 538 0
3120 -8379 0
8379 -539 -960 0
-8379 960 0
-8379 539 0
3120 -8380 0
8380 -540 -958 0
-8380 958 0
-8380 540 0
-3260 8798 8799 8800 0
3260 -8798 0
8798 -958 -1379 0
-8798 1379 0
-8798 958 0
3260 -8799 0
8799 -959 -1380 0
-8799 1380 0
-8799 959 0
3260 -8800 0
8800 -960 -1378 0
-8800 1378 0
-8800 960 0
-3400 9218 9219 9220 0
3400 -9218 0
9218 -1378 -1799 0
-9218 1799 0
-9218 1378 0
3400 -9219 0
9219 -1379 -1800 0
-9219 1800 0
-9219 1379 0
3400 -9220 0
9220 -1380 -1798 0
-9220 1798 0
-9220 1380 0
-3540 9638 9639 9640 0
3540 -9638 0
9638 -1798 -2219 0
-9638 2219 0
-9638 1798 0
3540 -9639 0
9639 -1799 -2220 0
-9639 2220 0
-9639 1799 0
3540 -9640 0
9640 -1800 -2218 0
-9640 2218 0
-9640 1800 0
-3680 10058 10059 10060 0
3680 -10058 0
10058 -2218 -2639 0
-10058 2639 0
-10058 2218 0
3680 -10059 0
10059 -2219 -2640 0
-10059 2640 0
-10059 2219 0
3680 -10060 0
10060 -2220 -2638 0
-10060 2638 0
-10060 2220 0
-4100 5438 5439 5440 0
4100 -5438 0
4100 -5439 0
4100 -5440 0
-4240 5858 5859 5860 0
4240 -5858 0
4240 -5859 0
4240 -5860 0
-4380 6278 6279 6280 0
4380 -6278 0
4380 -6279 0
4380 -6280 0
-4520 6698 6699 6700 0
4520 -6698 0
4520 -6699 0
4520 -6700 0
-4660 7118 7119 7120 0
4660 -7118 0
4660 -7119 0
4660 -7120 0
-4800 7538 7539 7540 0
4800 -7538 0
4800 -7539 0
4800 -7540 0
5438 -538 -119 0
-5438 119 0
-5438 538 0
5439 -539 -120 0
-5439 120 0
-5439 539 0
5440 -540 -118 0
-5440 118 0
-5440 540 0
5858 -958 -539 0
-5858 539 0
-5858 958 0
5859 -959 -540 0
-5859 540 0
-5859 959 0
5860 -960 -538 0
-5860 538 0
-5860 960 0
6278 -1378 -959 0
-6278 959 0
-6278 1378 0
6279 -1379 -960 0
-6279 960 0
-6279 1379 0
6280 -1380 -958 0
-6280 958 0
-6280 1380 0
6698 -1798 -1379 0
-6698 1379 0
-6698 1798 0
6699 -1799 -1380 0
-6699 1380 0
-6699 1799 0
6700 -1800 -1378 0
-6700 1378 0
-6700 1800 0
7118 -2218 -1799 0
-7118 1799 0
-7118 2218 0
7119 -2219 -1800 0
-7119 1800 0
-7119 2219 0
7120 -2220 -1798 0
-7120 1798 0
-7120 2220 0
-7538 118 0
-7538 2218 0
-7538 -2639 0
7538 -118 -2218 2639 0
-7539 119 0
-7539 2219 0
-7539 -2640 0
7539 -119 -2219 2640 0
-7540 120 0
-7540 2220 0
-7540 -2638 0
7540 -120 -2220 2638 0
-2981 7961 7962 7963 0
2981 -7961 0
7961 -121 -542 0
-7961 542 0
-7961 121 0
2981 -7962 0
7962 -122 -543 0
-7962 543 0
-7962 122 0
2981 -7963 0
7963 -123 -541 0
-7963 541 0
-7963 123 0
-3121 8381 8382 8383 0
3121 -8381 0
8381 -541 -962 0
-8381 962 0
-8381 541 0
3121 -8382 0
8382 -542 -963 0
-8382 963 0
-8382 542 0
3121 -8383 0
8383 -543 -961 0
-8383 961 0
-8383 543 0
-3261 8801 8802 8803 0
3261 -8801 0
8801 -961 -1382 0
-8801 1382 0
-8801 961 0
3261 -8802 0
8802 -962 -1383 0
-8802 1383 0
-8802 962 0
3261 -8803 0
8803 -963 -1381 0
-8803 1381 0
-8803 963 0
-3401 9221 9222 9223 0
3401 -9221 0
9221 -1381 -1802 0
-9221 1802 0
-9221 1381 0
3401 -9222 0
9222 -1382 -1803 0
-9222 1803 0
-9222 1382 0
3401 -9223 0
9223 -1383 -1801 0
-9223 1801 0
-9223 1383 0
-3541 9641 9642 9643 0
3541 -9641 0
9641 -1801 -2222 0
-9641 2222 0
-9641 1801 0
3541 -9642 0
9642 -1802 -2223 0
-9642 2223 0
-9642 1802 0
3541 -9643 0
9643 -1803 -2221 0
-9643 2221 0
-9643 1803 0
-3681 10061 10062 10063 0
3681 -10061 0
10061 -2221 -2642 0
-10061 2642 0
-10061 2221 0
3681 -10062 0
10062 -2222 -2643 0
-10062 2643 0
-10062 2222 0
3681 -10063 0
10063 -2223 -2641 0
-10063 2641 0
-10063 2223 0
-4101 5441 5442 5443 0
4101 -5441 0
4101 -5442 0
4101 -5443 0
-4241 5861 5862 5863 0
4241 -5861 0
4241 -5862 0
4241 -5863 0
-4381 6281 6282 6283 0
4381 -6281 0
4381 -6282 0
4381 -6283 0
-4521 6701 6702 6703 0
4521 -6701 0
4521 -6702 0
4521 -6703 0
-4661 7121 7122 7123 0
4661 -7121 0
4661 -7122 0
4661 -7123 0
-4801 7541 7542 7543 0
4801 -7541 0
4801 -7542 0
4801 -7543 0
5441 -541 -122 0
-5441 122 0
-5441 541 0
5442 -542 -123 0
-5442 123 0
-5442 542 0
5443 -543 -121 0
-5443 121 0
-5443 543 0
5861 -961 -542 0
-5861 542 0
-5861 961 0
5862 -962 -543 0
-5862 543 0
-5862 962 0
5863 -963 -541 0
-5863 541 0
-5863 963 0
6281 -1381 -962 0
-6281 962 0
-6281 1381 0
6282 -1382 -963 0
-6282 963 0
-6282 1382 0
6283 -1383 -961 0
-6283 961 0
-6283 1383 0
6701 -1801 -1382 0
-6701 1382 0
-6701 1801 0
6702 -1802 -1383 0
-6702 1383 0
-6702 1802 0
6703 -1803 -1381 0
-6703 1381 0
-6703 1803 0
7121 -2221 -1802 0
-7121 1802 0
-7121 2221 0
7122 -2222 -1803 0
-7122 1803 0
-7122 2222 0
7123 -2223 -1801 0
-7123 1801 0
-7123 2223 0
-7541 121 0
-7541 2221 0
-7541 -2642 0
7541 -121 -2221 2642 0
-7542 122 0
-7542 2222 0
-7542 -2643 0
7542 -122 -2222 2643 0
-7543 123 0
-7543 2223 0
-7543 -2641 0
7543 -123 -2223 2641 0
-2982 7964 7965 7966 0
2982 -7964 0
7964 -124 -545 0
-7964 545 0
-7964 124 0
2982 -7965 0
7965 -125 -546 0
-7965 546 0
-7965 125 0
2982 -7966 0
7966 -126 -544 0
-7966 544 0
-7966 126 0
-3122 8384 8385 8386 0
3122 -8384 0
8384 -544 -965 0
-8384 965 0
-8384 544 0
3122 -8385 0
8385 -545 -966 0
-8385 966 0
-8385 545 0
3122 -8386 0
8386 -546 -964 0
-8386 964 0
-8386 546 0
-3262 8804 8805 8806 0
3262 -8804 0
8804 -964 -1385 0
-8804 1385 0
-8804 964 0
3262 -8805 0
8805 -965 -1386 0
-8805 1386 0
-8805 965 0
3262 -8806 0
8806 -966 -1384 0
-8806 1384 0
-8806 966 0
-3402 9224 9225 9226 0
3402 -9224 0
9224 -1384 -1805 0
-9224 1805 0
-9224 1384 0
3402 -9225 0
9225 -1385 -1806 0
-9225 1806 0
-9225 1385 0
3402 -9226 0
9226 -1386 -1804 0
-9226 1804 0
-9226 1386 0
-3542 9644 9645 9646 0
3542 -9644 0
9644 -1804 -2225 0
-9644 2225 0
-9644 1804 0
3542 -9645 0
9645 -1805 -2226 0
-9645 2226 0
-9645 1805 0
3542 -9646 0
9646 -1806 -2224 0
-9646 2224 0
-9646 1806 0
-3682 10064 10065 10066 0
3682 -10064 0
10064 -2224 -2645 0
-10064 2645 0
-10064 2224 0
3682 -10065 0
10065 -2225 -2646 0
-10065 2646 0
-10065 2225 0
3682 -10066 0
10066 -2226 -2644 0
-10066 2644 0
-10066 2226 0
-4102 5444 5445 5446 0
4102 -5444 0
4102 -5445 0
4102 -5446 0
-4242 5864 5865 5866 0
4242 -5864 0
4242 -5865 0
4242 -5866 0
-4382 6284 6285 6286 0
4382 -6284 0
4382 -6285 0
4382 -6286 0
-4522 6704 6705 6706 0
4522 -6704 0
4522 -6705 0
4522 -6706 0
-4662 7124 7125 7126 0
4662 -7124 0
4662 -7125 0
4662 -7126 0
-4802 7544 7545 7546 0
4802 -7544 0
4802 -7545 0
4802 -7546 0
5444 -544 -125 0
-5444 125 0
-5444 544 0
5445 -545 -126 0
-5445 126 0
-5445 545 0
5446 -546 -124 0
-5446 124 0
-5446 546 0
5864 -964 -545 0
-5864 545 0
-5864 964 0
5865 -965 -546 0
-5865 546 0
-5865 965 0
5866 -966 -544 0
-5866 544 0
-5866 966 0
6284 -1384 -965 0
-6284 965 0
-6284 1384 0
6285 -1385 -966 0
-6285 966 0
-6285 1385 0
6286 -1386 -964 0
-6286 964 0
-6286 1386 0
6704 -1804 -1385 0
-6704 1385 0
-6704 1804 0
6705 -1805 -1386 0
-6705 1386 0
-6705 1805 0
6706 -1806 -1384 0
-6706 1384 0
-6706 1806 0
7124 -2224 -1805 0
-7124 1805 0
-7124 2224 0
7125 -2225 -1806 0
-7125 1806 0
-7125 2225 0
7126 -2226 -1804 0
-7126 1804 0
-7126 2226 0
-7544 124 0
-7544 2224 0
-7544 -2645 0
7544 -124 -2224 2645 0
-7545 125 0
-7545 2225 0
-7545 -2646 0
7545 -125 -2225 2646 0
-7546 126 0
-7546 2226 0
-7546 -2644 0
7546 -126 -2226 2644 0
-2983 7967 7968 7969 0
2983 -7967 0
7967 -127 -548 0
-7967 548 0
-7967 127 0
2983 -7968 0
7968 -128 -549 0
-7968 549 0
-7968 128 0
2983 -7969 0
7969 -129 -547 0
-7969 547 0
-7969 129 0
-3123 8387 8388 8389 0
3123 -8387 0
8387 -547 -968 0
-8387 968 0
-8387 547 0
3123 -8388 0
8388 -548 -969 0
-8388 969 0
-8388 548 0
3123 -8389 0
8389 -549 -967 0
-8389 967 0
-8389 549 0
-3263 8807 8808 8809 0
3263 -8807 0
8807 -967 -1388 0
-8807 1388 0
-8807 967 0
3263 -8808 0
8808 -968 -1389 0
-8808 1389 0
-8808 968 0
3263 -8809 0
8809 -969 -1387 0
-8809 1387 0
-8809 969 0
-3403 9227 9228 9229 0
3403 -9227 0
9227 -1387 -1808 0
-9227 1808 0
-9227 1387 0
3403 -9228 0
9228 -1388 -1809 0
-9228 1809 0
-9228 1388 0
3403 -9229 0
9229 -1389 -1807 0
-9229 1807 0
-9229 1389 0
-3543 9647 9648 9649 0
3543 -9647 0
9647 -1807 -2228 0
-9647 2228 0
-9647 1807 0
3543 -9648 0
9648 -1808 -2229 0
-9648 2229 0
-9648 1808 0
3543 -9649 0
9649 -1809 -2227 0
-9649 2227 0
-9649 1809 0
-3683 10067 10068 10069 0
3683 -10067 0
10067 -2227 -2648 0
-10067 2648 0
-10067 2227 0
3683 -10068 0
10068 -2228 -2649 0
-10068 2649 0
-10068 2228 0
3683 -10069 0
10069 -2229 -2647 0
-10069 2647 0
-10069 2229 0
-4103 5447 5448 5449 0
4103 -5447 0
4103 -5448 0
4103 -5449 0
-4243 5867 5868 5869 0
4243 -5867 0
4243 -5868 0
4243 -5869 0
-4383 6287 6288 6289 0
4383 -6287 0
4383 -6288 0
4383 -6289 0
-4523 6707 6708 6709 0
4523 -6707 0
4523 -6708 0
4523 -6709 0
-4663 7127 7128 7129 0
4663 -7127 0
4663 -7128 0
4663 -7129 0
-4803 7547 7548 7549 0
4803 -7547 0
4803 -7548 0
4803 -7549 0
5447 -547 -128 0
-5447 128 0
-5447 547 0
5448 -548 -129 0
-5448 129 0
-5448 548 0
5449 -549 -127 0
-5449 127 0
-5449 549 0
5867 -967 -548 0
-5867 548 0
-5867 967 0
5868 -968 -549 0
-5868 549 0
-5868 968 0
5869 -969 -547 0
-5869 547 0
-5869 969 0
6287 -1387 -968 0
-6287 968 0
-6287 1387 0
6288 -1388 -969 0
-6288 969 0
-6288 1388 0
6289 -1389 -967 0
-6289 967 0
-6289 1389 0
6707 -1807 -1388 0
-6707 1388 0
-6707 1807 0
6708 -1808 -1389 0
-6708 1389 0
-6708 1808 0
6709 -1809 -1387 0
-6709 1387 0
-6709 1809 0
7127 -2227 -1808 0
-7127 1808 0
-7127 2227 0
7128 -2228 -1809 0
-7128 1809 0
-7128 2228 0
7129 -2229 -1807 0
-7129 1807 0
-7129 2229 0
-7547 127 0
-7547 2227 0
-7547 -2648 0
7547 -127 -2227 2648 0
-7548 128 0
-7548 2228 0
-7548 -2649 0
7548 -128 -2228 2649 0
-7549 129 0
-7549 2229 0
-7549 -2647 0
7549 -129 -2229 2647 0
-2984 7970 7971 7972 0
2984 -7970 0
7970 -130 -551 0
-7970 551 0
-7970 130 0
2984 -7971 0
7971 -131 -552 0
-7971 552 0
-7971 131 0
2984 -7972 0
7972 -132 -550 0
-7972 550 0
-7972 132 0
-3124 8390 8391 8392 0
3124 -8390 0
8390 -550 -971 0
-8390 971 0
-8390 550 0
3124 -8391 0
8391 -551 -972 0
-8391 972 0
-8391 551 0
3124 -8392 0
8392 -552 -970 0
-8392 970 0
-8392 552 0
-3264 8810 8811 8812 0
3264 -8810 0
8810 -970 -1391 0
-8810 1391 0
-8810 970 0
3264 -8811 0
8811 -971 -1392 0
-8811 1392 0
-8811 971 0
3264 -8812 0
8812 -972 -1390 0
-8812 1390 0
-8812 972 0
-3404 9230 9231 9232 0
3404 -9230 0
9230 -1390 -1811 0
-9230 1811 0
-9230 1390 0
3404 -9231 0
9231 -1391 -1812 0
-9231 1812 0
-9231 1391 0
3404 -9232 0
9232 -1392 -1810 0
-9232 1810 0
-9232 1392 0
-3544 9650 9651 9652 0
3544 -9650 0
9650 -1810 -2231 0
-9650 2231 0
-9650 1810 0
3544 -9651 0
9651 -1811 -2232 0
-9651 2232 0
-9651 1811 0
3544 -9652 0
9652 -1812 -2230 0
-9652 2230 0
-9652 1812 0
-3684 10070 10071 10072 0
3684 -10070 0
10070 -2230 -2651 0
-10070 2651 0
-10070 2230 0
3684 -10071 0
10071 -2231 -2652 0
-10071 2652 0
-10071 2231 0
3684 -10072 0
10072 -2232 -2650 0
-10072 2650 0
-10072 2232 0
-4104 5450 5451 5452 0
4104 -5450 0
4104 -5451 0
4104 -5452 0
-4244 5870 5871 5872 0
4244 -5870 0
4244 -5871 0
4244 -5872 0
-4384 6290 6291 6292 0
4384 -6290 0
4384 -6291 0
4384 -6292 0
-4524 6710 6711 6712 0
4524 -6710 0
4524 -6711 0
4524 -6712 0
-4664 7130 7131 7132 0
4664 -7130 0
4664 -7131 0
4664 -7132 0
-4804 7550 7551 7552 0
4804 -7550 0
4804 -7551 0
4804 -7552 0
5450 -550 -131 0
-5450 131 0
-5450 550 0
5451 -551 -132 0
-5451 132 0
-5451 551 0
5452 -552 -130 0
-5452 130 0
-5452 552 0
5870 -970 -551 0
-5870 551 0
-5870 970 0
5871 -971 -552 0
-5871 552 0
-5871 971 0
5872 -972 -550 0
-5872 550 0
-5872 972 0
6290 -1390 -971 0
-6290 971 0
-6290 1390 0
6291 -1391 -972 0
-6291 972 0
-6291 1391 0
6292 -1392 -970 0
-6292 970 0
-6292 1392 0
6710 -1810 -1391 0
-6710 1391 0
-6710 1810 0
6711 -1811 -1392 0
-6711 1392 0
-6711 1811 0
6712 -1812 -1390 0
-6712 1390 0
-6712 1812 0
7130 -2230 -1811 0
-7130 1811 0
-7130 2230 0
7131 -2231 -1812 0
-7131 1812 0
-7131 2231 0
7132 -2232 -1810 0
-7132 1810 0
-7132 2232 0
-7550 130 0
-7550 2230 0
-7550 -2651 0
7550 -130 -2230 2651 0
-7551 131 0
-7551 2231 0
-7551 -2652 0
7551 -131 -2231 2652 0
-7552 132 0
-7552 2232 0
-7552 -2650 0
7552 -132 -2232 2650 0
-2985 7973 7974 7975 0
2985 -7973 0
7973 -133 -554 0
-7973 554 0
-7973 133 0
2985 -7974 0
7974 -134 -555 0
-7974 555 0
-7974 134 0
2985 -7975 0
7975 -135 -553 0
-7975 553 0
-7975 135 0
-3125 8393 8394 8395 0
3125 -8393 0
8393 -553 -974 0
-8393 974 0
-8393 553 0
3125 -8394 0
8394 -554 -975 0
-8394 975 0
-8394 554 0
3125 -8395 0
8395 -555 -973 0
-8395 973 0
-8395 555 0
-3265 8813 8814 8815 0
3265 -8813 0
8813 -973 -1394 0
-8813 1394 0
-8813 973 0
3265 -8814 0
8814 -974 -1395 0
-8814 1395 0
-8814 974 0
3265 -8815 0
8815 -975 -1393 0
-8815 1393 0
-8815 975 0
-3405 9233 9234 9235 0
3405 -9233 0
9233 -1393 -1814 0
-9233 1814 0
-9233 1393 0
3405 -9234 0
9234 -1394 -1815 0
-9234 1815 0
-9234 1394 0
3405 -9235 0
9235 -1395 -1813 0
-9235 1813 0
-9235 1395 0
-3545 9653 9654 9655 0
3545 -9653 0
9653 -1813 -2234 0
-9653 2234 0
-9653 1813 0
3545 -9654 0
9654 -1814 -2235 0
-9654 2235 0
-9654 1814 0
3545 -9655 0
9655 -1815 -2233 0
-9655 2233 0
-9655 1815 0
-3685 10073 10074 10075 0
3685 -10073 0
10073 -2233 -2654 0
-10073 2654 0
-10073 2233 0
3685 -10074 0
10074 -2234 -2655 0
-10074 2655 0
-10074 2234 0
3685 -10075 0
10075 -2235 -2653 0
-10075 2653 0
-10075 2235 0
-4105 5453 5454 5455 0
4105 -5453 0
4105 -5454 0
4105 -5455 0
-4245 5873 5874 5875 0
4245 -5873 0
4245 -5874 0
4245 -5875 0
-4385 6293 6294 6295 0
4385 -6293 0
4385 -6294 0
4385 -6295 0
-4525 6713 6714 6715 0
4525 -6713 0
4525 -6714 0
4525 -6715 0
-4665 7133 7134 7135 0
4665 -7133 0
4665 -7134 0
4665 -7135 0
-4805 7553 7554 7555 0
4805 -7553 0
4805 -7554 0
4805 -7555 0
5453 -553 -134 0
-5453 134 0
-5453 553 0
5454 -554 -135 0
-5454 135 0
-5454 554 0
5455 -555 -133 0
-5455 133 0
-5455 555 0
5873 -973 -554 0
-5873 554 0
-5873 973 0
5874 -974 -555 0
-5874 555 0
-5874 974 0
5875 -975 -553 0
-5875 553 0
-5875 975 0
6293 -1393 -974 0
-6293 974 0
-6293 1393 0
6294 -1394 -975 0
-6294 975 0
-6294 1394 0
6295 -1395 -973 0
-6295 973 0
-6295 1395 0
6713 -1813 -1394 0
-6713 1394 0
-6713 1813 0
6714 -1814 -1395 0
-6714 1395 0
-6714 1814 0
6715 -1815 -1393 0
-6715 1393 0
-6715 1815 0
7133 -2233 -1814 0
-7133 1814 0
-7133 2233 0
7134 -2234 -1815 0
-7134 1815 0
-7134 2234 0
7135 -2235 -1813 0
-7135 1813 0
-7135 2235 0
-7553 133 0
-7553 2233 0
-7553 -2654 0
7553 -133 -2233 2654 0
-7554 134 0
-7554 2234 0
-7554 -2655 0
7554 -134 -2234 2655 0
-7555 135 0
-7555 2235 0
-7555 -2653 0
7555 -135 -2235 2653 0
-2986 7976 7977 7978 0
2986 -7976 0
7976 -136 -557 0
-7976 557 0
-7976 136 0
2986 -7977 0
7977 -137 -558 0
-7977 558 0
-7977 137 0
2986 -7978 0
7978 -138 -556 0
-7978 556 0
-7978 138 0
-3126 8396 8397 8398 0
3126 -8396 0
8396 -556 -977 0
-8396 977 0
-8396 556 0
3126 -8397 0
8397 -557 -978 0
-8397 978 0
-8397 557 0
3126 -8398 0
8398 -558 -976 0
-8398 976 0
-8398 558 0
-3266 8816 8817 8818 0
3266 -8816 0
8816 -976 -1397 0
-8816 1397 0
-8816 976 0
3266 -8817 0
8817 -977 -1398 0
-8817 1398 0
-8817 977 0
3266 -8818 0
8818 -978 -1396 0
-8818 1396 0
-8818 978 0
-3406 9236 9237 9238 0
3406 -9236 0
9236 -1396 -1817 0
-9236 1817 0
-9236 1396 0
3406 -9237 0
9237 -1397 -1818 0
-9237 1818 0
-9237 1397 0
3406 -9238 0
9238 -1398 -1816 0
-9238 1816 0
-9238 1398 0
-3546 9656 9657 9658 0
3546 -9656 0
9656 -1816 -2237 0
-9656 2237 0
-9656 1816 0
3546 -9657 0
9657 -1817 -2238 0
-9657 2238 0
-9657 1817 0
3546 -9658 0
9658 -1818 -2236 0
-9658 2236 0
-9658 1818 0
-3686 10076 10077 10078 0
3686 -10076 0
10076 -2236 -2657 0
-10076 2657 0
-10076 2236 0
3686 -10077 0
10077 -2237 -2658 0
-10077 2658 0
-10077 2237 0
3686 -10078 0
10078 -2238 -2656 0
-10078 2656 0
-10078 2238 0
-4106 5456 5457 5458 0
4106 -5456 0
4106 -5457 0
4106 -5458 0
-4246 5876 5877 5878 0
4246 -5876 0
4246 -5877 0
4246 -5878 0
-4386 6296 6297 6298 0
4386 -6296 0
4386 -6297 0
4386 -6298 0
-4526 6716 6717 6718 0
4526 -6716 0
4526 -6717 0
4526 -6718 0
-4666 7136 7137 7138 0
4666 -7136 0
4666 -7137 0
4666 -7138 0
-4806 7556 7557 7558 0
4806 -7556 0
4806 -7557 0
4806 -7558 0
5456 -556 -137 0
-5456 137 0
-5456 556 0
5457 -557 -138 0
-5457 138 0
-5457 557 0
5458 -558 -136 0
-5458 136 0
-5458 558 0
5876 -976 -557 0
-5876 557 0
-5876 976 0
5877 -977 -558 0
-5877 558 0
-5877 977 0
5878 -978 -556 0
-5878 556 0
-5878 978 0
6296 -1396 -977 0
-6296 977 0
-6296 1396 0
6297 -1397 -978 0
-6297 978 0
-6297 1397 0
6298 -1398 -976 0
-6298 976 0
-6298 1398 0
6716 -1816 -1397 0
-6716 1397 0
-6716 1816 0
6717 -1817 -1398 0
-6717 1398 0
-6717 1817 0
6718 -1818 -1396 0
-6718 1396 0
-6718 1818 0
7136 -2236 -1817 0
-7136 1817 0
-7136 2236 0
7137 -2237 -1818 0
-7137 1818 0
-7137 2237 0
7138 -2238 -1816 0
-7138 1816 0
-7138 2238 0
-7556 136 0
-7556 2236 0
-7556 -2657 0
7556 -136 -2236 2657 0
-7557 137 0
-7557 2237 0
-7557 -2658 0
7557 -137 -2237 2658 0
-7558 138 0
-7558 2238 0
-7558 -2656 0
7558 -138 -2238 2656 0
-2987 7979 7980 7981 0
2987 -7979 0
7979 -139 -560 0
-7979 560 0
-7979 139 0
2987 -7980 0
7980 -140 -561 0
-7980 561 0
-7980 140 0
2987 -7981 0
7981 -141 -559 0
-7981 559 0
-7981 141 0
-3127 8399 8400 8401 0
3127 -8399 0
8399 -559 -980 0
-8399 980 0
-8399 559 0
3127 -8400 0
8400 -560 -981 0
-8400 981 0
-8400 560 0
3127 -8401 0
8401 -561 -979 0
-8401 979 0
-8401 561 0
-3267 8819 8820 8821 0
3267 -8819 0
8819 -979 -1400 0
-8819 1400 0
-8819 979 0
3267 -8820 0
8820 -980 -1401 0
-8820 1401 0
-8820 980 0
3267 -8821 0
8821 -981 -1399 0
-8821 1399 0
-8821 981 0
-3407 9239 9240 9241 0
3407 -9239 0
9239 -1399 -1820 0
-9239 1820 0
-9239 1399 0
3407 -9240 0
9240 -1400 -1821 0
-9240 1821 0
-9240 1400 0
3407 -9241 0
9241 -1401 -1819 0
-9241 1819 0
-9241 1401 0
-3547 9659 9660 9661 0
3547 -9659 0
9659 -1819 -2240 0
-9659 2240 0
-9659 1819 0
3547 -9660 0
9660 -1820 -2241 0
-9660 2241 0
-9660 1820 0
3547 -9661 0
9661 -1821 -2239 0
-9661 2239 0
-9661 1821 0
-3687 10079 10080 10081 0
3687 -10079 0
10079 -2239 -2660 0
-10079 2660 0
-10079 2239 0
3687 -10080 0
10080 -2240 -2661 0
-10080 2661 0
-10080 2240 0
3687 -10081 0
10081 -2241 -2659 0
-10081 2659 0
-10081 2241 0
-4107 5459 5460 5461 0
4107 -5459 0
4107 -5460 0
4107 -5461 0
-4247 5879 5880 5881 0
4247 -5879 0
4247 -5880 0
4247 -5881 0
-4387 6299 6300 6301 0
4387 -6299 0
4387 -6300 0
4387 -6301 0
-4527 6719 6720 6721 0
4527 -6719 0
4527 -6720 0
4527 -6721 0
-4667 7139 7140 7141 0
4667 -7139 0
4667 -7140 0
4667 -7141 0
-4807 7559 7560 7561 0
4807 -7559 0
4807 -7560 0
4807 -7561 0
5459 -559 -140 0
-5459 140 0
-5459 559 0
5460 -560 -141 0
-5460 141 0
-5460 560 0
5461 -561 -139 0
-5461 139 0
-5461 561 0
5879 -979 -560 0
-5879 560 0
-5879 979 0
5880 -980 -561 0
-5880 561 0
-5880 980 0
5881 -981 -559 0
-5881 559 0
-5881 981 0
6299 -1399 -980 0
-6299 980 0
-6299 1399 0
6300 -1400 -981 0
-6300 981 0
-6300 1400 0
6301 -1401 -979 0
-6301 979 0
-6301 1401 0
6719 -1819 -1400 0
-6719 1400 0
-6719 1819 0
6720 -1820 -1401 0
-6720 1401 0
-6720 1820 0
6721 -1821 -1399 0
-6721 1399 0
-6721 1821 0
7139 -2239 -1820 0
-7139 1820 0
-7139 2239 0
7140 -2240 -1821 0
-7140 1821 0
-7140 2240 0
7141 -2241 -1819 0
-7141 1819 0
-7141 2241 0
-7559 139 0
-7559 2239 0
-7559 -2660 0
7559 -139 -2239 2660 0
-7560 140 0
-7560 2240 0
-7560 -2661 0
7560 -140 -2240 2661 0
-7561 141 0
-7561 2241 0
-7561 -2659 0
7561 -141 -2241 2659 0
-2988 7982 7983 7984 0
2988 -7982 0
7982 -142 -563 0
-7982 563 0
-7982 142 0
2988 -7983 0
7983 -143 -564 0
-7983 564 0
-7983 143 0
2988 -7984 0
7984 -144 -562 0
-7984 562 0
-7984 144 0
-3128 8402 8403 8404 0
3128 -8402 0
8402 -562 -983 0
-8402 983 0
-8402 562 0
3128 -8403 0
8403 -563 -984 0
-8403 984 0
-8403 563 0
3128 -8404 0
8404 -564 -982 0
-8404 982 0
-8404 564 0
-3268 8822 8823 8824 0
3268 -8822 0
8822 -982 -1403 0
-8822 1403 0
-8822 982 0
3268 -8823 0
8823 -983 -1404 0
-8823 1404 0
-8823 983 0
3268 -8824 0
8824 -984 -1402 0
-8824 1402 0
-8824 984 0
-3408 9242 9243 9244 0
3408 -9242 0
9242 -1402 -1823 0
-9242 1823 0
-9242 1402 0
3408 -9243 0
9243 -1403 -1824 0
-9243 1824 0
-9243 1403 0
3408 -9244 0
9244 -1404 -1822 0
-9244 1822 0
-9244 1404 0
-3548 9662 9663 9664 0
3548 -9662 0
9662 -1822 -2243 0
-9662 2243 0
-9662 1822 0
3548 -9663 0
9663 -1823 -2244 0
-9663 2244 0
-9663 1823 0
3548 -9664 0
9664 -1824 -2242 0
-9664 2242 0
-9664 1824 0
-3688 10082 10083 10084 0
3688 -10082 0
10082 -2242 -2663 0
-10082 2663 0
-10082 2242 0
3688 -10083 0
10083 -2243 -2664 0
-10083 2664 0
-10083 2243 0
3688 -10084 0
10084 -2244 -2662 0
-10084 2662 0
-10084 2244 0
-4108 5462 5463 5464 0
4108 -5462 0
4108 -5463 0
4108 -5464 0
-4248 5882 5883 5884 0
4248 -5882 0
4248 -5883 0
4248 -5884 0
-4388 6302 6303 6304 0
4388 -6302 0
4388 -6303 0
4388 -6304 0
-4528 6722 6723 6724 0
4528 -6722 0
4528 -6723 0
4528 -6724 0
-4668 7142 7143 7144 0
4668 -7142 0
4668 -7143 0
4668 -7144 0
-4808 7562 7563 7564 0
4808 -7562 0
4808 -7563 0
4808 -7564 0
5462 -562 -143 0
-5462 143 0
-5462 562 0
5463 -563 -144 0
-5463 144 0
-5463 563 0
5464 -564 -142 0
-5464 142 0
-5464 564 0
5882 -982 -563 0
-5882 563 0
-5882 982 0
5883 -983 -564 0
-5883 564 0
-5883 983 0
5884 -984 -562 0
-5884 562 0
-5884 984 0
6302 -1402 -983 0
-6302 983 0
-6302 1402 0
6303 -1403 -984 0
-6303 984 0
-6303 1403 0
6304 -1404 -982 0
-6304 982 0
-6304 1404 0
6722 -1822 -1403 0
-6722 1403 0
-6722 1822 0
6723 -1823 -1404 0
-6723 1404 0
-6723 1823 0
6724 -1824 -1402 0
-6724 1402 0
-6724 1824 0
7142 -2242 -1823 0
-7142 1823 0
-7142 2242 0
7143 -2243 -1824 0
-7143 1824 0
-7143 2243 0
7144 -2244 -1822 0
-7144 1822 0
-7144 2244 0
-7562 142 0
-7562 2242 0
-7562 -2663 0
7562 -142 -2242 2663 0
-7563 143 0
-7563 2243 0
-7563 -2664 0
7563 -143 -2243 2664 0
-7564 144 0
-7564 2244 0
-7564 -2662 0
7564 -144 -2244 2662 0
-2989 7985 7986 7987 0
2989 -7985 0
7985 -145 -566 0
-7985 566 0
-7985 145 0
2989 -7986 0
7986 -146 -567 0
-7986 567 0
-7986 146 0
2989 -7987 0
7987 -147 -565 0
-7987 565 0
-7987 147 0
-3129 8405 8406 8407 0
3129 -8405 0
8405 -565 -986 0
-8405 986 0
-8405 565 0
3129 -8406 0
8406 -566 -987 0
-8406 987 0
-8406 566 0
3129 -8407 0
8407 -567 -985 0
-8407 985 0
-8407 567 0
-3269 8825 8826 8827 0
3269 -8825 0
8825 -985 -1406 0
-8825 1406 0
-8825 985 0
3269 -8826 0
8826 -986 -1407 0
-8826 1407 0
-8826 986 0
3269 -8827 0
8827 -987 -1405 0
-8827 1405 0
-8827 987 0
-3409 9245 9246 9247 0
3409 -9245 0
9245 -1405 -1826 0
-9245 1826 0
-9245 1405 0
3409 -9246 0
9246 -1406 -1827 0
-9246 1827 0
-9246 1406 0
3409 -9247 0
9247 -1407 -1825 0
-9247 1825 0
-9247 1407 0
-3549 9665 9666 9667 0
3549 -9665 0
9665 -1825 -2246 0
-9665 2246 0
-9665 1825 0
3549 -9666 0
9666 -1826 -2247 0
-9666 2247 0
-9666 1826 0
3549 -9667 0
9667 -1827 -2245 0
-9667 2245 0
-9667 1827 0
-3689 10085 10086 10087 0
3689 -10085 0
10085 -2245 -2666 0
-10085 2666 0
-10085 2245 0
3689 -10086 0
10086 -2246 -2667 0
-10086 2667 0
-10086 2246 0
3689 -10087 0
10087 -2247 -2665 0
-10087 2665 0
-10087 2247 0
-4109 5465 5466 5467 0
4109 -5465 0
4109 -5466 0
4109 -5467 0
-4249 5885 5886 5887 0
4249 -5885 0
4249 -5886 0
4249 -5887 0
-4389 6305 6306 6307 0
4389 -6305 0
4389 -6306 0
4389 -6307 0
-4529 6725 6726 6727 0
4529 -6725 0
4529 -6726 0
4529 -6727 0
-4669 7145 7146 7147 0
4669 -7145 0
4669 -7146 0
4669 -7147 0
-4809 7565 7566 7567 0
4809 -7565 0
4809 -7566 0
4809 -7567 0
5465 -565 -146 0
-5465 146 0
-5465 565 0
5466 -566 -147 0
-5466 147 0
-5466 566 0
5467 -567 -145 0
-5467 145 0
-5467 567 0
5885 -985 -566 0
-5885 566 0
-5885 985 0
5886 -986 -567 0
-5886 567 0
-5886 986 0
5887 -987 -565 0
-5887 565 0
-5887 987 0
6305 -1405 -986 0
-6305 986 0
-6305 1405 0
6306 -1406 -987 0
-6306 987 0
-6306 1406 0
6307 -1407 -985 0
-6307 985 0
-6307 1407 0
6725 -1825 -1406 0
-6725 1406 0
-6725 1825 0
6726 -1826 -1407 0
-6726 1407 0
-6726 1826 0
6727 -1827 -1405 0
-6727 1405 0
-6727 1827 0
7145 -2245 -1826 0
-7145 1826 0
-7145 2245 0
7146 -2246 -1827 0
-7146 1827 0
-7146 2246 0
7147 -2247 -1825 0
-7147 1825 0
-7147 2247 0
-7565 145 0
-7565 2245 0
-7565 -2666 0
7565 -145 -2245 2666 0
-7566 146 0
-7566 2246 0
-7566 -2667 0
7566 -146 -2246 2667 0
-7567 147 0
-7567 2247 0
-7567 -2665 0
7567 -147 -2247 2665 0
-2990 7988 7989 7990 0
2990 -7988 0
7988 -148 -569 0
-7988 569 0
-7988 148 0
2990 -7989 0
7989 -149 -570 0
-7989 570 0
-7989 149 0
2990 -7990 0
7990 -150 -568 0
-7990 568 0
-7990 150 0
-3130 8408 8409 8410 0
3130 -8408 0
8408 -568 -989 0
-8408 989 0
-8408 568 0
3130 -8409 0
8409 -569 -990 0
-8409 990 0
-8409 569 0
3130 -8410 0
8410 -570 -988 0
-8410 988 0
-8410 570 0
-3270 8828 8829 8830 0
3270 -8828 0
8828 -988 -1409 0
-8828 1409 0
-8828 988 0
3270 -8829 0
8829 -989 -1410 0
-8829 1410 0
-8829 989 0
3270 -8830 0
8830 -990 -1408 0
-8830 1408 0
-8830 990 0
-3410 9248 9249 9250 0
3410 -9248 0
9248 -1408 -1829 0
-9248 1829 0
-9248 1408 0
3410 -9249 0
9249 -1409 -1830 0
-9249 1830 0
-9249 1409 0
3410 -9250 0
9250 -1410 -1828 0
-9250 1828 0
-9250 1410 0
-3550 9668 9669 9670 0
3550 -9668 0
9668 -1828 -2249 0
-9668 2249 0
-9668 1828 0
3550 -9669 0
9669 -1829 -2250 0
-9669 2250 0
-9669 1829 0
3550 -9670 0
9670 -1830 -2248 0
-9670 2248 0
-9670 1830 0
-3690 10088 10089 10090 0
3690 -10088 0
10088 -2248 -2669 0
-10088 2669 0
-10088 2248 0
3690 -10089 0
10089 -2249 -2670 0
-10089 2670 0
-10089 2249 0
3690 -10090 0
10090 -2250 -2668 0
-10090 2668 0
-10090 2250 0
-4110 5468 5469 5470 0
4110 -5468 0
4110 -5469 0
4110 -5470 0
-4250 5888 5889 5890 0
4250 -5888 0
4250 -5889 0
4250 -5890 0
-4390 6308 6309 6310 0
4390 -6308 0
4390 -6309 0
4390 -6310 0
-4530 6728 6729 6730 0
4530 -6728 0
4530 -6729 0
4530 -6730 0
-4670 7148 7149 7150 0
4670 -7148 0
4670 -7149 0
4670 -7150 0
-4810 7568 7569 7570 0
4810 -7568 0
4810 -7569 0
4810 -7570 0
5468 -568 -149 0
-5468 149 0
-5468 568 0
5469 -569 -150 0
-5469 150 0
-5469 569 0
5470 -570 -148 0
-5470 148 0
-5470 570 0
5888 -988 -569 0
-5888 569 0
-5888 988 0
5889 -989 -570 0
-5889 570 0
-5889 989 0
5890 -990 -568 0
-5890 568 0
-5890 990 0
6308 -1408 -989 0
-6308 989 0
-6308 1408 0
6309 -1409 -990 0
-6309 990 0
-6309 1409 0
6310 -1410 -988 0
-6310 988 0
-6310 1410 0
6728 -1828 -1409 0
-6728 1409 0
-6728 1828 0
6729 -1829 -1410 0
-6729 1410 0
-6729 1829 0
6730 -1830 -1408 0
-6730 1408 0
-6730 1830 0
7148 -2248 -1829 0
-7148 1829 0
-7148 2248 0
7149 -2249 -1830 0
-7149 1830 0
-7149 2249 0
7150 -2250 -1828 0
-7150 1828 0
-7150 2250 0
-7568 148 0
-7568 2248 0
-7568 -2669 0
7568 -148 -2248 2669 0
-7569 149 0
-7569 2249 0
-7569 -2670 0
7569 -149 -2249 2670 0
-7570 150 0
-7570 2250 0
-7570 -2668 0
7570 -150 -2250 2668 0
-2991 7991 7992 7993 0
2991 -7991 0
7991 -151 -572 0
-7991 572 0
-7991 151 0
2991 -7992 0
7992 -152 -573 0
-7992 573 0
-7992 152 0
2991 -7993 0
7993 -153 -571 0
-7993 571 0
-7993 153 0
-3131 8411 8412 8413 0
3131 -8411 0
8411 -571 -992 0
-8411 992 0
-8411 571 0
3131 -8412 0
8412 -572 -993 0
-8412 993 0
-8412 572 0
3131 -8413 0
8413 -573 -991 0
-8413 991 0
-8413 573 0
-3271 8831 8832 8833 0
3271 -8831 0
8831 -991 -1412 0
-8831 1412 0
-8831 991 0
3271 -8832 0
8832 -992 -1413 0
-8832 1413 0
-8832 992 0
3271 -8833 0
8833 -993 -1411 0
-8833 1411 0
-8833 993 0
-3411 9251 9252 9253 0
3411 -9251 0
9251 -1411 -1832 0
-9251 1832 0
-9251 1411 0
3411 -9252 0
9252 -1412 -1833 0
-9252 1833 0
-9252 1412 0
3411 -9253 0
9253 -1413 -1831 0
-9253 1831 0
-9253 1413 0
-3551 9671 9672 9673 0
3551 -9671 0
9671 -1831 -2252 0
-9671 2252 0
-9671 1831 0
3551 -9672 0
9672 -1832 -2253 0
-9672 2253 0
-9672 1832 0
3551 -9673 0
9673 -1833 -2251 0
-9673 2251 0
-9673 1833 0
-3691 10091 10092 10093 0
3691 -10091 0
10091 -2251 -2672 0
-10091 2672 0
-10091 2251 0
3691 -10092 0
10092 -2252 -2673 0
-10092 2673 0
-10092 2252 0
3691 -10093 0
10093 -2253 -2671 0
-10093 2671 0
-10093 2253 0
-4111 5471 5472 5473 0
4111 -5471 0
4111 -5472 0
4111 -5473 0
-4251 5891 5892 5893 0
4251 -5891 0
4251 -5892 0
4251 -5893 0
-4391 6311 6312 6313 0
4391 -6311 0
4391 -6312 0
4391 -6313 0
-4531 6731 6732 6733 0
4531 -6731 0
4531 -6732 0
4531 -6733 0
-4671 7151 7152 7153 0
4671 -7151 0
4671 -7152 0
4671 -7153 0
-4811 7571 7572 7573 0
4811 -7571 0
4811 -7572 0
4811 -7573 0
5471 -571 -152 0
-5471 152 0
-5471 571 0
5472 -572 -153 0
-5472 153 0
-5472 572 0
5473 -573 -151 0
-5473 151 0
-5473 573 0
5891 -991 -572 0
-5891 572 0
-5891 991 0
5892 -992 -573 0
-5892 573 0
-5892 992 0
5893 -993 -571 0
-5893 571 0
-5893 993 0
6311 -1411 -992 0
-6311 992 0
-6311 1411 0
6312 -1412 -993 0
-6312 993 0
-6312 1412 0
6313 -1413 -991 0
-6313 991 0
-6313 1413 0
6731 -1831 -1412 0
-6731 1412 0
-6731 1831 0
6732 -1832 -1413 0
-6732 1413 0
-6732 1832 0
6733 -1833 -1411 0
-6733 1411 0
-6733 1833 0
7151 -2251 -1832 0
-7151 1832 0
-7151 2251 0
7152 -2252 -1833 0
-7152 1833 0
-7152 2252 0
7153 -2253 -1831 0
-7153 1831 0
-7153 2253 0
-7571 151 0
-7571 2251 0
-7571 -2672 0
7571 -151 -2251 2672 0
-7572 152 0
-7572 2252 0
-7572 -2673 0
7572 -152 -2252 2673 0
-7573 153 0
-7573 2253 0
-7573 -2671 0
7573 -153 -2253 2671 0
-2992 7994 7995 7996 0
2992 -7994 0
7994 -154 -575 0
-7994 575 0
-7994 154 0
2992 -7995 0
7995 -155 -576 0
-7995 576 0
-7995 155 0
2992 -7996 0
7996 -156 -574 0
-7996 574 0
-7996 156 0
-3132 8414 8415 8416 0
3132 -8414 0
8414 -574 -995 0
-8414 995 0
-8414 574 0
3132 -8415 0
8415 -575 -996 0
-8415 996 0
-8415 575 0
3132 -8416 0
8416 -576 -994 0
-8416 994 0
-8416 576 0
-3272 8834 8835 8836 0
3272 -8834 0
8834 -994 -1415 0
-8834 1415 0
-8834 994 0
3272 -8835 0
8835 -995 -1416 0
-8835 1416 0
-8835 995 0
3272 -8836 0
8836 -996 -1414 0
-8836 1414 0
-8836 996 0
-3412 9254 9255 9256 0
3412 -9254 0
9254 -1414 -1835 0
-9254 1835 0
-9254 1414 0
3412 -9255 0
9255 -1415 -1836 0
-9255 1836 0
-9255 1415 0
3412 -9256 0
9256 -1416 -1834 0
-9256 1834 0
-9256 1416 0
-3552 9674 9675 9676 0
3552 -9674 0
9674 -1834 -2255 0
-9674 2255 0
-9674 1834 0
3552 -9675 0
9675 -1835 -2256 0
-9675 2256 0
-9675 1835 0
3552 -9676 0
9676 -1836 -2254 0
-9676 2254 0
-9676 1836 0
-3692 10094 10095 10096 0
3692 -10094 0
10094 -2254 -2675 0
-10094 2675 0
-10094 2254 0
3692 -10095 0
10095 -2255 -2676 0
-10095 2676 0
-10095 2255 0
3692 -10096 0
10096 -2256 -2674 0
-10096 2674 0
-10096 2256 0
-4112 5474 5475 5476 0
4112 -5474 0
4112 -5475 0
4112 -5476 0
-4252 5894 5895 5896 0
4252 -5894 0
4252 -5895 0
4252 -5896 0
-4392 6314 6315 6316 0
4392 -6314 0
4392 -6315 0
4392 -6316 0
-4532 6734 6735 6736 0
4532 -6734 0
4532 -6735 0
4532 -6736 0
-4672 7154 7155 7156 0
4672 -7154 0
4672 -7155 0
4672 -7156 0
-4812 7574 7575 7576 0
4812 -7574 0
4812 -7575 0
4812 -7576 0
5474 -574 -155 0
-5474 155 0
-5474 574 0
5475 -575 -156 0
-5475 156 0
-5475 575 0
5476 -576 -154 0
-5476 154 0
-5476 576 0
5894 -994 -575 0
-5894 575 0
-5894 994 0
5895 -995 -576 0
-5895 576 0
-5895 995 0
5896 -996 -574 0
-5896 574 0
-5896 996 0
6314 -1414 -995 0
-6314 995 0
-6314 1414 0
6315 -1415 -996 0
-6315 996 0
-6315 1415 0
6316 -1416 -994 0
-6316 994 0
-6316 1416 0
6734 -1834 -1415 0
-6734 1415 0
-6734 1834 0
6735 -1835 -1416 0
-6735 1416 0
-6735 1835 0
6736 -1836 -1414 0
-6736 1414 0
-6736 1836 0
7154 -2254 -1835 0
-7154 1835 0
-7154 2254 0
7155 -2255 -1836 0
-7155 1836 0
-7155 2255 0
7156 -2256 -1834 0
-7156 1834 0
-7156 2256 0
-7574 154 0
-7574 2254 0
-7574 -2675 0
7574 -154 -2254 2675 0
-7575 155 0
-7575 2255 0
-7575 -2676 0
7575 -155 -2255 2676 0
-7576 156 0
-7576 2256 0
-7576 -2674 0
7576 -156 -2256 2674 0
-2993 7997 7998 7999 0
2993 -7997 0
7997 -157 -578 0
-7997 578 0
-7997 157 0
2993 -7998 0
7998 -158 -579 0
-7998 579 0
-7998 158 0
2993 -7999 0
7999 -159 -577 0
-7999 577 0
-7999 159 0
-3133 8417 8418 8419 0
3133 -8417 0
8417 -577 -998 0
-8417 998 0
-8417 577 0
3133 -8418 0
8418 -578 -999 0
-8418 999 0
-8418 578 0
3133 -8419 0
8419 -579 -997 0
-8419 997 0
-8419 579 0
-3273 8837 8838 8839 0
3273 -8837 0
8837 -997 -1418 0
-8837 1418 0
-8837 997 0
3273 -8838 0
8838 -998 -1419 0
-8838 1419 0
-8838 998 0
3273 -8839 0
8839 -999 -1417 0
-8839 1417 0
-8839 999 0
-3413 9257 9258 9259 0
3413 -9257 0
9257 -1417 -1838 0
-9257 1838 0
-9257 1417 0
3413 -9258 0
9258 -1418 -1839 0
-9258 1839 0
-9258 1418 0
3413 -9259 0
9259 -1419 -1837 0
-9259 1837 0
-9259 1419 0
-3553 9677 9678 9679 0
3553 -9677 0
9677 -1837 -2258 0
-9677 2258 0
-9677 1837 0
3553 -9678 0
9678 -1838 -2259 0
-9678 2259 0
-9678 1838 0
3553 -9679 0
9679 -1839 -2257 0
-9679 2257 0
-9679 1839 0
-3693 10097 10098 10099 0
3693 -10097 0
10097 -2257 -2678 0
-10097 2678 0
-10097 2257 0
3693 -10098 0
10098 -2258 -2679 0
-10098 2679 0
-10098 2258 0
3693 -10099 0
10099 -2259 -2677 0
-10099 2677 0
-10099 2259 0
-4113 5477 5478 5479 0
4113 -5477 0
4113 -5478 0
4113 -5479 0
-4253 5897 5898 5899 0
4253 -5897 0
4253 -5898 0
4253 -5899 0
-4393 6317 6318 6319 0
4393 -6317 0
4393 -6318 0
4393 -6319 0
-4533 6737 6738 6739 0
4533 -6737 0
4533 -6738 0
4533 -6739 0
-4673 7157 7158 7159 0
4673 -7157 0
4673 -7158 0
4673 -7159 0
-4813 7577 7578 7579 0
4813 -7577 0
4813 -7578 0
4813 -7579 0
5477 -577 -158 0
-5477 158 0
-5477 577 0
5478 -578 -159 0
-5478 159 0
-5478 578 0
5479 -579 -157 0
-5479 157 0
-5479 579 0
5897 -997 -578 0
-5897 578 0
-5897 997 0
5898 -998 -579 0
-5898 579 0
-5898 998 0
5899 -999 -577 0
-5899 577 0
-5899 999 0
6317 -1417 -998 0
-6317 998 0
-6317 1417 0
6318 -1418 -999 0
-6318 999 0
-6318 1418 0
6319 -1419 -997 0
-6319 997 0
-6319 1419 0
6737 -1837 -1418 0
-6737 1418 0
-6737 1837 0
6738 -1838 -1419 0
-6738 1419 0
-6738 1838 0
6739 -1839 -1417 0
-6739 1417 0
-6739 1839 0
7157 -2257 -1838 0
-7157 1838 0
-7157 2257 0
7158 -2258 -1839 0
-7158 1839 0
-7158 2258 0
7159 -2259 -1837 0
-7159 1837 0
-7159 2259 0
-7577 157 0
-7577 2257 0
-7577 -2678 0
7577 -157 -2257 2678 0
-7578 158 0
-7578 2258 0
-7578 -2679 0
7578 -158 -2258 2679 0
-7579 159 0
-7579 2259 0
-7579 -2677 0
7579 -159 -2259 2677 0
-2994 8000 8001 8002 0
2994 -8000 0
8000 -160 -581 0
-8000 581 0
-8000 160 0
2994 -8001 0
8001 -161 -582 0
-8001 582 0
-8001 161 0
2994 -8002 0
8002 -162 -580 0
-8002 580 0
-8002 162 0
-3134 8420 8421 8422 0
3134 -8420 0
8420 -580 -1001 0
-8420 1001 0
-8420 580 0
3134 -8421 0
8421 -581 -1002 0
-8421 1002 0
-8421 581 0
3134 -8422 0
8422 -582 -1000 0
-8422 1000 0
-8422 582 0
-3274 8840 8841 8842 0
3274 -8840 0
8840 -1000 -1421 0
-8840 1421 0
-8840 1000 0
3274 -8841 0
8841 -1001 -1422 0
-8841 1422 0
-8841 1001 0
3274 -8842 0
8842 -1002 -1420 0
-8842 1420 0
-8842 1002 0
-3414 9260 9261 9262 0
3414 -9260 0
9260 -1420 -1841 0
-9260 1841 0
-9260 1420 0
3414 -9261 0
9261 -1421 -1842 0
-9261 1842 0
-9261 1421 0
3414 -9262 0
9262 -1422 -1840 0
-9262 1840 0
-9262 1422 0
-3554 9680 9681 9682 0
3554 -9680 0
9680 -1840 -2261 0
-9680 2261 0
-9680 1840 0
3554 -9681 0
9681 -1841 -2262 0
-9681 2262 0
-9681 1841 0
3554 -9682 0
9682 -1842 -2260 0
-9682 2260 0
-9682 1842 0
-3694 10100 10101 10102 0
3694 -10100 0
10100 -2260 -2681 0
-10100 2681 0
-10100 2260 0
3694 -10101 0
10101 -2261 -2682 0
-10101 2682 0
-10101 2261 0
3694 -10102 0
10102 -2262 -2680 0
-10102 2680 0
-10102 2262 0
-4114 5480 5481 5482 0
4114 -5480 0
4114 -5481 0
4114 -5482 0
-4254 5900 5901 5902 0
4254 -5900 0
4254 -5901 0
4254 -5902 0
-4394 6320 6321 6322 0
4394 -6320 0
4394 -6321 0
4394 -6322 0
-4534 6740 6741 6742 0
4534 -6740 0
4534 -6741 0
4534 -6742 0
-4674 7160 7161 7162 0
4674 -7160 0
4674 -7161 0
4674 -7162 0
-4814 7580 7581 7582 0
4814 -7580 0
4814 -7581 0
4814 -7582 0
5480 -580 -161 0
-5480 161 0
-5480 580 0
5481 -581 -162 0
-5481 162 0
-5481 581 0
5482 -582 -160 0
-5482 160 0
-5482 582 0
5900 -1000 -581 0
-5900 581 0
-5900 1000 0
5901 -1001 -582 0
-5901 582 0
-5901 1001 0
5902 -1002 -580 0
-5902 580 0
-5902 1002 0
6320 -1420 -1001 0
-6320 1001 0
-6320 1420 0
6321 -1421 -1002 0
-6321 1002 0
-6321 1421 0
6322 -1422 -1000 0
-6322 1000 0
-6322 1422 0
6740 -1840 -1421 0
-6740 1421 0
-6740 1840 0
6741 -1841 -1422 0
-6741 1422 0
-6741 1841 0
6742 -1842 -1420 0
-6742 1420 0
-6742 1842 0
7160 -2260 -1841 0
-7160 1841 0
-7160 2260 0
7161 -2261 -1842 0
-7161 1842 0
-7161 2261 0
7162 -2262 -1840 0
-7162 1840 0
-7162 2262 0
-7580 160 0
-7580 2260 0
-7580 -2681 0
7580 -160 -2260 2681 0
-7581 161 0
-7581 2261 0
-7581 -2682 0
7581 -161 -2261 2682 0
-7582 162 0
-7582 2262 0
-7582 -2680 0
7582 -162 -2262 2680 0
-2995 8003 8004 8005 0
2995 -8003 0
8003 -163 -584 0
-8003 584 0
-8003 163 0
2995 -8004 0
8004 -164 -585 0
-8004 585 0
-8004 164 0
2995 -8005 0
8005 -165 -583 0
-8005 583 0
-8005 165 0
-3135 8423 8424 8425 0
3135 -8423 0
8423 -583 -1004 0
-8423 1004 0
-8423 583 0
3135 -8424 0
8424 -584 -1005 0
-8424 1005 0
-8424 584 0
3135 -8425 0
8425 -585 -1003 0
-8425 1003 0
-8425 585 0
-3275 8843 8844 8845 0
3275 -8843 0
8843 -1003 -1424 0
-8843 1424 0
-8843 1003 0
3275 -8844 0
8844 -1004 -1425 0
-8844 1425 0
-8844 1004 0
3275 -8845 0
8845 -1005 -1423 0
-8845 1423 0
-8845 1005 0
-3415 9263 9264 9265 0
3415 -9263 0
9263 -1423 -1844 0
-9263 1844 0
-9263 1423 0
3415 -9264 0
9264 -1424 -1845 0
-9264 1845 0
-9264 1424 0
3415 -9265 0
9265 -1425 -1843 0
-9265 1843 0
-9265 1425 0
-3555 9683 9684 9685 0
3555 -9683 0
9683 -1843 -2264 0
-9683 2264 0
-9683 1843 0
3555 -9684 0
9684 -1844 -2265 0
-9684 2265 0
-9684 1844 0
3555 -9685 0
9685 -1845 -2263 0
-9685 2263 0
-9685 1845 0
-3695 10103 10104 10105 0
3695 -10103 0
10103 -2263 -2684 0
-10103 2684 0
-10103 2263 0
3695 -10104 0
10104 -2264 -2685 0
-10104 2685 0
-10104 2264 0
3695 -10105 0
10105 -2265 -2683 0
-10105 2683 0
-10105 2265 0
-4115 5483 5484 5485 0
4115 -5483 0
4115 -5484 0
4115 -5485 0
-4255 5903 5904 5905 0
4255 -5903 0
4255 -5904 0
4255 -5905 0
-4395 6323 6324 6325 0
4395 -6323 0
4395 -6324 0
4395 -6325 0
-4535 6743 6744 6745 0
4535 -6743 0
4535 -6744 0
4535 -6745 0
-4675 7163 7164 7165 0
4675 -7163 0
4675 -7164 0
4675 -7165 0
-4815 7583 7584 7585 0
4815 -7583 0
4815 -7584 0
4815 -7585 0
5483 -583 -164 0
-5483 164 0
-5483 583 0
5484 -584 -165 0
-5484 165 0
-5484 584 0
5485 -585 -163 0
-5485 163 0
-5485 585 0
5903 -1003 -584 0
-5903 584 0
-5903 1003 0
5904 -1004 -585 0
-5904 585 0
-5904 1004 0
5905 -1005 -583 0
-5905 583 0
-5905 1005 0
6323 -1423 -1004 0
-6323 1004 0
-6323 1423 0
6324 -1424 -1005 0
-6324 1005 0
-6324 1424 0
6325 -1425 -1003 0
-6325 1003 0
-6325 1425 0
6743 -1843 -1424 0
-6743 1424 0
-6743 1843 0
6744 -1844 -1425 0
-6744 1425 0
-6744 1844 0
6745 -1845 -1423 0
-6745 1423 0
-6745 1845 0
7163 -2263 -1844 0
-7163 1844 0
-7163 2263 0
7164 -2264 -1845 0
-7164 1845 0
-7164 2264 0
7165 -2265 -1843 0
-7165 1843 0
-7165 2265 0
-7583 163 0
-7583 2263 0
-7583 -2684 0
7583 -163 -2263 2684 0
-7584 164 0
-7584 2264 0
-7584 -2685 0
7584 -164 -2264 2685 0
-7585 165 0
-7585 2265 0
-7585 -2683 0
7585 -165 -2265 2683 0
-2996 8006 8007 8008 0
2996 -8006 0
8006 -166 -587 0
-8006 587 0
-8006 166 0
2996 -8007 0
8007 -167 -588 0
-8007 588 0
-8007 167 0
2996 -8008 0
8008 -168 -586 0
-8008 586 0
-8008 168 0
-3136 8426 8427 8428 0
3136 -8426 0
8426 -586 -1007 0
-8426 1007 0
-8426 586 0
3136 -8427 0
8427 -587 -1008 0
-8427 1008 0
-8427 587 0
3136 -8428 0
8428 -588 -1006 0
-8428 1006 0
-8428 588 0
-3276 8846 8847 8848 0
3276 -8846 0
8846 -1006 -1427 0
-8846 1427 0
-8846 1006 0
3276 -8847 0
8847 -1007 -1428 0
-8847 1428 0
-8847 1007 0
3276 -8848 0
8848 -1008 -1426 0
-8848 1426 0
-8848 1008 0
-3416 9266 9267 9268 0
3416 -9266 0
9266 -1426 -1847 0
-9266 1847 0
-9266 1426 0
3416 -9267 0
9267 -1427 -1848 0
-9267 1848 0
-9267 1427 0
3416 -9268 0
9268 -1428 -1846 0
-9268 1846 0
-9268 1428 0
-3556 9686 9687 9688 0
3556 -9686 0
9686 -1846 -2267 0
-9686 2267 0
-9686 1846 0
3556 -9687 0
9687 -1847 -2268 0
-9687 2268 0
-9687 1847 0
3556 -9688 0
9688 -1848 -2266 0
-9688 2266 0
-9688 1848 0
-3696 10106 10107 10108 0
3696 -10106 0
10106 -2266 -2687 0
-10106 2687 0
-10106 2266 0
3696 -10107 0
10107 -2267 -2688 0
-10107 2688 0
-10107 2267 0
3696 -10108 0
10108 -2268 -2686 0
-10108 2686 0
-10108 2268 0
-4116 5486 5487 5488 0
4116 -5486 0
4116 -5487 0
4116 -5488 0
-4256 5906 5907 5908 0
4256 -5906 0
4256 -5907 0
4256 -5908 0
-4396 6326 6327 6328 0
4396 -6326 0
4396 -6327 0
4396 -6328 0
-4536 6746 6747 6748 0
4536 -6746 0
4536 -6747 0
4536 -6748 0
-4676 7166 7167 7168 0
4676 -7166 0
4676 -7167 0
4676 -7168 0
-4816 7586 7587 7588 0
4816 -7586 0
4816 -7587 0
4816 -7588 0
5486 -586 -167 0
-5486 167 0
-5486 586 0
5487 -587 -168 0
-5487 168 0
-5487 587 0
5488 -588 -166 0
-5488 166 0
-5488 588 0
5906 -1006 -587 0
-5906 587 0
-5906 1006 0
5907 -1007 -588 0
-5907 588 0
-5907 1007 0
5908 -1008 -586 0
-5908 586 0
-5908 1008 0
6326 -1426 -1007 0
-6326 1007 0
-6326 1426 0
6327 -1427 -1008 0
-6327 1008 0
-6327 1427 0
6328 -1428 -1006 0
-6328 1006 0
-6328 1428 0
6746 -1846 -1427 0
-6746 1427 0
-6746 1846 0
6747 -1847 -1428 0
-6747 1428 0
-6747 1847 0
6748 -1848 -1426 0
-6748 1426 0
-6748 1848 0
7166 -2266 -1847 0
-7166 1847 0
-7166 2266 0
7167 -2267 -1848 0
-7167 1848 0
-7167 2267 0
7168 -2268 -1846 0
-7168 1846 0
-7168 2268 0
-7586 166 0
-7586 2266 0
-7586 -2687 0
7586 -166 -2266 2687 0
-7587 167 0
-7587 2267 0
-7587 -2688 0
7587 -167 -2267 2688 0
-7588 168 0
-7588 2268 0
-7588 -2686 0
7588 -168 -2268 2686 0
-2997 8009 8010 8011 0
2997 -8009 0
8009 -169 -590 0
-8009 590 0
-8009 169 0
2997 -8010 0
8010 -170 -591 0
-8010 591 0
-8010 170 0
2997 -8011 0
8011 -171 -589 0
-8011 589 0
-8011 171 0
-3137 8429 8430 8431 0
3137 -8429 0
8429 -589 -1010 0
-8429 1010 0
-8429 589 0
3137 -8430 0
8430 -590 -1011 0
-8430 1011 0
-8430 590 0
3137 -8431 0
8431 -591 -1009 0
-8431 1009 0
-8431 591 0
-3277 8849 8850 8851 0
3277 -8849 0
8849 -1009 -1430 0
-8849 1430 0
-8849 1009 0
3277 -8850 0
8850 -1010 -1431 0
-8850 1431 0
-8850 1010 0
3277 -8851 0
8851 -1011 -1429 0
-8851 1429 0
-8851 1011 0
-3417 9269 9270 9271 0
3417 -9269 0
9269 -1429 -1850 0
-9269 1850 0
-9269 1429 0
3417 -9270 0
9270 -1430 -1851 0
-9270 1851 0
-9270 1430 0
3417 -9271 0
9271 -1431 -1849 0
-9271 1849 0
-9271 1431 0
-3557 9689 9690 9691 0
3557 -9689 0
9689 -1849 -2270 0
-9689 2270 0
-9689 1849 0
3557 -9690 0
9690 -1850 -2271 0
-9690 2271 0
-9690 1850 0
3557 -9691 0
9691 -1851 -2269 0
-9691 2269 0
-9691 1851 0
-3697 10109 10110 10111 0
3697 -10109 0
10109 -2269 -2690 0
-10109 2690 0
-10109 2269 0
3697 -10110 0
10110 -2270 -2691 0
-10110 2691 0
-10110 2270 0
3697 -10111 0
10111 -2271 -2689 0
-10111 2689 0
-10111 2271 0
-4117 5489 5490 5491 0
4117 -5489 0
4117 -5490 0
4117 -5491 0
-4257 5909 5910 5911 0
4257 -5909 0
4257 -5910 0
4257 -5911 0
-4397 6329 6330 6331 0
4397 -6329 0
4397 -6330 0
4397 -6331 0
-4537 6749 6750 6751 0
4537 -6749 0
4537 -6750 0
4537 -6751 0
-4677 7169 7170 7171 0
4677 -7169 0
4677 -7170 0
4677 -7171 0
-4817 7589 7590 7591 0
4817 -7589 0
4817 -7590 0
4817 -7591 0
5489 -589 -170 0
-5489 170 0
-5489 589 0
5490 -590 -171 0
-5490 171 0
-5490 590 0
5491 -591 -169 0
-5491 169 0
-5491 591 0
5909 -1009 -590 0
-5909 590 0
-5909 1009 0
5910 -1010 -591 0
-5910 591 0
-5910 1010 0
5911 -1011 -589 0
-5911 589 0
-5911 1011 0
6329 -1429 -1010 0
-6329 1010 0
-6329 1429 0
6330 -1430 -1011 0
-6330 1011 0
-6330 1430 0
6331 -1431 -1009 0
-6331 1009 0
-6331 1431 0
6749 -1849 -1430 0
-6749 1430 0
-6749 1849 0
6750 -1850 -1431 0
-6750 1431 0
-6750 1850 0
6751 -1851 -1429 0
-6751 1429 0
-6751 1851 0
7169 -2269 -1850 0
-7169 1850 0
-7169 2269 0
7170 -2270 -1851 0
-7170 1851 0
-7170 2270 0
7171 -2271 -1849 0
-7171 1849 0
-7171 2271 0
-7589 169 0
-7589 2269 0
-7589 -2690 0
7589 -169 -2269 2690 0
-7590 170 0
-7590 2270 0
-7590 -2691 0
7590 -170 -2270 2691 0
-7591 171 0
-7591 2271 0
-7591 -2689 0
7591 -171 -2271 2689 0
-2998 8012 8013 8014 0
2998 -8012 0
8012 -172 -593 0
-8012 593 0
-8012 172 0
2998 -8013 0
8013 -173 -594 0
-8013 594 0
-8013 173 0
2998 -8014 0
8014 -174 -592 0
-8014 592 0
-8014 174 0
-3138 8432 8433 8434 0
3138 -8432 0
8432 -592 -1013 0
-8432 1013 0
-8432 592 0
3138 -8433 0
8433 -593 -1014 0
-8433 1014 0
-8433 593 0
3138 -8434 0
8434 -594 -1012 0
-8434 1012 0
-8434 594 0
-3278 8852 8853 8854 0
3278 -8852 0
8852 -1012 -1433 0
-8852 1433 0
-8852 1012 0
3278 -8853 0
8853 -1013 -1434 0
-8853 1434 0
-8853 1013 0
3278 -8854 0
8854 -1014 -1432 0
-8854 1432 0
-8854 1014 0
-3418 9272 9273 9274 0
3418 -9272 0
9272 -1432 -1853 0
-9272 1853 0
-9272 1432 0
3418 -9273 0
9273 -1433 -1854 0
-9273 1854 0
-9273 1433 0
3418 -9274 0
9274 -1434 -1852 0
-9274 1852 0
-9274 1434 0
-3558 9692 9693 9694 0
3558 -9692 0
9692 -1852 -2273 0
-9692 2273 0
-9692 1852 0
3558 -9693 0
9693 -1853 -2274 0
-9693 2274 0
-9693 1853 0
3558 -9694 0
9694 -1854 -2272 0
-9694 2272 0
-9694 1854 0
-3698 10112 10113 10114 0
3698 -10112 0
10112 -2272 -2693 0
-10112 2693 0
-10112 2272 0
3698 -10113 0
10113 -2273 -2694 0
-10113 2694 0
-10113 2273 0
3698 -10114 0
10114 -2274 -2692 0
-10114 2692 0
-10114 2274 0
-4118 5492 5493 5494 0
4118 -5492 0
4118 -5493 0
4118 -5494 0
-4258 5912 5913 5914 0
4258 -5912 0
4258 -5913 0
4258 -5914 0
-4398 6332 6333 6334 0
4398 -6332 0
4398 -6333 0
4398 -6334 0
-4538 6752 6753 6754 0
4538 -6752 0
4538 -6753 0
4538 -6754 0
-4678 7172 7173 7174 0
4678 -7172 0
4678 -7173 0
4678 -7174 0
-4818 7592 7593 7594 0
4818 -7592 0
4818 -7593 0
4818 -7594 0
5492 -592 -173 0
-5492 173 0
-5492 592 0
5493 -593 -174 0
-5493 174 0
-5493 593 0
5494 -594 -172 0
-5494 172 0
-5494 594 0
5912 -1012 -593 0
-5912 593 0
-5912 1012 0
5913 -1013 -594 0
-5913 594 0
-5913 1013 0
5914 -1014 -592 0
-5914 592 0
-5914 1014 0
6332 -1432 -1013 0
-6332 1013 0
-6332 1432 0
6333 -1433 -1014 0
-6333 1014 0
-6333 1433 0
6334 -1434 -1012 0
-6334 1012 0
-6334 1434 0
6752 -1852 -1433 0
-6752 1433 0
-6752 1852 0
6753 -1853 -1434 0
-6753 1434 0
-6753 1853 0
6754 -1854 -1432 0
-6754 1432 0
-6754 1854 0
7172 -2272 -1853 0
-7172 1853 0
-7172 2272 0
7173 -2273 -1854 0
-7173 1854 0
-7173 2273 0
7174 -2274 -1852 0
-7174 1852 0
-7174 2274 0
-7592 172 0
-7592 2272 0
-7592 -2693 0
7592 -172 -2272 2693 0
-7593 173 0
-7593 2273 0
-7593 -2694 0
7593 -173 -2273 2694 0
-7594 174 0
-7594 2274 0
-7594 -2692 0
7594 -174 -2274 2692 0
-2999 8015 8016 8017 0
2999 -8015 0
8015 -175 -596 0
-8015 596 0
-8015 175 0
2999 -8016 0
8016 -176 -597 0
-8016 597 0
-8016 176 0
2999 -8017 0
8017 -177 -595 0
-8017 595 0
-8017 177 0
-3139 8435 8436 8437 0
3139 -8435 0
8435 -595 -1016 0
-8435 1016 0
-8435 595 0
3139 -8436 0
8436 -596 -1017 0
-8436 1017 0
-8436 596 0
3139 -8437 0
8437 -597 -1015 0
-8437 1015 0
-8437 597 0
-3279 8855 8856 8857 0
3279 -8855 0
8855 -1015 -1436 0
-8855 1436 0
-8855 1015 0
3279 -8856 0
8856 -1016 -1437 0
-8856 1437 0
-8856 1016 0
3279 -8857 0
8857 -1017 -1435 0
-8857 1435 0
-8857 1017 0
-3419 9275 9276 9277 0
3419 -9275 0
9275 -1435 -1856 0
-9275 1856 0
-9275 1435 0
3419 -9276 0
9276 -1436 -1857 0
-9276 1857 0
-9276 1436 0
3419 -9277 0
9277 -1437 -1855 0
-9277 1855 0
-9277 1437 0
-3559 9695 9696 9697 0
3559 -9695 0
9695 -1855 -2276 0
-9695 2276 0
-9695 1855 0
3559 -9696 0
9696 -1856 -2277 0
-9696 2277 0
-9696 1856 0
3559 -9697 0
9697 -1857 -2275 0
-9697 2275 0
-9697 1857 0
-3699 10115 10116 10117 0
3699 -10115 0
10115 -2275 -2696 0
-10115 2696 0
-10115 2275 0
3699 -10116 0
10116 -2276 -2697 0
-10116 2697 0
-10116 2276 0
3699 -10117 0
10117 -2277 -2695 0
-10117 2695 0
-10117 2277 0
-4119 5495 5496 5497 0
4119 -5495 0
4119 -5496 0
4119 -5497 0
-4259 5915 5916 5917 0
4259 -5915 0
4259 -5916 0
4259 -5917 0
-4399 6335 6336 6337 0
4399 -6335 0
4399 -6336 0
4399 -6337 0
-4539 6755 6756 6757 0
4539 -6755 0
4539 -6756 0
4539 -6757 0
-4679 7175 7176 7177 0
4679 -7175 0
4679 -7176 0
4679 -7177 0
-4819 7595 7596 7597 0
4819 -7595 0
4819 -7596 0
4819 -7597 0
5495 -595 -176 0
-5495 176 0
-5495 595 0
5496 -596 -177 0
-5496 177 0
-5496 596 0
5497 -597 -175 0
-5497 175 0
-5497 597 0
5915 -1015 -596 0
-5915 596 0
-5915 1015 0
5916 -1016 -597 0
-5916 597 0
-5916 1016 0
5917 -1017 -595 0
-5917 595 0
-5917 1017 0
6335 -1435 -1016 0
-6335 1016 0
-6335 1435 0
6336 -1436 -1017 0
-6336 1017 0
-6336 1436 0
6337 -1437 -1015 0
-6337 1015 0
-6337 1437 0
6755 -1855 -1436 0
-6755 1436 0
-6755 1855 0
6756 -1856 -1437 0
-6756 1437 0
-6756 1856 0
6757 -1857 -1435 0
-6757 1435 0
-6757 1857 0
7175 -2275 -1856 0
-7175 1856 0
-7175 2275 0
7176 -2276 -1857 0
-7176 1857 0
-7176 2276 0
7177 -2277 -1855 0
-7177 1855 0
-7177 2277 0
-7595 175 0
-7595 2275 0
-7595 -2696 0
7595 -175 -2275 2696 0
-7596 176 0
-7596 2276 0
-7596 -2697 0
7596 -176 -2276 2697 0
-7597 177 0
-7597 2277 0
-7597 -2695 0
7597 -177 -2277 2695 0
-3000 8018 8019 8020 0
3000 -8018 0
8018 -178 -599 0
-8018 599 0
-8018 178 0
3000 -8019 0
8019 -179 -600 0
-8019 600 0
-8019 179 0
3000 -8020 0
8020 -180 -598 0
-8020 598 0
-8020 180 0
-3140 8438 8439 8440 0
3140 -8438 0
8438 -598 -1019 0
-8438 1019 0
-8438 598 0
3140 -8439 0
8439 -599 -1020 0
-8439 1020 0
-8439 599 0
3140 -8440 0
8440 -600 -1018 0
-8440 1018 0
-8440 600 0
-3280 8858 8859 8860 0
3280 -8858 0
8858 -1018 -1439 0
-8858 1439 0
-8858 1018 0
3280 -8859 0
8859 -1019 -1440 0
-8859 1440 0
-8859 1019 0
3280 -8860 0
8860 -1020 -1438 0
-8860 1438 0
-8860 1020 0
-3420 9278 9279 9280 0
3420 -9278 0
9278 -1438 -1859 0
-9278 1859 0
-9278 1438 0
3420 -9279 0
9279 -1439 -1860 0
-9279 1860 0
-9279 1439 0
3420 -9280 0
9280 -1440 -1858 0
-9280 1858 0
-9280 1440 0
-3560 9698 9699 9700 0
3560 -9698 0
9698 -1858 -2279 0
-9698 2279 0
-9698 1858 0
3560 -9699 0
9699 -1859 -2280 0
-9699 2280 0
-9699 1859 0
3560 -9700 0
9700 -1860 -2278 0
-9700 2278 0
-9700 1860 0
-3700 10118 10119 10120 0
3700 -10118 0
10118 -2278 -2699 0
-10118 2699 0
-10118 2278 0
3700 -10119 0
10119 -2279 -2700 0
-10119 2700 0
-10119 2279 0
3700 -10120 0
10120 -2280 -2698 0
-10120 2698 0
-10120 2280 0
-4120 5498 5499 5500 0
4120 -5498 0
4120 -5499 0
4120 -5500 0
-4260 5918 5919 5920 0
4260 -5918 0
4260 -5919 0
4260 -5920 0
-4400 6338 6339 6340 0
4400 -6338 0
4400 -6339 0
4400 -6340 0
-4540 6758 6759 6760 0
4540 -6758 0
4540 -6759 0
4540 -6760 0
-4680 7178 7179 7180 0
4680 -7178 0
4680 -7179 0
4680 -7180 0
-4820 7598 7599 7600 0
4820 -7598 0
4820 -7599 0
4820 -7600 0
5498 -598 -179 0
-5498 179 0
-5498 598 0
5499 -599 -180 0
-5499 180 0
-5499 599 0
5500 -600 -178 0
-5500 178 0
-5500 600 0
5918 -1018 -599 0
-5918 599 0
-5918 1018 0
5919 -1019 -600 0
-5919 600 0
-5919 1019 0
5920 -1020 -598 0
-5920 598 0
-5920 1020 0
6338 -1438 -1019 0
-6338 1019 0
-6338 1438 0
6339 -1439 -1020 0
-6339 1020 0
-6339 1439 0
6340 -1440 -1018 0
-6340 1018 0
-6340 1440 0
6758 -1858 -1439 0
-6758 1439 0
-6758 1858 0
6759 -1859 -1440 0
-6759 1440 0
-6759 1859 0
6760 -1860 -1438 0
-6760 1438 0
-6760 1860 0
7178 -2278 -1859 0
-7178 1859 0
-7178 2278 0
7179 -2279 -1860 0
-7179 1860 0
-7179 2279 0
7180 -2280 -1858 0
-7180 1858 0
-7180 2280 0
-7598 178 0
-7598 2278 0
-7598 -2699 0
7598 -178 -2278 2699 0
-7599 179 0
-7599 2279 0
-7599 -2700 0
7599 -179 -2279 2700 0
-7600 180 0
-7600 2280 0
-7600 -2698 0
7600 -180 -2280 2698 0
-3001 8021 8022 8023 0
3001 -8021 0
8021 -181 -602 0
-8021 602 0
-8021 181 0
3001 -8022 0
8022 -182 -603 0
-8022 603 0
-8022 182 0
3001 -8023 0
8023 -183 -601 0
-8023 601 0
-8023 183 0
-3141 8441 8442 8443 0
3141 -8441 0
8441 -601 -1022 0
-8441 1022 0
-8441 601 0
3141 -8442 0
8442 -602 -1023 0
-8442 1023 0
-8442 602 0
3141 -8443 0
8443 -603 -1021 0
-8443 1021 0
-8443 603 0
-3281 8861 8862 8863 0
3281 -8861 0
8861 -1021 -1442 0
-8861 1442 0
-8861 1021 0
3281 -8862 0
8862 -1022 -1443 0
-8862 1443 0
-8862 1022 0
3281 -8863 0
8863 -1023 -1441 0
-8863 1441 0
-8863 1023 0
-3421 9281 9282 9283 0
3421 -9281 0
9281 -1441 -1862 0
-9281 1862 0
-9281 1441 0
3421 -9282 0
9282 -1442 -1863 0
-9282 1863 0
-9282 1442 0
3421 -9283 0
9283 -1443 -1861 0
-9283 1861 0
-9283 1443 0
-3561 9701 9702 9703 0
3561 -9701 0
9701 -1861 -2282 0
-9701 2282 0
-9701 1861 0
3561 -9702 0
9702 -1862 -2283 0
-9702 2283 0
-9702 1862 0
3561 -9703 0
9703 -1863 -2281 0
-9703 2281 0
-9703 1863 0
-3701 10121 10122 10123 0
3701 -10121 0
10121 -2281 -2702 0
-10121 2702 0
-10121 2281 0
3701 -10122 0
10122 -2282 -2703 0
-10122 2703 0
-10122 2282 0
3701 -10123 0
10123 -2283 -2701 0
-10123 2701 0
-10123 2283 0
-4121 5501 5502 5503 0
4121 -5501 0
4121 -5502 0
4121 -5503 0
-4261 5921 5922 5923 0
4261 -5921 0
4261 -5922 0
4261 -5923 0
-4401 6341 6342 6343 0
4401 -6341 0
4401 -6342 0
4401 -6343 0
-4541 6761 6762 6763 0
4541 -6761 0
4541 -6762 0
4541 -6763 0
-4681 7181 7182 7183 0
4681 -7181 0
4681 -7182 0
4681 -7183 0
-4821 7601 7602 7603 0
4821 -7601 0
4821 -7602 0
4821 -7603 0
5501 -601 -182 0
-5501 182 0
-5501 601 0
5502 -602 -183 0
-5502 183 0
-5502 602 0
5503 -603 -181 0
-5503 181 0
-5503 603 0
5921 -1021 -602 0
-5921 602 0
-5921 1021 0
5922 -1022 -603 0
-5922 603 0
-5922 1022 0
5923 -1023 -601 0
-5923 601 0
-5923 1023 0
6341 -1441 -1022 0
-6341 1022 0
-6341 1441 0
6342 -1442 -1023 0
-6342 1023 0
-6342 1442 0
6343 -1443 -1021 0
-6343 1021 0
-6343 1443 0
6761 -1861 -1442 0
-6761 1442 0
-6761 1861 0
6762 -1862 -1443 0
-6762 1443 0
-6762 1862 0
6763 -1863 -1441 0
-6763 1441 0
-6763 1863 0
7181 -2281 -1862 0
-7181 1862 0
-7181 2281 0
7182 -2282 -1863 0
-7182 1863 0
-7182 2282 0
7183 -2283 -1861 0
-7183 1861 0
-7183 2283 0
-7601 181 0
-7601 2281 0
-7601 -2702 0
7601 -181 -2281 2702 0
-7602 182 0
-7602 2282 0
-7602 -2703 0
7602 -182 -2282 2703 0
-7603 183 0
-7603 2283 0
-7603 -2701 0
7603 -183 -2283 2701 0
-3002 8024 8025 8026 0
3002 -8024 0
8024 -184 -605 0
-8024 605 0
-8024 184 0
3002 -8025 0
8025 -185 -606 0
-8025 606 0
-8025 185 0
3002 -8026 0
8026 -186 -604 0
-8026 604 0
-8026 186 0
-3142 8444 8445 8446 0
3142 -8444 0
8444 -604 -1025 0
-8444 1025 0
-8444 604 0
3142 -8445 0
8445 -605 -1026 0
-8445 1026 0
-8445 605 0
3142 -8446 0
8446 -606 -1024 0
-8446 1024 0
-8446 606 0
-3282 8864 8865 8866 0
3282 -8864 0
8864 -1024 -1445 0
-8864 1445 0
-8864 1024 0
3282 -8865 0
8865 -1025 -1446 0
-8865 1446 0
-8865 1025 0
3282 -8866 0
8866 -1026 -1444 0
-8866 1444 0
-8866 1026 0
-3422 9284 9285 9286 0
3422 -9284 0
9284 -1444 -1865 0
-9284 1865 0
-9284 1444 0
3422 -9285 0
9285 -1445 -1866 0
-9285 1866 0
-9285 1445 0
3422 -9286 0
9286 -1446 -1864 0
-9286 1864 0
-9286 1446 0
-3562 9704 9705 9706 0
3562 -9704 0
9704 -1864 -2285 0
-9704 2285 0
-9704 1864 0
3562 -9705 0
9705 -1865 -2286 0
-9705 2286 0
-9705 1865 0
3562 -9706 0
9706 -1866 -2284 0
-9706 2284 0
-9706 1866 0
-3702 10124 10125 10126 0
3702 -10124 0
10124 -2284 -2705 0
-10124 2705 0
-10124 2284 0
3702 -10125 0
10125 -2285 -2706 0
-10125 2706 0
-10125 2285 0
3702 -10126 0
10126 -2286 -2704 0
-10126 2704 0
-10126 2286 0
-4122 5504 5505 5506 0
4122 -5504 0
4122 -5505 0
4122 -5506 0
-4262 5924 5925 5926 0
4262 -5924 0
4262 -5925 0
4262 -5926 0
-4402 6344 6345 6346 0
4402 -6344 0
4402 -6345 0
4402 -6346 0
-4542 6764 6765 6766 0
4542 -6764 0
4542 -6765 0
4542 -6766 0
-4682 7184 7185 7186 0
4682 -7184 0
4682 -7185 0
4682 -7186 0
-4822 7604 7605 7606 0
4822 -7604 0
4822 -7605 0
4822 -7606 0
5504 -604 -185 0
-5504 185 0
-5504 604 0
5505 -605 -186 0
-5505 186 0
-5505 605 0
5506 -606 -184 0
-5506 184 0
-5506 606 0
5924 -1024 -605 0
-5924 605 0
-5924 1024 0
5925 -1025 -606 0
-5925 606 0
-5925 1025 0
5926 -1026 -604 0
-5926 604 0
-5926 1026 0
6344 -1444 -1025 0
-6344 1025 0
-6344 1444 0
6345 -1445 -1026 0
-6345 1026 0
-6345 1445 0
6346 -1446 -1024 0
-6346 1024 0
-6346 1446 0
6764 -1864 -1445 0
-6764 1445 0
-6764 1864 0
6765 -1865 -1446 0
-6765 1446 0
-6765 1865 0
6766 -1866 -1444 0
-6766 1444 0
-6766 1866 0
7184 -2284 -1865 0
-7184 1865 0
-7184 2284 0
7185 -2285 -1866 0
-7185 1866 0
-7185 2285 0
7186 -2286 -1864 0
-7186 1864 0
-7186 2286 0
-7604 184 0
-7604 2284 0
-7604 -2705 0
7604 -184 -2284 2705 0
-7605 185 0
-7605 2285 0
-7605 -2706 0
7605 -185 -2285 2706 0
-7606 186 0
-7606 2286 0
-7606 -2704 0
7606 -186 -2286 2704 0
-3003 8027 8028 8029 0
3003 -8027 0
8027 -187 -608 0
-8027 608 0
-8027 187 0
3003 -8028 0
8028 -188 -609 0
-8028 609 0
-8028 188 0
3003 -8029 0
8029 -189 -607 0
-8029 607 0
-8029 189 0
-3143 8447 8448 8449 0
3143 -8447 0
8447 -607 -1028 0
-8447 1028 0
-8447 607 0
3143 -8448 0
8448 -608 -1029 0
-8448 1029 0
-8448 608 0
3143 -8449 0
8449 -609 -1027 0
-8449 1027 0
-8449 609 0
-3283 8867 8868 8869 0
3283 -8867 0
8867 -1027 -1448 0
-8867 1448 0
-8867 1027 0
3283 -8868 0
8868 -1028 -1449 0
-8868 1449 0
-8868 1028 0
3283 -8869 0
8869 -1029 -1447 0
-8869 1447 0
-8869 1029 0
-3423 9287 9288 9289 0
3423 -9287 0
9287 -1447 -1868 0
-9287 1868 0
-9287 1447 0
3423 -9288 0
9288 -1448 -1869 0
-9288 1869 0
-9288 1448 0
3423 -9289 0
9289 -1449 -1867 0
-9289 1867 0
-9289 1449 0
-3563 9707 9708 9709 0
3563 -9707 0
9707 -1867 -2288 0
-9707 2288 0
-9707 1867 0
3563 -9708 0
9708 -1868 -2289 0
-9708 2289 0
-9708 1868 0
3563 -9709 0
9709 -1869 -2287 0
-9709 2287 0
-9709 1869 0
-3703 10127 10128 10129 0
3703 -10127 0
10127 -2287 -2708 0
-10127 2708 0
-10127 2287 0
3703 -10128 0
10128 -2288 -2709 0
-10128 2709 0
-10128 2288 0
3703 -10129 0
10129 -2289 -2707 0
-10129 2707 0
-10129 2289 0
-4123 5507 5508 5509 0
4123 -5507 0
4123 -5508 0
4123 -5509 0
-4263 5927 5928 5929 0
4263 -5927 0
4263 -5928 0
4263 -5929 0
-4403 6347 6348 6349 0
4403 -6347 0
4403 -6348 0
4403 -6349 0
-4543 6767 6768 6769 0
4543 -6767 0
4543 -6768 0
4543 -6769 0
-4683 7187 7188 7189 0
4683 -7187 0
4683 -7188 0
4683 -7189 0
-4823 7607 7608 7609 0
4823 -7607 0
4823 -7608 0
4823 -7609 0
5507 -607 -188 0
-5507 188 0
-5507 607 0
5508 -608 -189 0
-5508 189 0
-5508 608 0
5509 -609 -187 0
-5509 187 0
-5509 609 0
5927 -1027 -608 0
-5927 608 0
-5927 1027 0
5928 -1028 -609 0
-5928 609 0
-5928 1028 0
5929 -1029 -607 0
-5929 607 0
-5929 1029 0
6347 -1447 -1028 0
-6347 1028 0
-6347 1447 0
6348 -1448 -1029 0
-6348 1029 0
-6348 1448 0
6349 -1449 -1027 0
-6349 1027 0
-6349 1449 0
6767 -1867 -1448 0
-6767 1448 0
-6767 1867 0
6768 -1868 -1449 0
-6768 1449 0
-6768 1868 0
6769 -1869 -1447 0
-6769 1447 0
-6769 1869 0
7187 -2287 -1868 0
-7187 1868 0
-7187 2287 0
7188 -2288 -1869 0
-7188 1869 0
-7188 2288 0
7189 -2289 -1867 0
-7189 1867 0
-7189 2289 0
-7607 187 0
-7607 2287 0
-7607 -2708 0
7607 -187 -2287 2708 0
-7608 188 0
-7608 2288 0
-7608 -2709 0
7608 -188 -2288 2709 0
-7609 189 0
-7609 2289 0
-7609 -2707 0
7609 -189 -2289 2707 0
-3004 8030 8031 8032 0
3004 -8030 0
8030 -190 -611 0
-8030 611 0
-8030 190 0
3004 -8031 0
8031 -191 -612 0
-8031 612 0
-8031 191 0
3004 -8032 0
8032 -192 -610 0
-8032 610 0
-8032 192 0
-3144 8450 8451 8452 0
3144 -8450 0
8450 -610 -1031 0
-8450 1031 0
-8450 610 0
3144 -8451 0
8451 -611 -1032 0
-8451 1032 0
-8451 611 0
3144 -8452 0
8452 -612 -1030 0
-8452 1030 0
-8452 612 0
-3284 8870 8871 8872 0
3284 -8870 0
8870 -1030 -1451 0
-8870 1451 0
-8870 1030 0
3284 -8871 0
8871 -1031 -1452 0
-8871 1452 0
-8871 1031 0
3284 -8872 0
8872 -1032 -1450 0
-8872 1450 0
-8872 1032 0
-3424 9290 9291 9292 0
3424 -9290 0
9290 -1450 -1871 0
-9290 1871 0
-9290 1450 0
3424 -9291 0
9291 -1451 -1872 0
-9291 1872 0
-9291 1451 0
3424 -9292 0
9292 -1452 -1870 0
-9292 1870 0
-9292 1452 0
-3564 9710 9711 9712 0
3564 -9710 0
9710 -1870 -2291 0
-9710 2291 0
-9710 1870 0
3564 -9711 0
9711 -1871 -2292 0
-9711 2292 0
-9711 1871 0
3564 -9712 0
9712 -1872 -2290 0
-9712 2290 0
-9712 1872 0
-3704 10130 10131 10132 0
3704 -10130 0
10130 -2290 -2711 0
-10130 2711 0
-10130 2290 0
3704 -10131 0
10131 -2291 -2712 0
-10131 2712 0
-10131 2291 0
3704 -10132 0
10132 -2292 -2710 0
-10132 2710 0
-10132 2292 0
-4124 5510 5511 5512 0
4124 -5510 0
4124 -5511 0
4124 -5512 0
-4264 5930 5931 5932 0
4264 -5930 0
4264 -5931 0
4264 -5932 0
-4404 6350 6351 6352 0
4404 -6350 0
4404 -6351 0
4404 -6352 0
-4544 6770 6771 6772 0
4544 -6770 0
4544 -6771 0
4544 -6772 0
-4684 7190 7191 7192 0
4684 -7190 0
4684 -7191 0
4684 -7192 0
-4824 7610 7611 7612 0
4824 -7610 0
4824 -7611 0
4824 -7612 0
5510 -610 -191 0
-5510 191 0
-5510 610 0
5511 -611 -192 0
-5511 192 0
-5511 611 0
5512 -612 -190 0
-5512 190 0
-5512 612 0
5930 -1030 -611 0
-5930 611 0
-5930 1030 0
5931 -1031 -612 0
-5931 612 0
-5931 1031 0
5932 -1032 -610 0
-5932 610 0
-5932 1032 0
6350 -1450 -1031 0
-6350 1031 0
-6350 1450 0
6351 -1451 -1032 0
-6351 1032 0
-6351 1451 0
6352 -1452 -1030 0
-6352 1030 0
-6352 1452 0
6770 -1870 -1451 0
-6770 1451 0
-6770 1870 0
6771 -1871 -1452 0
-6771 1452 0
-6771 1871 0
6772 -1872 -1450 0
-6772 1450 0
-6772 1872 0
7190 -2290 -1871 0
-7190 1871 0
-7190 2290 0
7191 -2291 -1872 0
-7191 1872 0
-7191 2291 0
7192 -2292 -1870 0
-7192 1870 0
-7192 2292 0
-7610 190 0
-7610 2290 0
-7610 -2711 0
7610 -190 -2290 2711 0
-7611 191 0
-7611 2291 0
-7611 -2712 0
7611 -191 -2291 2712 0
-7612 192 0
-7612 2292 0
-7612 -2710 0
7612 -192 -2292 2710 0
-3005 8033 8034 8035 0
3005 -8033 0
8033 -193 -614 0
-8033 614 0
-8033 193 0
3005 -8034 0
8034 -194 -615 0
-8034 615 0
-8034 194 0
3005 -8035 0
8035 -195 -613 0
-8035 613 0
-8035 195 0
-3145 8453 8454 8455 0
3145 -8453 0
8453 -613 -1034 0
-8453 1034 0
-8453 613 0
3145 -8454 0
8454 -614 -1035 0
-8454 1035 0
-8454 614 0
3145 -8455 0
8455 -615 -1033 0
-8455 1033 0
-8455 615 0
-3285 8873 8874 8875 0
3285 -8873 0
8873 -1033 -1454 0
-8873 1454 0
-8873 1033 0
3285 -8874 0
8874 -1034 -1455 0
-8874 1455 0
-8874 1034 0
3285 -8875 0
8875 -1035 -1453 0
-8875 1453 0
-8875 1035 0
-3425 9293 9294 9295 0
3425 -9293 0
9293 -1453 -1874 0
-9293 1874 0
-9293 1453 0
3425 -9294 0
9294 -1454 -1875 0
-9294 1875 0
-9294 1454 0
3425 -9295 0
9295 -1455 -1873 0
-9295 1873 0
-9295 1455 0
-3565 9713 9714 9715 0
3565 -9713 0
9713 -1873 -2294 0
-9713 2294 0
-9713 1873 0
3565 -9714 0
9714 -1874 -2295 0
-9714 2295 0
-9714 1874 0
3565 -9715 0
9715 -1875 -2293 0
-9715 2293 0
-9715 1875 0
-3705 10133 10134 10135 0
3705 -10133 0
10133 -2293 -2714 0
-10133 2714 0
-10133 2293 0
3705 -10134 0
10134 -2294 -2715 0
-10134 2715 0
-10134 2294 0
3705 -10135 0
10135 -2295 -2713 0
-10135 2713 0
-10135 2295 0
-4125 5513 5514 5515 0
4125 -5513 0
4125 -5514 0
4125 -5515 0
-4265 5933 5934 5935 0
4265 -5933 0
4265 -5934 0
4265 -5935 0
-4405 6353 6354 6355 0
4405 -6353 0
4405 -6354 0
4405 -6355 0
-4545 6773 6774 6775 0
4545 -6773 0
4545 -6774 0
4545 -6775 0
-4685 7193 7194 7195 0
4685 -7193 0
4685 -7194 0
4685 -7195 0
-4825 7613 7614 7615 0
4825 -7613 0
4825 -7614 0
4825 -7615 0
5513 -613 -194 0
-5513 194 0
-5513 613 0
5514 -614 -195 0
-5514 195 0
-5514 614 0
5515 -615 -193 0
-5515 193 0
-5515 615 0
5933 -1033 -614 0
-5933 614 0
-5933 1033 0
5934 -1034 -615 0
-5934 615 0
-5934 1034 0
5935 -1035 -613 0
-5935 613 0
-5935 1035 0
6353 -1453 -1034 0
-6353 1034 0
-6353 1453 0
6354 -1454 -1035 0
-6354 1035 0
-6354 1454 0
6355 -1455 -1033 0
-6355 1033 0
-6355 1455 0
6773 -1873 -1454 0
-6773 1454 0
-6773 1873 0
6774 -1874 -1455 0
-6774 1455 0
-6774 1874 0
6775 -1875 -1453 0
-6775 1453 0
-6775 1875 0
7193 -2293 -1874 0
-7193 1874 0
-7193 2293 0
7194 -2294 -1875 0
-7194 1875 0
-7194 2294 0
7195 -2295 -1873 0
-7195 1873 0
-7195 2295 0
-7613 193 0
-7613 2293 0
-7613 -2714 0
7613 -193 -2293 2714 0
-7614 194 0
-7614 2294 0
-7614 -2715 0
7614 -194 -2294 2715 0
-7615 195 0
-7615 2295 0
-7615 -2713 0
7615 -195 -2295 2713 0
-3006 8036 8037 8038 0
3006 -8036 0
8036 -196 -617 0
-8036 617 0
-8036 196 0
3006 -8037 0
8037 -197 -618 0
-8037 618 0
-8037 197 0
3006 -8038 0
8038 -198 -616 0
-8038 616 0
-8038 198 0
-3146 8456 8457 8458 0
3146 -8456 0
8456 -616 -1037 0
-8456 1037 0
-8456 616 0
3146 -8457 0
8457 -617 -1038 0
-8457 1038 0
-8457 617 0
3146 -8458 0
8458 -618 -1036 0
-8458 1036 0
-8458 618 0
-3286 8876 8877 8878 0
3286 -8876 0
8876 -1036 -1457 0
-8876 1457 0
-8876 1036 0
3286 -8877 0
8877 -1037 -1458 0
-8877 1458 0
-8877 1037 0
3286 -8878 0
8878 -1038 -1456 0
-8878 1456 0
-8878 1038 0
-3426 9296 9297 9298 0
3426 -9296 0
9296 -1456 -1877 0
-9296 1877 0
-9296 1456 0
3426 -9297 0
9297 -1457 -1878 0
-9297 1878 0
-9297 1457 0
3426 -9298 0
9298 -1458 -1876 0
-9298 1876 0
-9298 1458 0
-3566 9716 9717 9718 0
3566 -9716 0
9716 -1876 -2297 0
-9716 2297 0
-9716 1876 0
3566 -9717 0
9717 -1877 -2298 0
-9717 2298 0
-9717 1877 0
3566 -9718 0
9718 -1878 -2296 0
-9718 2296 0
-9718 1878 0
-3706 10136 10137 10138 0
3706 -10136 0
10136 -2296 -2717 0
-10136 2717 0
-10136 2296 0
3706 -10137 0
10137 -2297 -2718 0
-10137 2718 0
-10137 2297 0
3706 -10138 0
10138 -2298 -2716 0
-10138 2716 0
-10138 2298 0
-4126 5516 5517 5518 0
4126 -5516 0
4126 -5517 0
4126 -5518 0
-4266 5936 5937 5938 0
4266 -5936 0
4266 -5937 0
4266 -5938 0
-4406 6356 6357 6358 0
4406 -6356 0
4406 -6357 0
4406 -6358 0
-4546 6776 6777 6778 0
4546 -6776 0
4546 -6777 0
4546 -6778 0
-4686 7196 7197 7198 0
4686 -7196 0
4686 -7197 0
4686 -7198 0
-4826 7616 7617 7618 0
4826 -7616 0
4826 -7617 0
4826 -7618 0
5516 -616 -197 0
-5516 197 0
-5516 616 0
5517 -617 -198 0
-5517 198 0
-5517 617 0
5518 -618 -196 0
-5518 196 0
-5518 618 0
5936 -1036 -617 0
-5936 617 0
-5936 1036 0
5937 -1037 -618 0
-5937 618 0
-5937 1037 0
5938 -1038 -616 0
-5938 616 0
-5938 1038 0
6356 -1456 -1037 0
-6356 1037 0
-6356 1456 0
6357 -1457 -1038 0
-6357 1038 0
-6357 1457 0
6358 -1458 -1036 0
-6358 1036 0
-6358 1458 0
6776 -1876 -1457 0
-6776 1457 0
-6776 1876 0
6777 -1877 -1458 0
-6777 1458 0
-6777 1877 0
6778 -1878 -1456 0
-6778 1456 0
-6778 1878 0
7196 -2296 -1877 0
-7196 1877 0
-7196 2296 0
7197 -2297 -1878 0
-7197 1878 0
-7197 2297 0
7198 -2298 -1876 0
-7198 1876 0
-7198 2298 0
-7616 196 0
-7616 2296 0
-7616 -2717 0
7616 -196 -2296 2717 0
-7617 197 0
-7617 2297 0
-7617 -2718 0
7617 -197 -2297 2718 0
-7618 198 0
-7618 2298 0
-7618 -2716 0
7618 -198 -2298 2716 0
-3007 8039 8040 8041 0
3007 -8039 0
8039 -199 -620 0
-8039 620 0
-8039 199 0
3007 -8040 0
8040 -200 -621 0
-8040 621 0
-8040 200 0
3007 -8041 0
8041 -201 -619 0
-8041 619 0
-8041 201 0
-3147 8459 8460 8461 0
3147 -8459 0
8459 -619 -1040 0
-8459 1040 0
-8459 619 0
3147 -8460 0
8460 -620 -1041 0
-8460 1041 0
-8460 620 0
3147 -8461 0
8461 -621 -1039 0
-8461 1039 0
-8461 621 0
-3287 8879 8880 8881 0
3287 -8879 0
8879 -1039 -1460 0
-8879 1460 0
-8879 1039 0
3287 -8880 0
8880 -1040 -1461 0
-8880 1461 0
-8880 1040 0
3287 -8881 0
8881 -1041 -1459 0
-8881 1459 0
-8881 1041 0
-3427 9299 9300 9301 0
3427 -9299 0
9299 -1459 -1880 0
-9299 1880 0
-9299 1459 0
3427 -9300 0
9300 -1460 -1881 0
-9300 1881 0
-9300 1460 0
3427 -9301 0
9301 -1461 -1879 0
-9301 1879 0
-9301 1461 0
-3567 9719 9720 9721 0
3567 -9719 0
9719 -1879 -2300 0
-9719 2300 0
-9719 1879 0
3567 -9720 0
9720 -1880 -2301 0
-9720 2301 0
-9720 1880 0
3567 -9721 0
9721 -1881 -2299 0
-9721 2299 0
-9721 1881 0
-3707 10139 10140 10141 0
3707 -10139 0
10139 -2299 -2720 0
-10139 2720 0
-10139 2299 0
3707 -10140 0
10140 -2300 -2721 0
-10140 2721 0
-10140 2300 0
3707 -10141 0
10141 -2301 -2719 0
-10141 2719 0
-10141 2301 0
-4127 5519 5520 5521 0
4127 -5519 0
4127 -5520 0
4127 -5521 0
-4267 5939 5940 5941 0
4267 -5939 0
4267 -5940 0
4267 -5941 0
-4407 6359 6360 6361 0
4407 -6359 0
4407 -6360 0
4407 -6361 0
-4547 6779 6780 6781 0
4547 -6779 0
4547 -6780 0
4547 -6781 0
-4687 7199 7200 7201 0
4687 -7199 0
4687 -7200 0
4687 -7201 0
-4827 7619 7620 7621 0
4827 -7619 0
4827 -7620 0
4827 -7621 0
5519 -619 -200 0
-5519 200 0
-5519 619 0
5520 -620 -201 0
-5520 201 0
-5520 620 0
5521 -621 -199 0
-5521 199 0
-5521 621 0
5939 -1039 -620 0
-5939 620 0
-5939 1039 0
5940 -1040 -621 0
-5940 621 0
-5940 1040 0
5941 -1041 -619 0
-5941 619 0
-5941 1041 0
6359 -1459 -1040 0
-6359 1040 0
-6359 1459 0
6360 -1460 -1041 0
-6360 1041 0
-6360 1460 0
6361 -1461 -1039 0
-6361 1039 0
-6361 1461 0
6779 -1879 -1460 0
-6779 1460 0
-6779 1879 0
6780 -1880 -1461 0
-6780 1461 0
-6780 1880 0
6781 -1881 -1459 0
-6781 1459 0
-6781 1881 0
7199 -2299 -1880 0
-7199 1880 0
-7199 2299 0
7200 -2300 -1881 0
-7200 1881 0
-7200 2300 0
7201 -2301 -1879 0
-7201 1879 0
-7201 2301 0
-7619 199 0
-7619 2299 0
-7619 -2720 0
7619 -199 -2299 2720 0
-7620 200 0
-7620 2300 0
-7620 -2721 0
7620 -200 -2300 2721 0
-7621 201 0
-7621 2301 0
-7621 -2719 0
7621 -201 -2301 2719 0
-3008 8042 8043 8044 0
3008 -8042 0
8042 -202 -623 0
-8042 623 0
-8042 202 0
3008 -8043 0
8043 -203 -624 0
-8043 624 0
-8043 203 0
3008 -8044 0
8044 -204 -622 0
-8044 622 0
-8044 204 0
-3148 8462 8463 8464 0
3148 -8462 0
8462 -622 -1043 0
-8462 1043 0
-8462 622 0
3148 -8463 0
8463 -623 -1044 0
-8463 1044 0
-8463 623 0
3148 -8464 0
8464 -624 -1042 0
-8464 1042 0
-8464 624 0
-3288 8882 8883 8884 0
3288 -8882 0
8882 -1042 -1463 0
-8882 1463 0
-8882 1042 0
3288 -8883 0
8883 -1043 -1464 0
-8883 1464 0
-8883 1043 0
3288 -8884 0
8884 -1044 -1462 0
-8884 1462 0
-8884 1044 0
-3428 9302 9303 9304 0
3428 -9302 0
9302 -1462 -1883 0
-9302 1883 0
-9302 1462 0
3428 -9303 0
9303 -1463 -1884 0
-9303 1884 0
-9303 1463 0
3428 -9304 0
9304 -1464 -1882 0
-9304 1882 0
-9304 1464 0
-3568 9722 9723 9724 0
3568 -9722 0
9722 -1882 -2303 0
-9722 2303 0
-9722 1882 0
3568 -9723 0
9723 -1883 -2304 0
-9723 2304 0
-9723 1883 0
3568 -9724 0
9724 -1884 -2302 0
-9724 2302 0
-9724 1884 0
-3708 10142 10143 10144 0
3708 -10142 0
10142 -2302 -2723 0
-10142 2723 0
-10142 2302 0
3708 -10143 0
10143 -2303 -2724 0
-10143 2724 0
-10143 2303 0
3708 -10144 0
10144 -2304 -2722 0
-10144 2722 0
-10144 2304 0
-4128 5522 5523 5524 0
4128 -5522 0
4128 -5523 0
4128 -5524 0
-4268 5942 5943 5944 0
4268 -5942 0
4268 -5943 0
4268 -5944 0
-4408 6362 6363 6364 0
4408 -6362 0
4408 -6363 0
4408 -6364 0
-4548 6782 6783 6784 0
4548 -6782 0
4548 -6783 0
4548 -6784 0
-4688 7202 7203 7204 0
4688 -7202 0
4688 -7203 0
4688 -7204 0
-4828 7622 7623 7624 0
4828 -7622 0
4828 -7623 0
4828 -7624 0
5522 -622 -203 0
-5522 203 0
-5522 622 0
5523 -623 -204 0
-5523 204 0
-5523 623 0
5524 -624 -202 0
-5524 202 0
-5524 624 0
5942 -1042 -623 0
-5942 623 0
-5942 1042 0
5943 -1043 -624 0
-5943 624 0
-5943 1043 0
5944 -1044 -622 0
-5944 622 0
-5944 1044 0
6362 -1462 -1043 0
-6362 1043 0
-6362 1462 0
6363 -1463 -1044 0
-6363 1044 0
-6363 1463 0
6364 -1464 -1042 0
-6364 1042 0
-6364 1464 0
6782 -1882 -1463 0
-6782 1463 0
-6782 1882 0
6783 -1883 -1464 0
-6783 1464 0
-6783 1883 0
6784 -1884 -1462 0
-6784 1462 0
-6784 1884 0
7202 -2302 -1883 0
-7202 1883 0
-7202 2302 0
7203 -2303 -1884 0
-7203 1884 0
-7203 2303 0
7204 -2304 -1882 0
-7204 1882 0
-7204 2304 0
-7622 202 0
-7622 2302 0
-7622 -2723 0
7622 -202 -2302 2723 0
-7623 203 0
-7623 2303 0
-7623 -2724 0
7623 -203 -2303 2724 0
-7624 204 0
-7624 2304 0
-7624 -2722 0
7624 -204 -2304 2722 0
-3009 8045 8046 8047 0
3009 -8045 0
8045 -205 -626 0
-8045 626 0
-8045 205 0
3009 -8046 0
8046 -206 -627 0
-8046 627 0
-8046 206 0
3009 -8047 0
8047 -207 -625 0
-8047 625 0
-8047 207 0
-3149 8465 8466 8467 0
3149 -8465 0
8465 -625 -1046 0
-8465 1046 0
-8465 625 0
3149 -8466 0
8466 -626 -1047 0
-8466 1047 0
-8466 626 0
3149 -8467 0
8467 -627 -1045 0
-8467 1045 0
-8467 627 0
-3289 8885 8886 8887 0
3289 -8885 0
8885 -1045 -1466 0
-8885 1466 0
-8885 1045 0
3289 -8886 0
8886 -1046 -1467 0
-8886 1467 0
-8886 1046 0
3289 -8887 0
8887 -1047 -1465 0
-8887 1465 0
-8887 1047 0
-3429 9305 9306 9307 0
3429 -9305 0
9305 -1465 -1886 0
-9305 1886 0
-9305 1465 0
3429 -9306 0
9306 -1466 -1887 0
-9306 1887 0
-9306 1466 0
3429 -9307 0
9307 -1467 -1885 0
-9307 1885 0
-9307 1467 0
-3569 9725 9726 9727 0
3569 -9725 0
9725 -1885 -2306 0
-9725 2306 0
-9725 1885 0
3569 -9726 0
9726 -1886 -2307 0
-9726 2307 0
-9726 1886 0
3569 -9727 0
9727 -1887 -2305 0
-9727 2305 0
-9727 1887 0
-3709 10145 10146 10147 0
3709 -10145 0
10145 -2305 -2726 0
-10145 2726 0
-10145 2305 0
3709 -10146 0
10146 -2306 -2727 0
-10146 2727 0
-10146 2306 0
3709 -10147 0
10147 -2307 -2725 0
-10147 2725 0
-10147 2307 0
-4129 5525 5526 5527 0
4129 -5525 0
4129 -5526 0
4129 -5527 0
-4269 5945 5946 5947 0
4269 -5945 0
4269 -5946 0
4269 -5947 0
-4409 6365 6366 6367 0
4409 -6365 0
4409 -6366 0
4409 -6367 0
-4549 6785 6786 6787 0
4549 -6785 0
4549 -6786 0
4549 -6787 0
-4689 7205 7206 7207 0
4689 -7205 0
4689 -7206 0
4689 -7207 0
-4829 7625 7626 7627 0
4829 -7625 0
4829 -7626 0
4829 -7627 0
5525 -625 -206 0
-5525 206 0
-5525 625 0
5526 -626 -207 0
-5526 207 0
-5526 626 0
5527 -627 -205 0
-5527 205 0
-5527 627 0
5945 -1045 -626 0
-5945 626 0
-5945 1045 0
5946 -1046 -627 0
-5946 627 0
-5946 1046 0
5947 -1047 -625 0
-5947 625 0
-5947 1047 0
6365 -1465 -1046 0
-6365 1046 0
-6365 1465 0
6366 -1466 -1047 0
-6366 1047 0
-6366 1466 0
6367 -1467 -1045 0
-6367 1045 0
-6367 1467 0
6785 -1885 -1466 0
-6785 1466 0
-6785 1885 0
6786 -1886 -1467 0
-6786 1467 0
-6786 1886 0
6787 -1887 -1465 0
-6787 1465 0
-6787 1887 0
7205 -2305 -1886 0
-7205 1886 0
-7205 2305 0
7206 -2306 -1887 0
-7206 1887 0
-7206 2306 0
7207 -2307 -1885 0
-7207 1885 0
-7207 2307 0
-7625 205 0
-7625 2305 0
-7625 -2726 0
7625 -205 -2305 2726 0
-7626 206 0
-7626 2306 0
-7626 -2727 0
7626 -206 -2306 2727 0
-7627 207 0
-7627 2307 0
-7627 -2725 0
7627 -207 -2307 2725 0
-3010 8048 8049 8050 0
3010 -8048 0
8048 -208 -629 0
-8048 629 0
-8048 208 0
3010 -8049 0
8049 -209 -630 0
-8049 630 0
-8049 209 0
3010 -8050 0
8050 -210 -628 0
-8050 628 0
-8050 210 0
-3150 8468 8469 8470 0
3150 -8468 0
8468 -628 -1049 0
-8468 1049 0
-8468 628 0
3150 -8469 0
8469 -629 -1050 0
-8469 1050 0
-8469 629 0
3150 -8470 0
8470 -630 -1048 0
-8470 1048 0
-8470 630 0
-3290 8888 8889 8890 0
3290 -8888 0
8888 -1048 -1469 0
-8888 1469 0
-8888 1048 0
3290 -8889 0
8889 -1049 -1470 0
-8889 1470 0
-8889 1049 0
3290 -8890 0
8890 -1050 -1468 0
-8890 1468 0
-8890 1050 0
-3430 9308 9309 9310 0
3430 -9308 0
9308 -1468 -1889 0
-9308 1889 0
-9308 1468 0
3430 -9309 0
9309 -1469 -1890 0
-9309 1890 0
-9309 1469 0
3430 -9310 0
9310 -1470 -1888 0
-9310 1888 0
-9310 1470 0
-3570 9728 9729 9730 0
3570 -9728 0
9728 -1888 -2309 0
-9728 2309 0
-9728 1888 0
3570 -9729 0
9729 -1889 -2310 0
-9729 2310 0
-9729 1889 0
3570 -9730 0
9730 -1890 -2308 0
-9730 2308 0
-9730 1890 0
-3710 10148 10149 10150 0
3710 -10148 0
10148 -2308 -2729 0
-10148 2729 0
-10148 2308 0
3710 -10149 0
10149 -2309 -2730 0
-10149 2730 0
-10149 2309 0
3710 -10150 0
10150 -2310 -2728 0
-10150 2728 0
-10150 2310 0
-4130 5528 5529 5530 0
4130 -5528 0
4130 -5529 0
4130 -5530 0
-4270 5948 5949 5950 0
4270 -5948 0
4270 -5949 0
4270 -5950 0
-4410 6368 6369 6370 0
4410 -6368 0
4410 -6369 0
4410 -6370 0
-4550 6788 6789 6790 0
4550 -6788 0
4550 -6789 0
4550 -6790 0
-4690 7208 7209 7210 0
4690 -7208 0
4690 -7209 0
4690 -7210 0
-4830 7628 7629 7630 0
4830 -7628 0
4830 -7629 0
4830 -7630 0
5528 -628 -209 0
-5528 209 0
-5528 628 0
5529 -629 -210 0
-5529 210 0
-5529 629 0
5530 -630 -208 0
-5530 208 0
-5530 630 0
5948 -1048 -629 0
-5948 629 0
-5948 1048 0
5949 -1049 -630 0
-5949 630 0
-5949 1049 0
5950 -1050 -628 0
-5950 628 0
-5950 1050 0
6368 -1468 -1049 0
-6368 1049 0
-6368 1468 0
6369 -1469 -1050 0
-6369 1050 0
-6369 1469 0
6370 -1470 -1048 0
-6370 1048 0
-6370 1470 0
6788 -1888 -1469 0
-6788 1469 0
-6788 1888 0
6789 -1889 -1470 0
-6789 1470 0
-6789 1889 0
6790 -1890 -1468 0
-6790 1468 0
-6790 1890 0
7208 -2308 -1889 0
-7208 1889 0
-7208 2308 0
7209 -2309 -1890 0
-7209 1890 0
-7209 2309 0
7210 -2310 -1888 0
-7210 1888 0
-7210 2310 0
-7628 208 0
-7628 2308 0
-7628 -2729 0
7628 -208 -2308 2729 0
-7629 209 0
-7629 2309 0
-7629 -2730 0
7629 -209 -2309 2730 0
-7630 210 0
-7630 2310 0
-7630 -2728 0
7630 -210 -2310 2728 0
-3011 8051 8052 8053 0
3011 -8051 0
8051 -211 -632 0
-8051 632 0
-8051 211 0
3011 -8052 0
8052 -212 -633 0
-8052 633 0
-8052 212 0
3011 -8053 0
8053 -213 -631 0
-8053 631 0
-8053 213 0
-3151 8471 8472 8473 0
3151 -8471 0
8471 -631 -1052 0
-8471 1052 0
-8471 631 0
3151 -8472 0
8472 -632 -1053 0
-8472 1053 0
-8472 632 0
3151 -8473 0
8473 -633 -1051 0
-8473 1051 0
-8473 633 0
-3291 8891 8892 8893 0
3291 -8891 0
8891 -1051 -1472 0
-8891 1472 0
-8891 1051 0
3291 -8892 0
8892 -1052 -1473 0
-8892 1473 0
-8892 1052 0
3291 -8893 0
8893 -1053 -1471 0
-8893 1471 0
-8893 1053 0
-3431 9311 9312 9313 0
3431 -9311 0
9311 -1471 -1892 0
-9311 1892 0
-9311 1471 0
3431 -9312 0
9312 -1472 -1893 0
-9312 1893 0
-9312 1472 0
3431 -9313 0
9313 -1473 -1891 0
-9313 1891 0
-9313 1473 0
-3571 9731 9732 9733 0
3571 -9731 0
9731 -1891 -2312 0
-9731 2312 0
-9731 1891 0
3571 -9732 0
9732 -1892 -2313 0
-9732 2313 0
-9732 1892 0
3571 -9733 0
9733 -1893 -2311 0
-9733 2311 0
-9733 1893 0
-3711 10151 10152 10153 0
3711 -10151 0
10151 -2311 -2732 0
-10151 2732 0
-10151 2311 0
3711 -10152 0
10152 -2312 -2733 0
-10152 2733 0
-10152 2312 0
3711 -10153 0
10153 -2313 -2731 0
-10153 2731 0
-10153 2313 0
-4131 5531 5532 5533 0
4131 -5531 0
4131 -5532 0
4131 -5533 0
-4271 5951 5952 5953 0
4271 -5951 0
4271 -5952 0
4271 -5953 0
-4411 6371 6372 6373 0
4411 -6371 0
4411 -6372 0
4411 -6373 0
-4551 6791 6792 6793 0
4551 -6791 0
4551 -6792 0
4551 -6793 0
-4691 7211 7212 7213 0
4691 -7211 0
4691 -7212 0
4691 -7213 0
-4831 7631 7632 7633 0
4831 -7631 0
4831 -7632 0
4831 -7633 0
5531 -631 -212 0
-5531 212 0
-5531 631 0
5532 -632 -213 0
-5532 213 0
-5532 632 0
5533 -633 -211 0
-5533 211 0
-5533 633 0
5951 -1051 -632 0
-5951 632 0
-5951 1051 0
5952 -1052 -633 0
-5952 633 0
-5952 1052 0
5953 -1053 -631 0
-5953 631 0
-5953 1053 0
6371 -1471 -1052 0
-6371 1052 0
-6371 1471 0
6372 -1472 -1053 0
-6372 1053 0
-6372 1472 0
6373 -1473 -1051 0
-6373 1051 0
-6373 1473 0
6791 -1891 -1472 0
-6791 1472 0
-6791 1891 0
6792 -1892 -1473 0
-6792 1473 0
-6792 1892 0
6793 -1893 -1471 0
-6793 1471 0
-6793 1893 0
7211 -2311 -1892 0
-7211 1892 0
-7211 2311 0
7212 -2312 -1893 0
-7212 1893 0
-7212 2312 0
7213 -2313 -1891 0
-7213 1891 0
-7213 2313 0
-7631 211 0
-7631 2311 0
-7631 -2732 0
7631 -211 -2311 2732 0
-7632 212 0
-7632 2312 0
-7632 -2733 0
7632 -212 -2312 2733 0
-7633 213 0
-7633 2313 0
-7633 -2731 0
7633 -213 -2313 2731 0
-3012 8054 8055 8056 0
3012 -8054 0
8054 -214 -635 0
-8054 635 0
-8054 214 0
3012 -8055 0
8055 -215 -636 0
-8055 636 0
-8055 215 0
3012 -8056 0
8056 -216 -634 0
-8056 634 0
-8056 216 0
-3152 8474 8475 8476 0
3152 -8474 0
8474 -634 -1055 0
-8474 1055 0
-8474 634 0
3152 -8475 0
8475 -635 -1056 0
-8475 1056 0
-8475 635 0
3152 -8476 0
8476 -636 -1054 0
-8476 1054 0
-8476 636 0
-3292 8894 8895 8896 0
3292 -8894 0
8894 -1054 -1475 0
-8894 1475 0
-8894 1054 0
3292 -8895 0
8895 -1055 -1476 0
-8895 1476 0
-8895 1055 0
3292 -8896 0
8896 -1056 -1474 0
-8896 1474 0
-8896 1056 0
-3432 9314 9315 9316 0
3432 -9314 0
9314 -1474 -1895 0
-9314 1895 0
-9314 1474 0
3432 -9315 0
9315 -1475 -1896 0
-9315 1896 0
-9315 1475 0
3432 -9316 0
9316 -1476 -1894 0
-9316 1894 0
-9316 1476 0
-3572 9734 9735 9736 0
3572 -9734 0
9734 -1894 -2315 0
-9734 2315 0
-9734 1894 0
3572 -9735 0
9735 -1895 -2316 0
-9735 2316 0
-9735 1895 0
3572 -9736 0
9736 -1896 -2314 0
-9736 2314 0
-9736 1896 0
-3712 10154 10155 10156 0
3712 -10154 0
10154 -2314 -2735 0
-10154 2735 0
-10154 2314 0
3712 -10155 0
10155 -2315 -2736 0
-10155 2736 0
-10155 2315 0
3712 -10156 0
10156 -2316 -2734 0
-10156 2734 0
-10156 2316 0
-4132 5534 5535 5536 0
4132 -5534 0
4132 -5535 0
4132 -5536 0
-4272 5954 5955 5956 0
4272 -5954 0
4272 -5955 0
4272 -5956 0
-4412 6374 6375 6376 0
4412 -6374 0
4412 -6375 0
4412 -6376 0
-4552 6794 6795 6796 0
4552 -6794 0
4552 -6795 0
4552 -6796 0
-4692 7214 7215 7216 0
4692 -7214 0
4692 -7215 0
4692 -7216 0
-4832 7634 7635 7636 0
4832 -7634 0
4832 -7635 0
4832 -7636 0
5534 -634 -215 0
-5534 215 0
-5534 634 0
5535 -635 -216 0
-5535 216 0
-5535 635 0
5536 -636 -214 0
-5536 214 0
-5536 636 0
5954 -1054 -635 0
-5954 635 0
-5954 1054 0
5955 -1055 -636 0
-5955 636 0
-5955 1055 0
5956 -1056 -634 0
-5956 634 0
-5956 1056 0
6374 -1474 -1055 0
-6374 1055 0
-6374 1474 0
6375 -1475 -1056 0
-6375 1056 0
-6375 1475 0
6376 -1476 -1054 0
-6376 1054 0
-6376 1476 0
6794 -1894 -1475 0
-6794 1475 0
-6794 1894 0
6795 -1895 -1476 0
-6795 1476 0
-6795 1895 0
6796 -1896 -1474 0
-6796 1474 0
-6796 1896 0
7214 -2314 -1895 0
-7214 1895 0
-7214 2314 0
7215 -2315 -1896 0
-7215 1896 0
-7215 2315 0
7216 -2316 -1894 0
-7216 1894 0
-7216 2316 0
-7634 214 0
-7634 2314 0
-7634 -2735 0
7634 -214 -2314 2735 0
-7635 215 0
-7635 2315 0
-7635 -2736 0
7635 -215 -2315 2736 0
-7636 216 0
-7636 2316 0
-7636 -2734 0
7636 -216 -2316 2734 0
-3013 8057 8058 8059 0
3013 -8057 0
8057 -217 -638 0
-8057 638 0
-8057 217 0
3013 -8058 0
8058 -218 -639 0
-8058 639 0
-8058 218 0
3013 -8059 0
8059 -219 -637 0
-8059 637 0
-8059 219 0
-3153 8477 8478 8479 0
3153 -8477 0
8477 -637 -1058 0
-8477 1058 0
-8477 637 0
3153 -8478 0
8478 -638 -1059 0
-8478 1059 0
-8478 638 0
3153 -8479 0
8479 -639 -1057 0
-8479 1057 0
-8479 639 0
-3293 8897 8898 8899 0
3293 -8897 0
8897 -1057 -1478 0
-8897 1478 0
-8897 1057 0
3293 -8898 0
8898 -1058 -1479 0
-8898 1479 0
-8898 1058 0
3293 -8899 0
8899 -1059 -1477 0
-8899 1477 0
-8899 1059 0
-3433 9317 9318 9319 0
3433 -9317 0
9317 -1477 -1898 0
-9317 1898 0
-9317 1477 0
3433 -9318 0
9318 -1478 -1899 0
-9318 1899 0
-9318 1478 0
3433 -9319 0
9319 -1479 -1897 0
-9319 1897 0
-9319 1479 0
-3573 9737 9738 9739 0
3573 -9737 0
9737 -1897 -2318 0
-9737 2318 0
-9737 1897 0
3573 -9738 0
9738 -1898 -2319 0
-9738 2319 0
-9738 1898 0
3573 -9739 0
9739 -1899 -2317 0
-9739 2317 0
-9739 1899 0
-3713 10157 10158 10159 0
3713 -10157 0
10157 -2317 -2738 0
-10157 2738 0
-10157 2317 0
3713 -10158 0
10158 -2318 -2739 0
-10158 2739 0
-10158 2318 0
3713 -10159 0
10159 -2319 -2737 0
-10159 2737 0
-10159 2319 0
-4133 5537 5538 5539 0
4133 -5537 0
4133 -5538 0
4133 -5539 0
-4273 5957 5958 5959 0
4273 -5957 0
4273 -5958 0
4273 -5959 0
-4413 6377 6378 6379 0
4413 -6377 0
4413 -6378 0
4413 -6379 0
-4553 6797 6798 6799 0
4553 -6797 0
4553 -6798 0
4553 -6799 0
-4693 7217 7218 7219 0
4693 -7217 0
4693 -7218 0
4693 -7219 0
-4833 7637 7638 7639 0
4833 -7637 0
4833 -7638 0
4833 -7639 0
5537 -637 -218 0
-5537 218 0
-5537 637 0
5538 -638 -219 0
-5538 219 0
-5538 638 0
5539 -639 -217 0
-5539 217 0
-5539 639 0
5957 -1057 -638 0
-5957 638 0
-5957 1057 0
5958 -1058 -639 0
-5958 639 0
-5958 1058 0
5959 -1059 -637 0
-5959 637 0
-5959 1059 0
6377 -1477 -1058 0
-6377 1058 0
-6377 1477 0
6378 -1478 -1059 0
-6378 1059 0
-6378 1478 0
6379 -1479 -1057 0
-6379 1057 0
-6379 1479 0
6797 -1897 -1478 0
-6797 1478 0
-6797 1897 0
6798 -1898 -1479 0
-6798 1479 0
-6798 1898 0
6799 -1899 -1477 0
-6799 1477 0
-6799 1899 0
7217 -2317 -1898 0
-7217 1898 0
-7217 2317 0
7218 -2318 -1899 0
-7218 1899 0
-7218 2318 0
7219 -2319 -1897 0
-7219 1897 0
-7219 2319 0
-7637 217 0
-7637 2317 0
-7637 -2738 0
7637 -217 -2317 2738 0
-7638 218 0
-7638 2318 0
-7638 -2739 0
7638 -218 -2318 2739 0
-7639 219 0
-7639 2319 0
-7639 -2737 0
7639 -219 -2319 2737 0
-3014 8060 8061 8062 0
3014 -8060 0
8060 -220 -641 0
-8060 641 0
-8060 220 0
3014 -8061 0
8061 -221 -642 0
-8061 642 0
-8061 221 0
3014 -8062 0
8062 -222 -640 0
-8062 640 0
-8062 222 0
-3154 8480 8481 8482 0
3154 -8480 0
8480 -640 -1061 0
-8480 1061 0
-8480 640 0
3154 -8481 0
8481 -641 -1062 0
-8481 1062 0
-8481 641 0
3154 -8482 0
8482 -642 -1060 0
-8482 1060 0
-8482 642 0
-3294 8900 8901 8902 0
3294 -8900 0
8900 -1060 -1481 0
-8900 1481 0
-8900 1060 0
3294 -8901 0
8901 -1061 -1482 0
-8901 1482 0
-8901 1061 0
3294 -8902 0
8902 -1062 -1480 0
-8902 1480 0
-8902 1062 0
-3434 9320 9321 9322 0
3434 -9320 0
9320 -1480 -1901 0
-9320 1901 0
-9320 1480 0
3434 -9321 0
9321 -1481 -1902 0
-9321 1902 0
-9321 1481 0
3434 -9322 0
9322 -1482 -1900 0
-9322 1900 0
-9322 1482 0
-3574 9740 9741 9742 0
3574 -9740 0
9740 -1900 -2321 0
-9740 2321 0
-9740 1900 0
3574 -9741 0
9741 -1901 -2322 0
-9741 2322 0
-9741 1901 0
3574 -9742 0
9742 -1902 -2320 0
-9742 2320 0
-9742 1902 0
-3714 10160 10161 10162 0
3714 -10160 0
10160 -2320 -2741 0
-10160 2741 0
-10160 2320 0
3714 -10161 0
10161 -2321 -2742 0
-10161 2742 0
-10161 2321 0
3714 -10162 0
10162 -2322 -2740 0
-10162 2740 0
-10162 2322 0
-4134 5540 5541 5542 0
4134 -5540 0
4134 -5541 0
4134 -5542 0
-4274 5960 5961 5962 0
4274 -5960 0
4274 -5961 0
4274 -5962 0
-4414 6380 6381 6382 0
4414 -6380 0
4414 -6381 0
4414 -6382 0
-4554 6800 6801 6802 0
4554 -6800 0
4554 -6801 0
4554 -6802 0
-4694 7220 7221 7222 0
4694 -7220 0
4694 -7221 0
4694 -7222 0
-4834 7640 7641 7642 0
4834 -7640 0
4834 -7641 0
4834 -7642 0
5540 -640 -221 0
-5540 221 0
-5540 640 0
5541 -641 -222 0
-5541 222 0
-5541 641 0
5542 -642 -220 0
-5542 220 0
-5542 642 0
5960 -1060 -641 0
-5960 641 0
-5960 1060 0
5961 -1061 -642 0
-5961 642 0
-5961 1061 0
5962 -1062 -640 0
-5962 640 0
-5962 1062 0
6380 -1480 -1061 0
-6380 1061 0
-6380 1480 0
6381 -1481 -1062 0
-6381 1062 0
-6381 1481 0
6382 -1482 -1060 0
-6382 1060 0
-6382 1482 0
6800 -1900 -1481 0
-6800 1481 0
-6800 1900 0
6801 -1901 -1482 0
-6801 1482 0
-6801 1901 0
6802 -1902 -1480 0
-6802 1480 0
-6802 1902 0
7220 -2320 -1901 0
-7220 1901 0
-7220 2320 0
7221 -2321 -1902 0
-7221 1902 0
-7221 2321 0
7222 -2322 -1900 0
-7222 1900 0
-7222 2322 0
-7640 220 0
-7640 2320 0
-7640 -2741 0
7640 -220 -2320 2741 0
-7641 221 0
-7641 2321 0
-7641 -2742 0
7641 -221 -2321 2742 0
-7642 222 0
-7642 2322 0
-7642 -2740 0
7642 -222 -2322 2740 0
-3015 8063 8064 8065 0
3015 -8063 0
8063 -223 -644 0
-8063 644 0
-8063 223 0
3015 -8064 0
8064 -224 -645 0
-8064 645 0
-8064 224 0
3015 -8065 0
8065 -225 -643 0
-8065 643 0
-8065 225 0
-3155 8483 8484 8485 0
3155 -8483 0
8483 -643 -1064 0
-8483 1064 0
-8483 643 0
3155 -8484 0
8484 -644 -1065 0
-8484 1065 0
-8484 644 0
3155 -8485 0
8485 -645 -1063 0
-8485 1063 0
-8485 645 0
-3295 8903 8904 8905 0
3295 -8903 0
8903 -1063 -1484 0
-8903 1484 0
-8903 1063 0
3295 -8904 0
8904 -1064 -1485 0
-8904 1485 0
-8904 1064 0
3295 -8905 0
8905 -1065 -1483 0
-8905 1483 0
-8905 1065 0
-3435 9323 9324 9325 0
3435 -9323 0
9323 -1483 -1904 0
-9323 1904 0
-9323 1483 0
3435 -9324 0
9324 -1484 -1905 0
-9324 1905 0
-9324 1484 0
3435 -9325 0
9325 -1485 -1903 0
-9325 1903 0
-9325 1485 0
-3575 9743 9744 9745 0
3575 -9743 0
9743 -1903 -2324 0
-9743 2324 0
-9743 1903 0
3575 -9744 0
9744 -1904 -2325 0
-9744 2325 0
-9744 1904 0
3575 -9745 0
9745 -1905 -2323 0
-9745 2323 0
-9745 1905 0
-3715 10163 10164 10165 0
3715 -10163 0
10163 -2323 -2744 0
-10163 2744 0
-10163 2323 0
3715 -10164 0
10164 -2324 -2745 0
-10164 2745 0
-10164 2324 0
3715 -10165 0
10165 -2325 -2743 0
-10165 2743 0
-10165 2325 0
-4135 5543 5544 5545 0
4135 -5543 0
4135 -5544 0
4135 -5545 0
-4275 5963 5964 5965 0
4275 -5963 0
4275 -5964 0
4275 -5965 0
-4415 6383 6384 6385 0
4415 -6383 0
4415 -6384 0
4415 -6385 0
-4555 6803 6804 6805 0
4555 -6803 0
4555 -6804 0
4555 -6805 0
-4695 7223 7224 7225 0
4695 -7223 0
4695 -7224 0
4695 -7225 0
-4835 7643 7644 7645 0
4835 -7643 0
4835 -7644 0
4835 -7645 0
5543 -643 -224 0
-5543 224 0
-5543 643 0
5544 -644 -225 0
-5544 225 0
-5544 644 0
5545 -645 -223 0
-5545 223 0
-5545 645 0
5963 -1063 -644 0
-5963 644 0
-5963 1063 0
5964 -1064 -645 0
-5964 645 0
-5964 1064 0
5965 -1065 -643 0
-5965 643 0
-5965 1065 0
6383 -1483 -1064 0
-6383 1064 0
-6383 1483 0
6384 -1484 -1065 0
-6384 1065 0
-6384 1484 0
6385 -1485 -1063 0
-6385 1063 0
-6385 1485 0
6803 -1903 -1484 0
-6803 1484 0
-6803 1903 0
6804 -1904 -1485 0
-6804 1485 0
-6804 1904 0
6805 -1905 -1483 0
-6805 1483 0
-6805 1905 0
7223 -2323 -1904 0
-7223 1904 0
-7223 2323 0
7224 -2324 -1905 0
-7224 1905 0
-7224 2324 0
7225 -2325 -1903 0
-7225 1903 0
-7225 2325 0
-7643 223 0
-7643 2323 0
-7643 -2744 0
7643 -223 -2323 2744 0
-7644 224 0
-7644 2324 0
-7644 -2745 0
7644 -224 -2324 2745 0
-7645 225 0
-7645 2325 0
-7645 -2743 0
7645 -225 -2325 2743 0
-3016 8066 8067 8068 0
3016 -8066 0
8066 -226 -647 0
-8066 647 0
-8066 226 0
3016 -8067 0
8067 -227 -648 0
-8067 648 0
-8067 227 0
3016 -8068 0
8068 -228 -646 0
-8068 646 0
-8068 228 0
-3156 8486 8487 8488 0
3156 -8486 0
8486 -646 -1067 0
-8486 1067 0
-8486 646 0
3156 -8487 0
8487 -647 -1068 0
-8487 1068 0
-8487 647 0
3156 -8488 0
8488 -648 -1066 0
-8488 1066 0
-8488 648 0
-3296 8906 8907 8908 0
3296 -8906 0
8906 -1066 -1487 0
-8906 1487 0
-8906 1066 0
3296 -8907 0
8907 -1067 -1488 0
-8907 1488 0
-8907 1067 0
3296 -8908 0
8908 -1068 -1486 0
-8908 1486 0
-8908 1068 0
-3436 9326 9327 9328 0
3436 -9326 0
9326 -1486 -1907 0
-9326 1907 0
-9326 1486 0
3436 -9327 0
9327 -1487 -1908 0
-9327 1908 0
-9327 1487 0
3436 -9328 0
9328 -1488 -1906 0
-9328 1906 0
-9328 1488 0
-3576 9746 9747 9748 0
3576 -9746 0
9746 -1906 -2327 0
-9746 2327 0
-9746 1906 0
3576 -9747 0
9747 -1907 -2328 0
-9747 2328 0
-9747 1907 0
3576 -9748 0
9748 -1908 -2326 0
-9748 2326 0
-9748 1908 0
-3716 10166 10167 10168 0
3716 -10166 0
10166 -2326 -2747 0
-10166 2747 0
-10166 2326 0
3716 -10167 0
10167 -2327 -2748 0
-10167 2748 0
-10167 2327 0
3716 -10168 0
10168 -2328 -2746 0
-10168 2746 0
-10168 2328 0
-4136 5546 5547 5548 0
4136 -5546 0
4136 -5547 0
4136 -5548 0
-4276 5966 5967 5968 0
4276 -5966 0
4276 -5967 0
4276 -5968 0
-4416 6386 6387 6388 0
4416 -6386 0
4416 -6387 0
4416 -6388 0
-4556 6806 6807 6808 0
4556 -6806 0
4556 -6807 0
4556 -6808 0
-4696 7226 7227 7228 0
4696 -7226 0
4696 -7227 0
4696 -7228 0
-4836 7646 7647 7648 0
4836 -7646 0
4836 -7647 0
4836 -7648 0
5546 -646 -227 0
-5546 227 0
-5546 646 0
5547 -647 -228 0
-5547 228 0
-5547 647 0
5548 -648 -226 0
-5548 226 0
-5548 648 0
5966 -1066 -647 0
-5966 647 0
-5966 1066 0
5967 -1067 -648 0
-5967 648 0
-5967 1067 0
5968 -1068 -646 0
-5968 646 0
-5968 1068 0
6386 -1486 -1067 0
-6386 1067 0
-6386 1486 0
6387 -1487 -1068 0
-6387 1068 0
-6387 1487 0
6388 -1488 -1066 0
-6388 1066 0
-6388 1488 0
6806 -1906 -1487 0
-6806 1487 0
-6806 1906 0
6807 -1907 -1488 0
-6807 1488 0
-6807 1907 0
6808 -1908 -1486 0
-6808 1486 0
-6808 1908 0
7226 -2326 -1907 0
-7226 1907 0
-7226 2326 0
7227 -2327 -1908 0
-7227 1908 0
-7227 2327 0
7228 -2328 -1906 0
-7228 1906 0
-7228 2328 0
-7646 226 0
-7646 2326 0
-7646 -2747 0
7646 -226 -2326 2747 0
-7647 227 0
-7647 2327 0
-7647 -2748 0
7647 -227 -2327 2748 0
-7648 228 0
-7648 2328 0
-7648 -2746 0
7648 -228 -2328 2746 0
-3017 8069 8070 8071 0
3017 -8069 0
8069 -229 -650 0
-8069 650 0
-8069 229 0
3017 -8070 0
8070 -230 -651 0
-8070 651 0
-8070 230 0
3017 -8071 0
8071 -231 -649 0
-8071 649 0
-8071 231 0
-3157 8489 8490 8491 0
3157 -8489 0
8489 -649 -1070 0
-8489 1070 0
-8489 649 0
3157 -8490 0
8490 -650 -1071 0
-8490 1071 0
-8490 650 0
3157 -8491 0
8491 -651 -1069 0
-8491 1069 0
-8491 651 0
-3297 8909 8910 8911 0
3297 -8909 0
8909 -1069 -1490 0
-8909 1490 0
-8909 1069 0
3297 -8910 0
8910 -1070 -1491 0
-8910 1491 0
-8910 1070 0
3297 -8911 0
8911 -1071 -1489 0
-8911 1489 0
-8911 1071 0
-3437 9329 9330 9331 0
3437 -9329 0
9329 -1489 -1910 0
-9329 1910 0
-9329 1489 0
3437 -9330 0
9330 -1490 -1911 0
-9330 1911 0
-9330 1490 0
3437 -9331 0
9331 -1491 -1909 0
-9331 1909 0
-9331 1491 0
-3577 9749 9750 9751 0
3577 -9749 0
9749 -1909 -2330 0
-9749 2330 0
-9749 1909 0
3577 -9750 0
9750 -1910 -2331 0
-9750 2331 0
-9750 1910 0
3577 -9751 0
9751 -1911 -2329 0
-9751 2329 0
-9751 1911 0
-3717 10169 10170 10171 0
3717 -10169 0
10169 -2329 -2750 0
-10169 2750 0
-10169 2329 0
3717 -10170 0
10170 -2330 -2751 0
-10170 2751 0
-10170 2330 0
3717 -10171 0
10171 -2331 -2749 0
-10171 2749 0
-10171 2331 0
-4137 5549 5550 5551 0
4137 -5549 0
4137 -5550 0
4137 -5551 0
-4277 5969 5970 5971 0
4277 -5969 0
4277 -5970 0
4277 -5971 0
-4417 6389 6390 6391 0
4417 -6389 0
4417 -6390 0
4417 -6391 0
-4557 6809 6810 6811 0
4557 -6809 0
4557 -6810 0
4557 -6811 0
-4697 7229 7230 7231 0
4697 -7229 0
4697 -7230 0
4697 -7231 0
-4837 7649 7650 7651 0
4837 -7649 0
4837 -7650 0
4837 -7651 0
5549 -649 -230 0
-5549 230 0
-5549 649 0
5550 -650 -231 0
-5550 231 0
-5550 650 0
5551 -651 -229 0
-5551 229 0
-5551 651 0
5969 -1069 -650 0
-5969 650 0
-5969 1069 0
5970 -1070 -651 0
-5970 651 0
-5970 1070 0
5971 -1071 -649 0
-5971 649 0
-5971 1071 0
6389 -1489 -1070 0
-6389 1070 0
-6389 1489 0
6390 -1490 -1071 0
-6390 1071 0
-6390 1490 0
6391 -1491 -1069 0
-6391 1069 0
-6391 1491 0
6809 -1909 -1490 0
-6809 1490 0
-6809 1909 0
6810 -1910 -1491 0
-6810 1491 0
-6810 1910 0
6811 -1911 -1489 0
-6811 1489 0
-6811 1911 0
7229 -2329 -1910 0
-7229 1910 0
-7229 2329 0
7230 -2330 -1911 0
-7230 1911 0
-7230 2330 0
7231 -2331 -1909 0
-7231 1909 0
-7231 2331 0
-7649 229 0
-7649 2329 0
-7649 -2750 0
7649 -229 -2329 2750 0
-7650 230 0
-7650 2330 0
-7650 -2751 0
7650 -230 -2330 2751 0
-7651 231 0
-7651 2331 0
-7651 -2749 0
7651 -231 -2331 2749 0
-3018 8072 8073 8074 0
3018 -8072 0
8072 -232 -653 0
-8072 653 0
-8072 232 0
3018 -8073 0
8073 -233 -654 0
-8073 654 0
-8073 233 0
3018 -8074 0
8074 -234 -652 0
-8074 652 0
-8074 234 0
-3158 8492 8493 8494 0
3158 -8492 0
8492 -652 -1073 0
-8492 1073 0
-8492 652 0
3158 -8493 0
8493 -653 -1074 0
-8493 1074 0
-8493 653 0
3158 -8494 0
8494 -654 -1072 0
-8494 1072 0
-8494 654 0
-3298 8912 8913 8914 0
3298 -8912 0
8912 -1072 -1493 0
-8912 1493 0
-8912 1072 0
3298 -8913 0
8913 -1073 -1494 0
-8913 1494 0
-8913 1073 0
3298 -8914 0
8914 -1074 -1492 0
-8914 1492 0
-8914 1074 0
-3438 9332 9333 9334 0
3438 -9332 0
9332 -1492 -1913 0
-9332 1913 0
-9332 1492 0
3438 -9333 0
9333 -1493 -1914 0
-9333 1914 0
-9333 1493 0
3438 -9334 0
9334 -1494 -1912 0
-9334 1912 0
-9334 1494 0
-3578 9752 9753 9754 0
3578 -9752 0
9752 -1912 -2333 0
-9752 2333 0
-9752 1912 0
3578 -9753 0
9753 -1913 -2334 0
-9753 2334 0
-9753 1913 0
3578 -9754 0
9754 -1914 -2332 0
-9754 2332 0
-9754 1914 0
-3718 10172 10173 10174 0
3718 -10172 0
10172 -2332 -2753 0
-10172 2753 0
-10172 2332 0
3718 -10173 0
10173 -2333 -2754 0
-10173 2754 0
-10173 2333 0
3718 -10174 0
10174 -2334 -2752 0
-10174 2752 0
-10174 2334 0
-4138 5552 5553 5554 0
4138 -5552 0
4138 -5553 0
4138 -5554 0
-4278 5972 5973 5974 0
4278 -5972 0
4278 -5973 0
4278 -5974 0
-4418 6392 6393 6394 0
4418 -6392 0
4418 -6393 0
4418 -6394 0
-4558 6812 6813 6814 0
4558 -6812 0
4558 -6813 0
4558 -6814 0
-4698 7232 7233 7234 0
4698 -7232 0
4698 -7233 0
4698 -7234 0
-4838 7652 7653 7654 0
4838 -7652 0
4838 -7653 0
4838 -7654 0
5552 -652 -233 0
-5552 233 0
-5552 652 0
5553 -653 -234 0
-5553 234 0
-5553 653 0
5554 -654 -232 0
-5554 232 0
-5554 654 0
5972 -1072 -653 0
-5972 653 0
-5972 1072 0
5973 -1073 -654 0
-5973 654 0
-5973 1073 0
5974 -1074 -652 0
-5974 652 0
-5974 1074 0
6392 -1492 -1073 0
-6392 1073 0
-6392 1492 0
6393 -1493 -1074 0
-6393 1074 0
-6393 1493 0
6394 -1494 -1072 0
-6394 1072 0
-6394 1494 0
6812 -1912 -1493 0
-6812 1493 0
-6812 1912 0
6813 -1913 -1494 0
-6813 1494 0
-6813 1913 0
6814 -1914 -1492 0
-6814 1492 0
-6814 1914 0
7232 -2332 -1913 0
-7232 1913 0
-7232 2332 0
7233 -2333 -1914 0
-7233 1914 0
-7233 2333 0
7234 -2334 -1912 0
-7234 1912 0
-7234 2334 0
-7652 232 0
-7652 2332 0
-7652 -2753 0
7652 -232 -2332 2753 0
-7653 233 0
-7653 2333 0
-7653 -2754 0
7653 -233 -2333 2754 0
-7654 234 0
-7654 2334 0
-7654 -2752 0
7654 -234 -2334 2752 0
-3019 8075 8076 8077 0
3019 -8075 0
8075 -235 -656 0
-8075 656 0
-8075 235 0
3019 -8076 0
8076 -236 -657 0
-8076 657 0
-8076 236 0
3019 -8077 0
8077 -237 -655 0
-8077 655 0
-8077 237 0
-3159 8495 8496 8497 0
3159 -8495 0
8495 -655 -1076 0
-8495 1076 0
-8495 655 0
3159 -8496 0
8496 -656 -1077 0
-8496 1077 0
-8496 656 0
3159 -8497 0
8497 -657 -1075 0
-8497 1075 0
-8497 657 0
-3299 8915 8916 8917 0
3299 -8915 0
8915 -1075 -1496 0
-8915 1496 0
-8915 1075 0
3299 -8916 0
8916 -1076 -1497 0
-8916 1497 0
-8916 1076 0
3299 -8917 0
8917 -1077 -1495 0
-8917 1495 0
-8917 1077 0
-3439 9335 9336 9337 0
3439 -9335 0
9335 -1495 -1916 0
-9335 1916 0
-9335 1495 0
3439 -9336 0
9336 -1496 -1917 0
-9336 1917 0
-9336 1496 0
3439 -9337 0
9337 -1497 -1915 0
-9337 1915 0
-9337 1497 0
-3579 9755 9756 9757 0
3579 -9755 0
9755 -1915 -2336 0
-9755 2336 0
-9755 1915 0
3579 -9756 0
9756 -1916 -2337 0
-9756 2337 0
-9756 1916 0
3579 -9757 0
9757 -1917 -2335 0
-9757 2335 0
-9757 1917 0
-3719 10175 10176 10177 0
3719 -10175 0
10175 -2335 -2756 0
-10175 2756 0
-10175 2335 0
3719 -10176 0
10176 -2336 -2757 0
-10176 2757 0
-10176 2336 0
3719 -10177 0
10177 -2337 -2755 0
-10177 2755 0
-10177 2337 0
-4139 5555 5556 5557 0
4139 -5555 0
4139 -5556 0
4139 -5557 0
-4279 5975 5976 5977 0
4279 -5975 0
4279 -5976 0
4279 -5977 0
-4419 6395 6396 6397 0
4419 -6395 0
4419 -6396 0
4419 -6397 0
-4559 6815 6816 6817 0
4559 -6815 0
4559 -6816 0
4559 -6817 0
-4699 7235 7236 7237 0
4699 -7235 0
4699 -7236 0
4699 -7237 0
-4839 7655 7656 7657 0
4839 -7655 0
4839 -7656 0
4839 -7657 0
5555 -655 -236 0
-5555 236 0
-5555 655 0
5556 -656 -237 0
-5556 237 0
-5556 656 0
5557 -657 -235 0
-5557 235 0
-5557 657 0
5975 -1075 -656 0
-5975 656 0
-5975 1075 0
5976 -1076 -657 0
-5976 657 0
-5976 1076 0
5977 -1077 -655 0
-5977 655 0
-5977 1077 0
6395 -1495 -1076 0
-6395 1076 0
-6395 1495 0
6396 -1496 -1077 0
-6396 1077 0
-6396 1496 0
6397 -1497 -1075 0
-6397 1075 0
-6397 1497 0
6815 -1915 -1496 0
-6815 1496 0
-6815 1915 0
6816 -1916 -1497 0
-6816 1497 0
-6816 1916 0
6817 -1917 -1495 0
-6817 1495 0
-6817 1917 0
7235 -2335 -1916 0
-7235 1916 0
-7235 2335 0
7236 -2336 -1917 0
-7236 1917 0
-7236 2336 0
7237 -2337 -1915 0
-7237 1915 0
-7237 2337 0
-7655 235 0
-7655 2335 0
-7655 -2756 0
7655 -235 -2335 2756 0
-7656 236 0
-7656 2336 0
-7656 -2757 0
7656 -236 -2336 2757 0
-7657 237 0
-7657 2337 0
-7657 -2755 0
7657 -237 -2337 2755 0
-3020 8078 8079 8080 0
3020 -8078 0
8078 -238 -659 0
-8078 659 0
-8078 238 0
3020 -8079 0
8079 -239 -660 0
-8079 660 0
-8079 239 0
3020 -8080 0
8080 -240 -658 0
-8080 658 0
-8080 240 0
-3160 8498 8499 8500 0
3160 -8498 0
8498 -658 -1079 0
-8498 1079 0
-8498 658 0
3160 -8499 0
8499 -659 -1080 0
-8499 1080 0
-8499 659 0
3160 -8500 0
8500 -660 -1078 0
-8500 1078 0
-8500 660 0
-3300 8918 8919 8920 0
3300 -8918 0
8918 -1078 -1499 0
-8918 1499 0
-8918 1078 0
3300 -8919 0
8919 -1079 -1500 0
-8919 1500 0
-8919 1079 0
3300 -8920 0
8920 -1080 -1498 0
-8920 1498 0
-8920 1080 0
-3440 9338 9339 9340 0
3440 -9338 0
9338 -1498 -1919 0
-9338 1919 0
-9338 1498 0
3440 -9339 0
9339 -1499 -1920 0
-9339 1920 0
-9339 1499 0
3440 -9340 0
9340 -1500 -1918 0
-9340 1918 0
-9340 1500 0
-3580 9758 9759 9760 0
3580 -9758 0
9758 -1918 -2339 0
-9758 2339 0
-9758 1918 0
3580 -9759 0
9759 -1919 -2340 0
-9759 2340 0
-9759 1919 0
3580 -9760 0
9760 -1920 -2338 0
-9760 2338 0
-9760 1920 0
-3720 10178 10179 10180 0
3720 -10178 0
10178 -2338 -2759 0
-10178 2759 0
-10178 2338 0
3720 -10179 0
10179 -2339 -2760 0
-10179 2760 0
-10179 2339 0
3720 -10180 0
10180 -2340 -2758 0
-10180 2758 0
-10180 2340 0
-4140 5558 5559 5560 0
4140 -5558 0
4140 -5559 0
4140 -5560 0
-4280 5978 5979 5980 0
4280 -5978 0
4280 -5979 0
4280 -5980 0
-4420 6398 6399 6400 0
4420 -6398 0
4420 -6399 0
4420 -6400 0
-4560 6818 6819 6820 0
4560 -6818 0
4560 -6819 0
4560 -6820 0
-4700 7238 7239 7240 0
4700 -7238 0
4700 -7239 0
4700 -7240 0
-4840 7658 7659 7660 0
4840 -7658 0
4840 -7659 0
4840 -7660 0
5558 -658 -239 0
-5558 239 0
-5558 658 0
5559 -659 -240 0
-5559 240 0
-5559 659 0
5560 -660 -238 0
-5560 238 0
-5560 660 0
5978 -1078 -659 0
-5978 659 0
-5978 1078 0
5979 -1079 -660 0
-5979 660 0
-5979 1079 0
5980 -1080 -658 0
-5980 658 0
-5980 1080 0
6398 -1498 -1079 0
-6398 1079 0
-6398 1498 0
6399 -1499 -1080 0
-6399 1080 0
-6399 1499 0
6400 -1500 -1078 0
-6400 1078 0
-6400 1500 0
6818 -1918 -1499 0
-6818 1499 0
-6818 1918 0
6819 -1919 -1500 0
-6819 1500 0
-6819 1919 0
6820 -1920 -1498 0
-6820 1498 0
-6820 1920 0
7238 -2338 -1919 0
-7238 1919 0
-7238 2338 0
7239 -2339 -1920 0
-7239 1920 0
-7239 2339 0
7240 -2340 -1918 0
-7240 1918 0
-7240 2340 0
-7658 238 0
-7658 2338 0
-7658 -2759 0
7658 -238 -2338 2759 0
-7659 239 0
-7659 2339 0
-7659 -2760 0
7659 -239 -2339 2760 0
-7660 240 0
-7660 2340 0
-7660 -2758 0
7660 -240 -2340 2758 0
-3021 8081 8082 8083 0
3021 -8081 0
8081 -241 -662 0
-8081 662 0
-8081 241 0
3021 -8082 0
8082 -242 -663 0
-8082 663 0
-8082 242 0
3021 -8083 0
8083 -243 -661 0
-8083 661 0
-8083 243 0
-3161 8501 8502 8503 0
3161 -8501 0
8501 -661 -1082 0
-8501 1082 0
-8501 661 0
3161 -8502 0
8502 -662 -1083 0
-8502 1083 0
-8502 662 0
3161 -8503 0
8503 -663 -1081 0
-8503 1081 0
-8503 663 0
-3301 8921 8922 8923 0
3301 -8921 0
8921 -1081 -1502 0
-8921 1502 0
-8921 1081 0
3301 -8922 0
8922 -1082 -1503 0
-8922 1503 0
-8922 1082 0
3301 -8923 0
8923 -1083 -1501 0
-8923 1501 0
-8923 1083 0
-3441 9341 9342 9343 0
3441 -9341 0
9341 -1501 -1922 0
-9341 1922 0
-9341 1501 0
3441 -9342 0
9342 -1502 -1923 0
-9342 1923 0
-9342 1502 0
3441 -9343 0
9343 -1503 -1921 0
-9343 1921 0
-9343 1503 0
-3581 9761 9762 9763 0
3581 -9761 0
9761 -1921 -2342 0
-9761 2342 0
-9761 1921 0
3581 -9762 0
9762 -1922 -2343 0
-9762 2343 0
-9762 1922 0
3581 -9763 0
9763 -1923 -2341 0
-9763 2341 0
-9763 1923 0
-3721 10181 10182 10183 0
3721 -10181 0
10181 -2341 -2762 0
-10181 2762 0
-10181 2341 0
3721 -10182 0
10182 -2342 -2763 0
-10182 2763 0
-10182 2342 0
3721 -10183 0
10183 -2343 -2761 0
-10183 2761 0
-10183 2343 0
-4141 5561 5562 5563 0
4141 -5561 0
4141 -5562 0
4141 -5563 0
-4281 5981 5982 5983 0
4281 -5981 0
4281 -5982 0
4281 -5983 0
-4421 6401 6402 6403 0
4421 -6401 0
4421 -6402 0
4421 -6403 0
-4561 6821 6822 6823 0
4561 -6821 0
4561 -6822 0
4561 -6823 0
-4701 7241 7242 7243 0
4701 -7241 0
4701 -7242 0
4701 -7243 0
-4841 7661 7662 7663 0
4841 -7661 0
4841 -7662 0
4841 -7663 0
5561 -661 -242 0
-5561 242 0
-5561 661 0
5562 -662 -243 0
-5562 243 0
-5562 662 0
5563 -663 -241 0
-5563 241 0
-5563 663 0
5981 -1081 -662 0
-5981 662 0
-5981 1081 0
5982 -1082 -663 0
-5982 663 0
-5982 1082 0
5983 -1083 -661 0
-5983 661 0
-5983 1083 0
6401 -1501 -1082 0
-6401 1082 0
-6401 1501 0
6402 -1502 -1083 0
-6402 1083 0
-6402 1502 0
6403 -1503 -1081 0
-6403 1081 0
-6403 1503 0
6821 -1921 -1502 0
-6821 1502 0
-6821 1921 0
6822 -1922 -1503 0
-6822 1503 0
-6822 1922 0
6823 -1923 -1501 0
-6823 1501 0
-6823 1923 0
7241 -2341 -1922 0
-7241 1922 0
-7241 2341 0
7242 -2342 -1923 0
-7242 1923 0
-7242 2342 0
7243 -2343 -1921 0
-7243 1921 0
-7243 2343 0
-7661 241 0
-7661 2341 0
-7661 -2762 0
7661 -241 -2341 2762 0
-7662 242 0
-7662 2342 0
-7662 -2763 0
7662 -242 -2342 2763 0
-7663 243 0
-7663 2343 0
-7663 -2761 0
7663 -243 -2343 2761 0
-3022 8084 8085 8086 0
3022 -8084 0
8084 -244 -665 0
-8084 665 0
-8084 244 0
3022 -8085 0
8085 -245 -666 0
-8085 666 0
-8085 245 0
3022 -8086 0
8086 -246 -664 0
-8086 664 0
-8086 246 0
-3162 8504 8505 8506 0
3162 -8504 0
8504 -664 -1085 0
-8504 1085 0
-8504 664 0
3162 -8505 0
8505 -665 -1086 0
-8505 1086 0
-8505 665 0
3162 -8506 0
8506 -666 -1084 0
-8506 1084 0
-8506 666 0
-3302 8924 8925 8926 0
3302 -8924 0
8924 -1084 -1505 0
-8924 1505 0
-8924 1084 0
3302 -8925 0
8925 -1085 -1506 0
-8925 1506 0
-8925 1085 0
3302 -8926 0
8926 -1086 -1504 0
-8926 1504 0
-8926 1086 0
-3442 9344 9345 9346 0
3442 -9344 0
9344 -1504 -1925 0
-9344 1925 0
-9344 1504 0
3442 -9345 0
9345 -1505 -1926 0
-9345 1926 0
-9345 1505 0
3442 -9346 0
9346 -1506 -1924 0
-9346 1924 0
-9346 1506 0
-3582 9764 9765 9766 0
3582 -9764 0
9764 -1924 -2345 0
-9764 2345 0
-9764 1924 0
3582 -9765 0
9765 -1925 -2346 0
-9765 2346 0
-9765 1925 0
3582 -9766 0
9766 -1926 -2344 0
-9766 2344 0
-9766 1926 0
-3722 10184 10185 10186 0
3722 -10184 0
10184 -2344 -2765 0
-10184 2765 0
-10184 2344 0
3722 -10185 0
10185 -2345 -2766 0
-10185 2766 0
-10185 2345 0
3722 -10186 0
10186 -2346 -2764 0
-10186 2764 0
-10186 2346 0
-4142 5564 5565 5566 0
4142 -5564 0
4142 -5565 0
4142 -5566 0
-4282 5984 5985 5986 0
4282 -5984 0
4282 -5985 0
4282 -5986 0
-4422 6404 6405 6406 0
4422 -6404 0
4422 -6405 0
4422 -6406 0
-4562 6824 6825 6826 0
4562 -6824 0
4562 -6825 0
4562 -6826 0
-4702 7244 7245 7246 0
4702 -7244 0
4702 -7245 0
4702 -7246 0
-4842 7664 7665 7666 0
4842 -7664 0
4842 -7665 0
4842 -7666 0
5564 -664 -245 0
-5564 245 0
-5564 664 0
5565 -665 -246 0
-5565 246 0
-5565 665 0
5566 -666 -244 0
-5566 244 0
-5566 666 0
5984 -1084 -665 0
-5984 665 0
-5984 1084 0
5985 -1085 -666 0
-5985 666 0
-5985 1085 0
5986 -1086 -664 0
-5986 664 0
-5986 1086 0
6404 -1504 -1085 0
-6404 1085 0
-6404 1504 0
6405 -1505 -1086 0
-6405 1086 0
-6405 1505 0
6406 -1506 -1084 0
-6406 1084 0
-6406 1506 0
6824 -1924 -1505 0
-6824 1505 0
-6824 1924 0
6825 -1925 -1506 0
-6825 1506 0
-6825 1925 0
6826 -1926 -1504 0
-6826 1504 0
-6826 1926 0
7244 -2344 -1925 0
-7244 1925 0
-7244 2344 0
7245 -2345 -1926 0
-7245 1926 0
-7245 2345 0
7246 -2346 -1924 0
-7246 1924 0
-7246 2346 0
-7664 244 0
-7664 2344 0
-7664 -2765 0
7664 -244 -2344 2765 0
-7665 245 0
-7665 2345 0
-7665 -2766 0
7665 -245 -2345 2766 0
-7666 246 0
-7666 2346 0
-7666 -2764 0
7666 -246 -2346 2764 0
-3023 8087 8088 8089 0
3023 -8087 0
8087 -247 -668 0
-8087 668 0
-8087 247 0
3023 -8088 0
8088 -248 -669 0
-8088 669 0
-8088 248 0
3023 -8089 0
8089 -249 -667 0
-8089 667 0
-8089 249 0
-3163 8507 8508 8509 0
3163 -8507 0
8507 -667 -1088 0
-8507 1088 0
-8507 667 0
3163 -8508 0
8508 -668 -1089 0
-8508 1089 0
-8508 668 0
3163 -8509 0
8509 -669 -1087 0
-8509 1087 0
-8509 669 0
-3303 8927 8928 8929 0
3303 -8927 0
8927 -1087 -1508 0
-8927 1508 0
-8927 1087 0
3303 -8928 0
8928 -1088 -1509 0
-8928 1509 0
-8928 1088 0
3303 -8929 0
8929 -1089 -1507 0
-8929 1507 0
-8929 1089 0
-3443 9347 9348 9349 0
3443 -9347 0
9347 -1507 -1928 0
-9347 1928 0
-9347 1507 0
3443 -9348 0
9348 -1508 -1929 0
-9348 1929 0
-9348 1508 0
3443 -9349 0
9349 -1509 -1927 0
-9349 1927 0
-9349 1509 0
-3583 9767 9768 9769 0
3583 -9767 0
9767 -1927 -2348 0
-9767 2348 0
-9767 1927 0
3583 -9768 0
9768 -1928 -2349 0
-9768 2349 0
-9768 1928 0
3583 -9769 0
9769 -1929 -2347 0
-9769 2347 0
-9769 1929 0
-3723 10187 10188 10189 0
3723 -10187 0
10187 -2347 -2768 0
-10187 2768 0
-10187 2347 0
3723 -10188 0
10188 -2348 -2769 0
-10188 2769 0
-10188 2348 0
3723 -10189 0
10189 -2349 -2767 0
-10189 2767 0
-10189 2349 0
-4143 5567 5568 5569 0
4143 -5567 0
4143 -5568 0
4143 -5569 0
-4283 5987 5988 5989 0
4283 -5987 0
4283 -5988 0
4283 -5989 0
-4423 6407 6408 6409 0
4423 -6407 0
4423 -6408 0
4423 -6409 0
-4563 6827 6828 6829 0
4563 -6827 0
4563 -6828 0
4563 -6829 0
-4703 7247 7248 7249 0
4703 -7247 0
4703 -7248 0
4703 -7249 0
-4843 7667 7668 7669 0
4843 -7667 0
4843 -7668 0
4843 -7669 0
5567 -667 -248 0
-5567 248 0
-5567 667 0
5568 -668 -249 0
-5568 249 0
-5568 668 0
5569 -669 -247 0
-5569 247 0
-5569 669 0
5987 -1087 -668 0
-5987 668 0
-5987 1087 0
5988 -1088 -669 0
-5988 669 0
-5988 1088 0
5989 -1089 -667 0
-5989 667 0
-5989 1089 0
6407 -1507 -1088 0
-6407 1088 0
-6407 1507 0
6408 -1508 -1089 0
-6408 1089 0
-6408 1508 0
6409 -1509 -1087 0
-6409 1087 0
-6409 1509 0
6827 -1927 -1508 0
-6827 1508 0
-6827 1927 0
6828 -1928 -1509 0
-6828 1509 0
-6828 1928 0
6829 -1929 -1507 0
-6829 1507 0
-6829 1929 0
7247 -2347 -1928 0
-7247 1928 0
-7247 2347 0
7248 -2348 -1929 0
-7248 1929 0
-7248 2348 0
7249 -2349 -1927 0
-7249 1927 0
-7249 2349 0
-7667 247 0
-7667 2347 0
-7667 -2768 0
7667 -247 -2347 2768 0
-7668 248 0
-7668 2348 0
-7668 -2769 0
7668 -248 -2348 2769 0
-7669 249 0
-7669 2349 0
-7669 -2767 0
7669 -249 -2349 2767 0
-3024 8090 8091 8092 0
3024 -8090 0
8090 -250 -671 0
-8090 671 0
-8090 250 0
3024 -8091 0
8091 -251 -672 0
-8091 672 0
-8091 251 0
3024 -8092 0
8092 -252 -670 0
-8092 670 0
-8092 252 0
-3164 8510 8511 8512 0
3164 -8510 0
8510 -670 -1091 0
-8510 1091 0
-8510 670 0
3164 -8511 0
8511 -671 -1092 0
-8511 1092 0
-8511 671 0
3164 -8512 0
8512 -672 -1090 0
-8512 1090 0
-8512 672 0
-3304 8930 8931 8932 0
3304 -8930 0
8930 -1090 -1511 0
-8930 1511 0
-8930 1090 0
3304 -8931 0
8931 -1091 -1512 0
-8931 1512 0
-8931 1091 0
3304 -8932 0
8932 -1092 -1510 0
-8932 1510 0
-8932 1092 0
-3444 9350 9351 9352 0
3444 -9350 0
9350 -1510 -1931 0
-9350 1931 0
-9350 1510 0
3444 -9351 0
9351 -1511 -1932 0
-9351 1932 0
-9351 1511 0
3444 -9352 0
9352 -1512 -1930 0
-9352 1930 0
-9352 1512 0
-3584 9770 9771 9772 0
3584 -9770 0
9770 -1930 -2351 0
-9770 2351 0
-9770 1930 0
3584 -9771 0
9771 -1931 -2352 0
-9771 2352 0
-9771 1931 0
3584 -9772 0
9772 -1932 -2350 0
-9772 2350 0
-9772 1932 0
-3724 10190 10191 10192 0
3724 -10190 0
10190 -2350 -2771 0
-10190 2771 0
-10190 2350 0
3724 -10191 0
10191 -2351 -2772 0
-10191 2772 0
-10191 2351 0
3724 -10192 0
10192 -2352 -2770 0
-10192 2770 0
-10192 2352 0
-4144 5570 5571 5572 0
4144 -5570 0
4144 -5571 0
4144 -5572 0
-4284 5990 5991 5992 0
4284 -5990 0
4284 -5991 0
4284 -5992 0
-4424 6410 6411 6412 0
4424 -6410 0
4424 -6411 0
4424 -6412 0
-4564 6830 6831 6832 0
4564 -6830 0
4564 -6831 0
4564 -6832 0
-4704 7250 7251 7252 0
4704 -7250 0
4704 -7251 0
4704 -7252 0
-4844 7670 7671 7672 0
4844 -7670 0
4844 -7671 0
4844 -7672 0
5570 -670 -251 0
-5570 251 0
-5570 670 0
5571 -671 -252 0
-5571 252 0
-5571 671 0
5572 -672 -250 0
-5572 250 0
-5572 672 0
5990 -1090 -671 0
-5990 671 0
-5990 1090 0
5991 -1091 -672 0
-5991 672 0
-5991 1091 0
5992 -1092 -670 0
-5992 670 0
-5992 1092 0
6410 -1510 -1091 0
-6410 1091 0
-6410 1510 0
6411 -1511 -1092 0
-6411 1092 0
-6411 1511 0
6412 -1512 -1090 0
-6412 1090 0
-6412 1512 0
6830 -1930 -1511 0
-6830 1511 0
-6830 1930 0
6831 -1931 -1512 0
-6831 1512 0
-6831 1931 0
6832 -1932 -1510 0
-6832 1510 0
-6832 1932 0
7250 -2350 -1931 0
-7250 1931 0
-7250 2350 0
7251 -2351 -1932 0
-7251 1932 0
-7251 2351 0
7252 -2352 -1930 0
-7252 1930 0
-7252 2352 0
-7670 250 0
-7670 2350 0
-7670 -2771 0
7670 -250 -2350 2771 0
-7671 251 0
-7671 2351 0
-7671 -2772 0
7671 -251 -2351 2772 0
-7672 252 0
-7672 2352 0
-7672 -2770 0
7672 -252 -2352 2770 0
-3025 8093 8094 8095 0
3025 -8093 0
8093 -253 -674 0
-8093 674 0
-8093 253 0
3025 -8094 0
8094 -254 -675 0
-8094 675 0
-8094 254 0
3025 -8095 0
8095 -255 -673 0
-8095 673 0
-8095 255 0
-3165 8513 8514 8515 0
3165 -8513 0
8513 -673 -1094 0
-8513 1094 0
-8513 673 0
3165 -8514 0
8514 -674 -1095 0
-8514 1095 0
-8514 674 0
3165 -8515 0
8515 -675 -1093 0
-8515 1093 0
-8515 675 0
-3305 8933 8934 8935 0
3305 -8933 0
8933 -1093 -1514 0
-8933 1514 0
-8933 1093 0
3305 -8934 0
8934 -1094 -1515 0
-8934 1515 0
-8934 1094 0
3305 -8935 0
8935 -1095 -1513 0
-8935 1513 0
-8935 1095 0
-3445 9353 9354 9355 0
3445 -9353 0
9353 -1513 -1934 0
-9353 1934 0
-9353 1513 0
3445 -9354 0
9354 -1514 -1935 0
-9354 1935 0
-9354 1514 0
3445 -9355 0
9355 -1515 -1933 0
-9355 1933 0
-9355 1515 0
-3585 9773 9774 9775 0
3585 -9773 0
9773 -1933 -2354 0
-9773 2354 0
-9773 1933 0
3585 -9774 0
9774 -1934 -2355 0
-9774 2355 0
-9774 1934 0
3585 -9775 0
9775 -1935 -2353 0
-9775 2353 0
-9775 1935 0
-3725 10193 10194 10195 0
3725 -10193 0
10193 -2353 -2774 0
-10193 2774 0
-10193 2353 0
3725 -10194 0
10194 -2354 -2775 0
-10194 2775 0
-10194 2354 0
3725 -10195 0
10195 -2355 -2773 0
-10195 2773 0
-10195 2355 0
-4145 5573 5574 5575 0
4145 -5573 0
4145 -5574 0
4145 -5575 0
-4285 5993 5994 5995 0
4285 -5993 0
4285 -5994 0
4285 -5995 0
-4425 6413 6414 6415 0
4425 -6413 0
4425 -6414 0
4425 -6415 0
-4565 6833 6834 6835 0
4565 -6833 0
4565 -6834 0
4565 -6835 0
-4705 7253 7254 7255 0
4705 -7253 0
4705 -7254 0
4705 -7255 0
-4845 7673 7674 7675 0
4845 -7673 0
4845 -7674 0
4845 -7675 0
5573 -673 -254 0
-5573 254 0
-5573 673 0
5574 -674 -255 0
-5574 255 0
-5574 674 0
5575 -675 -253 0
-5575 253 0
-5575 675 0
5993 -1093 -674 0
-5993 674 0
-5993 1093 0
5994 -1094 -675 0
-5994 675 0
-5994 1094 0
5995 -1095 -673 0
-5995 673 0
-5995 1095 0
6413 -1513 -1094 0
-6413 1094 0
-6413 1513 0
6414 -1514 -1095 0
-6414 1095 0
-6414 1514 0
6415 -1515 -1093 0
-6415 1093 0
-6415 1515 0
6833 -1933 -1514 0
-6833 1514 0
-6833 1933 0
6834 -1934 -1515 0
-6834 1515 0
-6834 1934 0
6835 -1935 -1513 0
-6835 1513 0
-6835 1935 0
7253 -2353 -1934 0
-7253 1934 0
-7253 2353 0
7254 -2354 -1935 0
-7254 1935 0
-7254 2354 0
7255 -2355 -1933 0
-7255 1933 0
-7255 2355 0
-7673 253 0
-7673 2353 0
-7673 -2774 0
7673 -253 -2353 2774 0
-7674 254 0
-7674 2354 0
-7674 -2775 0
7674 -254 -2354 2775 0
-7675 255 0
-7675 2355 0
-7675 -2773 0
7675 -255 -2355 2773 0
-3026 8096 8097 8098 0
3026 -8096 0
8096 -256 -677 0
-8096 677 0
-8096 256 0
3026 -8097 0
8097 -257 -678 0
-8097 678 0
-8097 257 0
3026 -8098 0
8098 -258 -676 0
-8098 676 0
-8098 258 0
-3166 8516 8517 8518 0
3166 -8516 0
8516 -676 -1097 0
-8516 1097 0
-8516 676 0
3166 -8517 0
8517 -677 -1098 0
-8517 1098 0
-8517 677 0
3166 -8518 0
8518 -678 -1096 0
-8518 1096 0
-8518 678 0
-3306 8936 8937 8938 0
3306 -8936 0
8936 -1096 -1517 0
-8936 1517 0
-8936 1096 0
3306 -8937 0
8937 -1097 -1518 0
-8937 1518 0
-8937 1097 0
3306 -8938 0
8938 -1098 -1516 0
-8938 1516 0
-8938 1098 0
-3446 9356 9357 9358 0
3446 -9356 0
9356 -1516 -1937 0
-9356 1937 0
-9356 1516 0
3446 -9357 0
9357 -1517 -1938 0
-9357 1938 0
-9357 1517 0
3446 -9358 0
9358 -1518 -1936 0
-9358 1936 0
-9358 1518 0
-3586 9776 9777 9778 0
3586 -9776 0
9776 -1936 -2357 0
-9776 2357 0
-9776 1936 0
3586 -9777 0
9777 -1937 -2358 0
-9777 2358 0
-9777 1937 0
3586 -9778 0
9778 -1938 -2356 0
-9778 2356 0
-9778 1938 0
-3726 10196 10197 10198 0
3726 -10196 0
10196 -2356 -2777 0
-10196 2777 0
-10196 2356 0
3726 -10197 0
10197 -2357 -2778 0
-10197 2778 0
-10197 2357 0
3726 -10198 0
10198 -2358 -2776 0
-10198 2776 0
-10198 2358 0
-4146 5576 5577 5578 0
4146 -5576 0
4146 -5577 0
4146 -5578 0
-4286 5996 5997 5998 0
4286 -5996 0
4286 -5997 0
4286 -5998 0
-4426 6416 6417 6418 0
4426 -6416 0
4426 -6417 0
4426 -6418 0
-4566 6836 6837 6838 0
4566 -6836 0
4566 -6837 0
4566 -6838 0
-4706 7256 7257 7258 0
4706 -7256 0
4706 -7257 0
4706 -7258 0
-4846 7676 7677 7678 0
4846 -7676 0
4846 -7677 0
4846 -7678 0
5576 -676 -257 0
-5576 257 0
-5576 676 0
5577 -677 -258 0
-5577 258 0
-5577 677 0
5578 -678 -256 0
-5578 256 0
-5578 678 0
5996 -1096 -677 0
-5996 677 0
-5996 1096 0
5997 -1097 -678 0
-5997 678 0
-5997 1097 0
5998 -1098 -676 0
-5998 676 0
-5998 1098 0
6416 -1516 -1097 0
-6416 1097 0
-6416 1516 0
6417 -1517 -1098 0
-6417 1098 0
-6417 1517 0
6418 -1518 -1096 0
-6418 1096 0
-6418 1518 0
6836 -1936 -1517 0
-6836 1517 0
-6836 1936 0
6837 -1937 -1518 0
-6837 1518 0
-6837 1937 0
6838 -1938 -1516 0
-6838 1516 0
-6838 1938 0
7256 -2356 -1937 0
-7256 1937 0
-7256 2356 0
7257 -2357 -1938 0
-7257 1938 0
-7257 2357 0
7258 -2358 -1936 0
-7258 1936 0
-7258 2358 0
-7676 256 0
-7676 2356 0
-7676 -2777 0
7676 -256 -2356 2777 0
-7677 257 0
-7677 2357 0
-7677 -2778 0
7677 -257 -2357 2778 0
-7678 258 0
-7678 2358 0
-7678 -2776 0
7678 -258 -2358 2776 0
-3027 8099 8100 8101 0
3027 -8099 0
8099 -259 -680 0
-8099 680 0
-8099 259 0
3027 -8100 0
8100 -260 -681 0
-8100 681 0
-8100 260 0
3027 -8101 0
8101 -261 -679 0
-8101 679 0
-8101 261 0
-3167 8519 8520 8521 0
3167 -8519 0
8519 -679 -1100 0
-8519 1100 0
-8519 679 0
3167 -8520 0
8520 -680 -1101 0
-8520 1101 0
-8520 680 0
3167 -8521 0
8521 -681 -1099 0
-8521 1099 0
-8521 681 0
-3307 8939 8940 8941 0
3307 -8939 0
8939 -1099 -1520 0
-8939 1520 0
-8939 1099 0
3307 -8940 0
8940 -1100 -1521 0
-8940 1521 0
-8940 1100 0
3307 -8941 0
8941 -1101 -1519 0
-8941 1519 0
-8941 1101 0
-3447 9359 9360 9361 0
3447 -9359 0
9359 -1519 -1940 0
-9359 1940 0
-9359 1519 0
3447 -9360 0
9360 -1520 -1941 0
-9360 1941 0
-9360 1520 0
3447 -9361 0
9361 -1521 -1939 0
-9361 1939 0
-9361 1521 0
-3587 9779 9780 9781 0
3587 -9779 0
9779 -1939 -2360 0
-9779 2360 0
-9779 1939 0
3587 -9780 0
9780 -1940 -2361 0
-9780 2361 0
-9780 1940 0
3587 -9781 0
9781 -1941 -2359 0
-9781 2359 0
-9781 1941 0
-3727 10199 10200 10201 0
3727 -10199 0
10199 -2359 -2780 0
-10199 2780 0
-10199 2359 0
3727 -10200 0
10200 -2360 -2781 0
-10200 2781 0
-10200 2360 0
3727 -10201 0
10201 -2361 -2779 0
-10201 2779 0
-10201 2361 0
-4147 5579 5580 5581 0
4147 -5579 0
4147 -5580 0
4147 -5581 0
-4287 5999 6000 6001 0
4287 -5999 0
4287 -6000 0
4287 -6001 0
-4427 6419 6420 6421 0
4427 -6419 0
4427 -6420 0
4427 -6421 0
-4567 6839 6840 6841 0
4567 -6839 0
4567 -6840 0
4567 -6841 0
-4707 7259 7260 7261 0
4707 -7259 0
4707 -7260 0
4707 -7261 0
-4847 7679 7680 7681 0
4847 -7679 0
4847 -7680 0
4847 -7681 0
5579 -679 -260 0
-5579 260 0
-5579 679 0
5580 -680 -261 0
-5580 261 0
-5580 680 0
5581 -681 -259 0
-5581 259 0
-5581 681 0
5999 -1099 -680 0
-5999 680 0
-5999 1099 0
6000 -1100 -681 0
-6000 681 0
-6000 1100 0
6001 -1101 -679 0
-6001 679 0
-6001 1101 0
6419 -1519 -1100 0
-6419 1100 0
-6419 1519 0
6420 -1520 -1101 0
-6420 1101 0
-6420 1520 0
6421 -1521 -1099 0
-6421 1099 0
-6421 1521 0
6839 -1939 -1520 0
-6839 1520 0
-6839 1939 0
6840 -1940 -1521 0
-6840 1521 0
-6840 1940 0
6841 -1941 -1519 0
-6841 1519 0
-6841 1941 0
7259 -2359 -1940 0
-7259 1940 0
-7259 2359 0
7260 -2360 -1941 0
-7260 1941 0
-7260 2360 0
7261 -2361 -1939 0
-7261 1939 0
-7261 2361 0
-7679 259 0
-7679 2359 0
-7679 -2780 0
7679 -259 -2359 2780 0
-7680 260 0
-7680 2360 0
-7680 -2781 0
7680 -260 -2360 2781 0
-7681 261 0
-7681 2361 0
-7681 -2779 0
7681 -261 -2361 2779 0
-3028 8102 8103 8104 0
3028 -8102 0
8102 -262 -683 0
-8102 683 0
-8102 262 0
3028 -8103 0
8103 -263 -684 0
-8103 684 0
-8103 263 0
3028 -8104 0
8104 -264 -682 0
-8104 682 0
-8104 264 0
-3168 8522 8523 8524 0
3168 -8522 0
8522 -682 -1103 0
-8522 1103 0
-8522 682 0
3168 -8523 0
8523 -683 -1104 0
-8523 1104 0
-8523 683 0
3168 -8524 0
8524 -684 -1102 0
-8524 1102 0
-8524 684 0
-3308 8942 8943 8944 0
3308 -8942 0
8942 -1102 -1523 0
-8942 1523 0
-8942 1102 0
3308 -8943 0
8943 -1103 -1524 0
-8943 1524 0
-8943 1103 0
3308 -8944 0
8944 -1104 -1522 0
-8944 1522 0
-8944 1104 0
-3448 9362 9363 9364 0
3448 -9362 0
9362 -1522 -1943 0
-9362 1943 0
-9362 1522 0
3448 -9363 0
9363 -1523 -1944 0
-9363 1944 0
-9363 1523 0
3448 -9364 0
9364 -1524 -1942 0
-9364 1942 0
-9364 1524 0
-3588 9782 9783 9784 0
3588 -9782 0
9782 -1942 -2363 0
-9782 2363 0
-9782 1942 0
3588 -9783 0
9783 -1943 -2364 0
-9783 2364 0
-9783 1943 0
3588 -9784 0
9784 -1944 -2362 0
-9784 2362 0
-9784 1944 0
-3728 10202 10203 10204 0
3728 -10202 0
10202 -2362 -2783 0
-10202 2783 0
-10202 2362 0
3728 -10203 0
10203 -2363 -2784 0
-10203 2784 0
-10203 2363 0
3728 -10204 0
10204 -2364 -2782 0
-10204 2782 0
-10204 2364 0
-4148 5582 5583 5584 0
4148 -5582 0
4148 -5583 0
4148 -5584 0
-4288 6002 6003 6004 0
4288 -6002 0
4288 -6003 0
4288 -6004 0
-4428 6422 6423 6424 0
4428 -6422 0
4428 -6423 0
4428 -6424 0
-4568 6842 6843 6844 0
4568 -6842 0
4568 -6843 0
4568 -6844 0
-4708 7262 7263 7264 0
4708 -7262 0
4708 -7263 0
4708 -7264 0
-4848 7682 7683 7684 0
4848 -7682 0
4848 -7683 0
4848 -7684 0
5582 -682 -263 0
-5582 263 0
-5582 682 0
5583 -683 -264 0
-5583 264 0
-5583 683 0
5584 -684 -262 0
-5584 262 0
-5584 684 0
6002 -1102 -683 0
-6002 683 0
-6002 1102 0
6003 -1103 -684 0
-6003 684 0
-6003 1103 0
6004 -1104 -682 0
-6004 682 0
-6004 1104 0
6422 -1522 -1103 0
-6422 1103 0
-6422 1522 0
6423 -1523 -1104 0
-6423 1104 0
-6423 1523 0
6424 -1524 -1102 0
-6424 1102 0
-6424 1524 0
6842 -1942 -1523 0
-6842 1523 0
-6842 1942 0
6843 -1943 -1524 0
-6843 1524 0
-6843 1943 0
6844 -1944 -1522 0
-6844 1522 0
-6844 1944 0
7262 -2362 -1943 0
-7262 1943 0
-7262 2362 0
7263 -2363 -1944 0
-7263 1944 0
-7263 2363 0
7264 -2364 -1942 0
-7264 1942 0
-7264 2364 0
-7682 262 0
-7682 2362 0
-7682 -2783 0
7682 -262 -2362 2783 0
-7683 263 0
-7683 2363 0
-7683 -2784 0
7683 -263 -2363 2784 0
-7684 264 0
-7684 2364 0
-7684 -2782 0
7684 -264 -2364 2782 0
-3029 8105 8106 8107 0
3029 -8105 0
8105 -265 -686 0
-8105 686 0
-8105 265 0
3029 -8106 0
8106 -266 -687 0
-8106 687 0
-8106 266 0
3029 -8107 0
8107 -267 -685 0
-8107 685 0
-8107 267 0
-3169 8525 8526 8527 0
3169 -8525 0
8525 -685 -1106 0
-8525 1106 0
-8525 685 0
3169 -8526 0
8526 -686 -1107 0
-8526 1107 0
-8526 686 0
3169 -8527 0
8527 -687 -1105 0
-8527 1105 0
-8527 687 0
-3309 8945 8946 8947 0
3309 -8945 0
8945 -1105 -1526 0
-8945 1526 0
-8945 1105 0
3309 -8946 0
8946 -1106 -1527 0
-8946 1527 0
-8946 1106 0
3309 -8947 0
8947 -1107 -1525 0
-8947 1525 0
-8947 1107 0
-3449 9365 9366 9367 0
3449 -9365 0
9365 -1525 -1946 0
-9365 1946 0
-9365 1525 0
3449 -9366 0
9366 -1526 -1947 0
-9366 1947 0
-9366 1526 0
3449 -9367 0
9367 -1527 -1945 0
-9367 1945 0
-9367 1527 0
-3589 9785 9786 9787 0
3589 -9785 0
9785 -1945 -2366 0
-9785 2366 0
-9785 1945 0
3589 -9786 0
9786 -1946 -2367 0
-9786 2367 0
-9786 1946 0
3589 -9787 0
9787 -1947 -2365 0
-9787 2365 0
-9787 1947 0
-3729 10205 10206 10207 0
3729 -10205 0
10205 -2365 -2786 0
-10205 2786 0
-10205 2365 0
3729 -10206 0
10206 -2366 -2787 0
-10206 2787 0
-10206 2366 0
3729 -10207 0
10207 -2367 -2785 0
-10207 2785 0
-10207 2367 0
-4149 5585 5586 5587 0
4149 -5585 0
4149 -5586 0
4149 -5587 0
-4289 6005 6006 6007 0
4289 -6005 0
4289 -6006 0
4289 -6007 0
-4429 6425 6426 6427 0
4429 -6425 0
4429 -6426 0
4429 -6427 0
-4569 6845 6846 6847 0
4569 -6845 0
4569 -6846 0
4569 -6847 0
-4709 7265 7266 7267 0
4709 -7265 0
4709 -7266 0
4709 -7267 0
-4849 7685 7686 7687 0
4849 -7685 0
4849 -7686 0
4849 -7687 0
5585 -685 -266 0
-5585 266 0
-5585 685 0
5586 -686 -267 0
-5586 267 0
-5586 686 0
5587 -687 -265 0
-5587 265 0
-5587 687 0
6005 -1105 -686 0
-6005 686 0
-6005 1105 0
6006 -1106 -687 0
-6006 687 0
-6006 1106 0
6007 -1107 -685 0
-6007 685 0
-6007 1107 0
6425 -1525 -1106 0
-6425 1106 0
-6425 1525 0
6426 -1526 -1107 0
-6426 1107 0
-6426 1526 0
6427 -1527 -1105 0
-6427 1105 0
-6427 1527 0
6845 -1945 -1526 0
-6845 1526 0
-6845 1945 0
6846 -1946 -1527 0
-6846 1527 0
-6846 1946 0
6847 -1947 -1525 0
-6847 1525 0
-6847 1947 0
7265 -2365 -1946 0
-7265 1946 0
-7265 2365 0
7266 -2366 -1947 0
-7266 1947 0
-7266 2366 0
7267 -2367 -1945 0
-7267 1945 0
-7267 2367 0
-7685 265 0
-7685 2365 0
-7685 -2786 0
7685 -265 -2365 2786 0
-7686 266 0
-7686 2366 0
-7686 -2787 0
7686 -266 -2366 2787 0
-7687 267 0
-7687 2367 0
-7687 -2785 0
7687 -267 -2367 2785 0
-3030 8108 8109 8110 0
3030 -8108 0
8108 -268 -689 0
-8108 689 0
-8108 268 0
3030 -8109 0
8109 -269 -690 0
-8109 690 0
-8109 269 0
3030 -8110 0
8110 -270 -688 0
-8110 688 0
-8110 270 0
-3170 8528 8529 8530 0
3170 -8528 0
8528 -688 -1109 0
-8528 1109 0
-8528 688 0
3170 -8529 0
8529 -689 -1110 0
-8529 1110 0
-8529 689 0
3170 -8530 0
8530 -690 -1108 0
-8530 1108 0
-8530 690 0
-3310 8948 8949 8950 0
3310 -8948 0
8948 -1108 -1529 0
-8948 1529 0
-8948 1108 0
3310 -8949 0
8949 -1109 -1530 0
-8949 1530 0
-8949 1109 0
3310 -8950 0
8950 -1110 -1528 0
-8950 1528 0
-8950 1110 0
-3450 9368 9369 9370 0
3450 -9368 0
9368 -1528 -1949 0
-9368 1949 0
-9368 1528 0
3450 -9369 0
9369 -1529 -1950 0
-9369 1950 0
-9369 1529 0
3450 -9370 0
9370 -1530 -1948 0
-9370 1948 0
-9370 1530 0
-3590 9788 9789 9790 0
3590 -9788 0
9788 -1948 -2369 0
-9788 2369 0
-9788 1948 0
3590 -9789 0
9789 -1949 -2370 0
-9789 2370 0
-9789 1949 0
3590 -9790 0
9790 -1950 -2368 0
-9790 2368 0
-9790 1950 0
-3730 10208 10209 10210 0
3730 -10208 0
10208 -2368 -2789 0
-10208 2789 0
-10208 2368 0
3730 -10209 0
10209 -2369 -2790 0
-10209 2790 0
-10209 2369 0
3730 -10210 0
10210 -2370 -2788 0
-10210 2788 0
-10210 2370 0
-4150 5588 5589 5590 0
4150 -5588 0
4150 -5589 0
4150 -5590 0
-4290 6008 6009 6010 0
4290 -6008 0
4290 -6009 0
4290 -6010 0
-4430 6428 6429 6430 0
4430 -6428 0
4430 -6429 0
4430 -6430 0
-4570 6848 6849 6850 0
4570 -6848 0
4570 -6849 0
4570 -6850 0
-4710 7268 7269 7270 0
4710 -7268 0
4710 -7269 0
4710 -7270 0
-4850 7688 7689 7690 0
4850 -7688 0
4850 -7689 0
4850 -7690 0
5588 -688 -269 0
-5588 269 0
-5588 688 0
5589 -689 -270 0
-5589 270 0
-5589 689 0
5590 -690 -268 0
-5590 268 0
-5590 690 0
6008 -1108 -689 0
-6008 689 0
-6008 1108 0
6009 -1109 -690 0
-6009 690 0
-6009 1109 0
6010 -1110 -688 0
-6010 688 0
-6010 1110 0
6428 -1528 -1109 0
-6428 1109 0
-6428 1528 0
6429 -1529 -1110 0
-6429 1110 0
-6429 1529 0
6430 -1530 -1108 0
-6430 1108 0
-6430 1530 0
6848 -1948 -1529 0
-6848 1529 0
-6848 1948 0
6849 -1949 -1530 0
-6849 1530 0
-6849 1949 0
6850 -1950 -1528 0
-6850 1528 0
-6850 1950 0
7268 -2368 -1949 0
-7268 1949 0
-7268 2368 0
7269 -2369 -1950 0
-7269 1950 0
-7269 2369 0
7270 -2370 -1948 0
-7270 1948 0
-7270 2370 0
-7688 268 0
-7688 2368 0
-7688 -2789 0
7688 -268 -2368 2789 0
-7689 269 0
-7689 2369 0
-7689 -2790 0
7689 -269 -2369 2790 0
-7690 270 0
-7690 2370 0
-7690 -2788 0
7690 -270 -2370 2788 0
-3031 8111 8112 8113 0
3031 -8111 0
8111 -271 -692 0
-8111 692 0
-8111 271 0
3031 -8112 0
8112 -272 -693 0
-8112 693 0
-8112 272 0
3031 -8113 0
8113 -273 -691 0
-8113 691 0
-8113 273 0
-3171 8531 8532 8533 0
3171 -8531 0
8531 -691 -1112 0
-8531 1112 0
-8531 691 0
3171 -8532 0
8532 -692 -1113 0
-8532 1113 0
-8532 692 0
3171 -8533 0
8533 -693 -1111 0
-8533 1111 0
-8533 693 0
-3311 8951 8952 8953 0
3311 -8951 0
8951 -1111 -1532 0
-8951 1532 0
-8951 1111 0
3311 -8952 0
8952 -1112 -1533 0
-8952 1533 0
-8952 1112 0
3311 -8953 0
8953 -1113 -1531 0
-8953 1531 0
-8953 1113 0
-3451 9371 9372 9373 0
3451 -9371 0
9371 -1531 -1952 0
-9371 1952 0
-9371 1531 0
3451 -9372 0
9372 -1532 -1953 0
-9372 1953 0
-9372 1532 0
3451 -9373 0
9373 -1533 -1951 0
-9373 1951 0
-9373 1533 0
-3591 9791 9792 9793 0
3591 -9791 0
9791 -1951 -2372 0
-9791 2372 0
-9791 1951 0
3591 -9792 0
9792 -1952 -2373 0
-9792 2373 0
-9792 1952 0
3591 -9793 0
9793 -1953 -2371 0
-9793 2371 0
-9793 1953 0
-3731 10211 10212 10213 0
3731 -10211 0
10211 -2371 -2792 0
-10211 2792 0
-10211 2371 0
3731 -10212 0
10212 -2372 -2793 0
-10212 2793 0
-10212 2372 0
3731 -10213 0
10213 -2373 -2791 0
-10213 2791 0
-10213 2373 0
-4151 5591 5592 5593 0
4151 -5591 0
4151 -5592 0
4151 -5593 0
-4291 6011 6012 6013 0
4291 -6011 0
4291 -6012 0
4291 -6013 0
-4431 6431 6432 6433 0
4431 -6431 0
4431 -6432 0
4431 -6433 0
-4571 6851 6852 6853 0
4571 -6851 0
4571 -6852 0
4571 -6853 0
-4711 7271 7272 7273 0
4711 -7271 0
4711 -7272 0
4711 -7273 0
-4851 7691 7692 7693 0
4851 -7691 0
4851 -7692 0
4851 -7693 0
5591 -691 -272 0
-5591 272 0
-5591 691 0
5592 -692 -273 0
-5592 273 0
-5592 692 0
5593 -693 -271 0
-5593 271 0
-5593 693 0
6011 -1111 -692 0
-6011 692 0
-6011 1111 0
6012 -1112 -693 0
-6012 693 0
-6012 1112 0
6013 -1113 -691 0
-6013 691 0
-6013 1113 0
6431 -1531 -1112 0
-6431 1112 0
-6431 1531 0
6432 -1532 -1113 0
-6432 1113 0
-6432 1532 0
6433 -1533 -1111 0
-6433 1111 0
-6433 1533 0
6851 -1951 -1532 0
-6851 1532 0
-6851 1951 0
6852 -1952 -1533 0
-6852 1533 0
-6852 1952 0
6853 -1953 -1531 0
-6853 1531 0
-6853 1953 0
7271 -2371 -1952 0
-7271 1952 0
-7271 2371 0
7272 -2372 -1953 0
-7272 1953 0
-7272 2372 0
7273 -2373 -1951 0
-7273 1951 0
-7273 2373 0
-7691 271 0
-7691 2371 0
-7691 -2792 0
7691 -271 -2371 2792 0
-7692 272 0
-7692 2372 0
-7692 -2793 0
7692 -272 -2372 2793 0
-7693 273 0
-7693 2373 0
-7693 -2791 0
7693 -273 -2373 2791 0
-3032 8114 8115 8116 0
3032 -8114 0
8114 -274 -695 0
-8114 695 0
-8114 274 0
3032 -8115 0
8115 -275 -696 0
-8115 696 0
-8115 275 0
3032 -8116 0
8116 -276 -694 0
-8116 694 0
-8116 276 0
-3172 8534 8535 8536 0
3172 -8534 0
8534 -694 -1115 0
-8534 1115 0
-8534 694 0
3172 -8535 0
8535 -695 -1116 0
-8535 1116 0
-8535 695 0
3172 -8536 0
8536 -696 -1114 0
-8536 1114 0
-8536 696 0
-3312 8954 8955 8956 0
3312 -8954 0
8954 -1114 -1535 0
-8954 1535 0
-8954 1114 0
3312 -8955 0
8955 -1115 -1536 0
-8955 1536 0
-8955 1115 0
3312 -8956 0
8956 -1116 -1534 0
-8956 1534 0
-8956 1116 0
-3452 9374 9375 9376 0
3452 -9374 0
9374 -1534 -1955 0
-9374 1955 0
-9374 1534 0
3452 -9375 0
9375 -1535 -1956 0
-9375 1956 0
-9375 1535 0
3452 -9376 0
9376 -1536 -1954 0
-9376 1954 0
-9376 1536 0
-3592 9794 9795 9796 0
3592 -9794 0
9794 -1954 -2375 0
-9794 2375 0
-9794 1954 0
3592 -9795 0
9795 -1955 -2376 0
-9795 2376 0
-9795 1955 0
3592 -9796 0
9796 -1956 -2374 0
-9796 2374 0
-9796 1956 0
-3732 10214 10215 10216 0
3732 -10214 0
10214 -2374 -2795 0
-10214 2795 0
-10214 2374 0
3732 -10215 0
10215 -2375 -2796 0
-10215 2796 0
-10215 2375 0
3732 -10216 0
10216 -2376 -2794 0
-10216 2794 0
-10216 2376 0
-4152 5594 5595 5596 0
4152 -5594 0
4152 -5595 0
4152 -5596 0
-4292 6014 6015 6016 0
4292 -6014 0
4292 -6015 0
4292 -6016 0
-4432 6434 6435 6436 0
4432 -6434 0
4432 -6435 0
4432 -6436 0
-4572 6854 6855 6856 0
4572 -6854 0
4572 -6855 0
4572 -6856 0
-4712 7274 7275 7276 0
4712 -7274 0
4712 -7275 0
4712 -7276 0
-4852 7694 7695 7696 0
4852 -7694 0
4852 -7695 0
4852 -7696 0
5594 -694 -275 0
-5594 275 0
-5594 694 0
5595 -695 -276 0
-5595 276 0
-5595 695 0
5596 -696 -274 0
-5596 274 0
-5596 696 0
6014 -1114 -695 0
-6014 695 0
-6014 1114 0
6015 -1115 -696 0
-6015 696 0
-6015 1115 0
6016 -1116 -694 0
-6016 694 0
-6016 1116 0
6434 -1534 -1115 0
-6434 1115 0
-6434 1534 0
6435 -1535 -1116 0
-6435 1116 0
-6435 1535 0
6436 -1536 -1114 0
-6436 1114 0
-6436 1536 0
6854 -1954 -1535 0
-6854 1535 0
-6854 1954 0
6855 -1955 -1536 0
-6855 1536 0
-6855 1955 0
6856 -1956 -1534 0
-6856 1534 0
-6856 1956 0
7274 -2374 -1955 0
-7274 1955 0
-7274 2374 0
7275 -2375 -1956 0
-7275 1956 0
-7275 2375 0
7276 -2376 -1954 0
-7276 1954 0
-7276 2376 0
-7694 274 0
-7694 2374 0
-7694 -2795 0
7694 -274 -2374 2795 0
-7695 275 0
-7695 2375 0
-7695 -2796 0
7695 -275 -2375 2796 0
-7696 276 0
-7696 2376 0
-7696 -2794 0
7696 -276 -2376 2794 0
-3033 8117 8118 8119 0
3033 -8117 0
8117 -277 -698 0
-8117 698 0
-8117 277 0
3033 -8118 0
8118 -278 -699 0
-8118 699 0
-8118 278 0
3033 -8119 0
8119 -279 -697 0
-8119 697 0
-8119 279 0
-3173 8537 8538 8539 0
3173 -8537 0
8537 -697 -1118 0
-8537 1118 0
-8537 697 0
3173 -8538 0
8538 -698 -1119 0
-8538 1119 0
-8538 698 0
3173 -8539 0
8539 -699 -1117 0
-8539 1117 0
-8539 699 0
-3313 8957 8958 8959 0
3313 -8957 0
8957 -1117 -1538 0
-8957 1538 0
-8957 1117 0
3313 -8958 0
8958 -1118 -1539 0
-8958 1539 0
-8958 1118 0
3313 -8959 0
8959 -1119 -1537 0
-8959 1537 0
-8959 1119 0
-3453 9377 9378 9379 0
3453 -9377 0
9377 -1537 -1958 0
-9377 1958 0
-9377 1537 0
3453 -9378 0
9378 -1538 -1959 0
-9378 1959 0
-9378 1538 0
3453 -9379 0
9379 -1539 -1957 0
-9379 1957 0
-9379 1539 0
-3593 9797 9798 9799 0
3593 -9797 0
9797 -1957 -2378 0
-9797 2378 0
-9797 1957 0
3593 -9798 0
9798 -1958 -2379 0
-9798 2379 0
-9798 1958 0
3593 -9799 0
9799 -1959 -2377 0
-9799 2377 0
-9799 1959 0
-3733 10217 10218 10219 0
3733 -10217 0
10217 -2377 -2798 0
-10217 2798 0
-10217 2377 0
3733 -10218 0
10218 -2378 -2799 0
-10218 2799 0
-10218 2378 0
3733 -10219 0
10219 -2379 -2797 0
-10219 2797 0
-10219 2379 0
-4153 5597 5598 5599 0
4153 -5597 0
4153 -5598 0
4153 -5599 0
-4293 6017 6018 6019 0
4293 -6017 0
4293 -6018 0
4293 -6019 0
-4433 6437 6438 6439 0
4433 -6437 0
4433 -6438 0
4433 -6439 0
-4573 6857 6858 6859 0
4573 -6857 0
4573 -6858 0
4573 -6859 0
-4713 7277 7278 7279 0
4713 -7277 0
4713 -7278 0
4713 -7279 0
-4853 7697 7698 7699 0
4853 -7697 0
4853 -7698 0
4853 -7699 0
5597 -697 -278 0
-5597 278 0
-5597 697 0
5598 -698 -279 0
-5598 279 0
-5598 698 0
5599 -699 -277 0
-5599 277 0
-5599 699 0
6017 -1117 -698 0
-6017 698 0
-6017 1117 0
6018 -1118 -699 0
-6018 699 0
-6018 1118 0
6019 -1119 -697 0
-6019 697 0
-6019 1119 0
6437 -1537 -1118 0
-6437 1118 0
-6437 1537 0
6438 -1538 -1119 0
-6438 1119 0
-6438 1538 0
6439 -1539 -1117 0
-6439 1117 0
-6439 1539 0
6857 -1957 -1538 0
-6857 1538 0
-6857 1957 0
6858 -1958 -1539 0
-6858 1539 0
-6858 1958 0
6859 -1959 -1537 0
-6859 1537 0
-6859 1959 0
7277 -2377 -1958 0
-7277 1958 0
-7277 2377 0
7278 -2378 -1959 0
-7278 1959 0
-7278 2378 0
7279 -2379 -1957 0
-7279 1957 0
-7279 2379 0
-7697 277 0
-7697 2377 0
-7697 -2798 0
7697 -277 -2377 2798 0
-7698 278 0
-7698 2378 0
-7698 -2799 0
7698 -278 -2378 2799 0
-7699 279 0
-7699 2379 0
-7699 -2797 0
7699 -279 -2379 2797 0
-3034 8120 8121 8122 0
3034 -8120 0
8120 -280 -701 0
-8120 701 0
-8120 280 0
3034 -8121 0
8121 -281 -702 0
-8121 702 0
-8121 281 0
3034 -8122 0
8122 -282 -700 0
-8122 700 0
-8122 282 0
-3174 8540 8541 8542 0
3174 -8540 0
8540 -700 -1121 0
-8540 1121 0
-8540 700 0
3174 -8541 0
8541 -701 -1122 0
-8541 1122 0
-8541 701 0
3174 -8542 0
8542 -702 -1120 0
-8542 1120 0
-8542 702 0
-3314 8960 8961 8962 0
3314 -8960 0
8960 -1120 -1541 0
-8960 1541 0
-8960 1120 0
3314 -8961 0
8961 -1121 -1542 0
-8961 1542 0
-8961 1121 0
3314 -8962 0
8962 -1122 -1540 0
-8962 1540 0
-8962 1122 0
-3454 9380 9381 9382 0
3454 -9380 0
9380 -1540 -1961 0
-9380 1961 0
-9380 1540 0
3454 -9381 0
9381 -1541 -1962 0
-9381 1962 0
-9381 1541 0
3454 -9382 0
9382 -1542 -1960 0
-9382 1960 0
-9382 1542 0
-3594 9800 9801 9802 0
3594 -9800 0
9800 -1960 -2381 0
-9800 2381 0
-9800 1960 0
3594 -9801 0
9801 -1961 -2382 0
-9801 2382 0
-9801 1961 0
3594 -9802 0
9802 -1962 -2380 0
-9802 2380 0
-9802 1962 0
-3734 10220 10221 10222 0
3734 -10220 0
10220 -2380 -2801 0
-10220 2801 0
-10220 2380 0
3734 -10221 0
10221 -2381 -2802 0
-10221 2802 0
-10221 2381 0
3734 -10222 0
10222 -2382 -2800 0
-10222 2800 0
-10222 2382 0
-4154 5600 5601 5602 0
4154 -5600 0
4154 -5601 0
4154 -5602 0
-4294 6020 6021 6022 0
4294 -6020 0
4294 -6021 0
4294 -6022 0
-4434 6440 6441 6442 0
4434 -6440 0
4434 -6441 0
4434 -6442 0
-4574 6860 6861 6862 0
4574 -6860 0
4574 -6861 0
4574 -6862 0
-4714 7280 7281 7282 0
4714 -7280 0
4714 -7281 0
4714 -7282 0
-4854 7700 7701 7702 0
4854 -7700 0
4854 -7701 0
4854 -7702 0
5600 -700 -281 0
-5600 281 0
-5600 700 0
5601 -701 -282 0
-5601 282 0
-5601 701 0
5602 -702 -280 0
-5602 280 0
-5602 702 0
6020 -1120 -701 0
-6020 701 0
-6020 1120 0
6021 -1121 -702 0
-6021 702 0
-6021 1121 0
6022 -1122 -700 0
-6022 700 0
-6022 1122 0
6440 -1540 -1121 0
-6440 1121 0
-6440 1540 0
6441 -1541 -1122 0
-6441 1122 0
-6441 1541 0
6442 -1542 -1120 0
-6442 1120 0
-6442 1542 0
6860 -1960 -1541 0
-6860 1541 0
-6860 1960 0
6861 -1961 -1542 0
-6861 1542 0
-6861 1961 0
6862 -1962 -1540 0
-6862 1540 0
-6862 1962 0
7280 -2380 -1961 0
-7280 1961 0
-7280 2380 0
7281 -2381 -1962 0
-7281 1962 0
-7281 2381 0
7282 -2382 -1960 0
-7282 1960 0
-7282 2382 0
-7700 280 0
-7700 2380 0
-7700 -2801 0
7700 -280 -2380 2801 0
-7701 281 0
-7701 2381 0
-7701 -2802 0
7701 -281 -2381 2802 0
-7702 282 0
-7702 2382 0
-7702 -2800 0
7702 -282 -2382 2800 0
-3035 8123 8124 8125 0
3035 -8123 0
8123 -283 -704 0
-8123 704 0
-8123 283 0
3035 -8124 0
8124 -284 -705 0
-8124 705 0
-8124 284 0
3035 -8125 0
8125 -285 -703 0
-8125 703 0
-8125 285 0
-3175 8543 8544 8545 0
3175 -8543 0
8543 -703 -1124 0
-8543 1124 0
-8543 703 0
3175 -8544 0
8544 -704 -1125 0
-8544 1125 0
-8544 704 0
3175 -8545 0
8545 -705 -1123 0
-8545 1123 0
-8545 705 0
-3315 8963 8964 8965 0
3315 -8963 0
8963 -1123 -1544 0
-8963 1544 0
-8963 1123 0
3315 -8964 0
8964 -1124 -1545 0
-8964 1545 0
-8964 1124 0
3315 -8965 0
8965 -1125 -1543 0
-8965 1543 0
-8965 1125 0
-3455 9383 9384 9385 0
3455 -9383 0
9383 -1543 -1964 0
-9383 1964 0
-9383 1543 0
3455 -9384 0
9384 -1544 -1965 0
-9384 1965 0
-9384 1544 0
3455 -9385 0
9385 -1545 -1963 0
-9385 1963 0
-9385 1545 0
-3595 9803 9804 9805 0
3595 -9803 0
9803 -1963 -2384 0
-9803 2384 0
-9803 1963 0
3595 -9804 0
9804 -1964 -2385 0
-9804 2385 0
-9804 1964 0
3595 -9805 0
9805 -1965 -2383 0
-9805 2383 0
-9805 1965 0
-3735 10223 10224 10225 0
3735 -10223 0
10223 -2383 -2804 0
-10223 2804 0
-10223 2383 0
3735 -10224 0
10224 -2384 -2805 0
-10224 2805 0
-10224 2384 0
3735 -10225 0
10225 -2385 -2803 0
-10225 2803 0
-10225 2385 0
-4155 5603 5604 5605 0
4155 -5603 0
4155 -5604 0
4155 -5605 0
-4295 6023 6024 6025 0
4295 -6023 0
4295 -6024 0
4295 -6025 0
-4435 6443 6444 6445 0
4435 -6443 0
4435 -6444 0
4435 -6445 0
-4575 6863 6864 6865 0
4575 -6863 0
4575 -6864 0
4575 -6865 0
-4715 7283 7284 7285 0
4715 -7283 0
4715 -7284 0
4715 -7285 0
-4855 7703 7704 7705 0
4855 -7703 0
4855 -7704 0
4855 -7705 0
5603 -703 -284 0
-5603 284 0
-5603 703 0
5604 -704 -285 0
-5604 285 0
-5604 704 0
5605 -705 -283 0
-5605 283 0
-5605 705 0
6023 -1123 -704 0
-6023 704 0
-6023 1123 0
6024 -1124 -705 0
-6024 705 0
-6024 1124 0
6025 -1125 -703 0
-6025 703 0
-6025 1125 0
6443 -1543 -1124 0
-6443 1124 0
-6443 1543 0
6444 -1544 -1125 0
-6444 1125 0
-6444 1544 0
6445 -1545 -1123 0
-6445 1123 0
-6445 1545 0
6863 -1963 -1544 0
-6863 1544 0
-6863 1963 0
6864 -1964 -1545 0
-6864 1545 0
-6864 1964 0
6865 -1965 -1543 0
-6865 1543 0
-6865 1965 0
7283 -2383 -1964 0
-7283 1964 0
-7283 2383 0
7284 -2384 -1965 0
-7284 1965 0
-7284 2384 0
7285 -2385 -1963 0
-7285 1963 0
-7285 2385 0
-7703 283 0
-7703 2383 0
-7703 -2804 0
7703 -283 -2383 2804 0
-7704 284 0
-7704 2384 0
-7704 -2805 0
7704 -284 -2384 2805 0
-7705 285 0
-7705 2385 0
-7705 -2803 0
7705 -285 -2385 2803 0
-3036 8126 8127 8128 0
3036 -8126 0
8126 -286 -707 0
-8126 707 0
-8126 286 0
3036 -8127 0
8127 -287 -708 0
-8127 708 0
-8127 287 0
3036 -8128 0
8128 -288 -706 0
-8128 706 0
-8128 288 0
-3176 8546 8547 8548 0
3176 -8546 0
8546 -706 -1127 0
-8546 1127 0
-8546 706 0
3176 -8547 0
8547 -707 -1128 0
-8547 1128 0
-8547 707 0
3176 -8548 0
8548 -708 -1126 0
-8548 1126 0
-8548 708 0
-3316 8966 8967 8968 0
3316 -8966 0
8966 -1126 -1547 0
-8966 1547 0
-8966 1126 0
3316 -8967 0
8967 -1127 -1548 0
-8967 1548 0
-8967 1127 0
3316 -8968 0
8968 -1128 -1546 0
-8968 1546 0
-8968 1128 0
-3456 9386 9387 9388 0
3456 -9386 0
9386 -1546 -1967 0
-9386 1967 0
-9386 1546 0
3456 -9387 0
9387 -1547 -1968 0
-9387 1968 0
-9387 1547 0
3456 -9388 0
9388 -1548 -1966 0
-9388 1966 0
-9388 1548 0
-3596 9806 9807 9808 0
3596 -9806 0
9806 -1966 -2387 0
-9806 2387 0
-9806 1966 0
3596 -9807 0
9807 -1967 -2388 0
-9807 2388 0
-9807 1967 0
3596 -9808 0
9808 -1968 -2386 0
-9808 2386 0
-9808 1968 0
-3736 10226 10227 10228 0
3736 -10226 0
10226 -2386 -2807 0
-10226 2807 0
-10226 2386 0
3736 -10227 0
10227 -2387 -2808 0
-10227 2808 0
-10227 2387 0
3736 -10228 0
10228 -2388 -2806 0
-10228 2806 0
-10228 2388 0
-4156 5606 5607 5608 0
4156 -5606 0
4156 -5607 0
4156 -5608 0
-4296 6026 6027 6028 0
4296 -6026 0
4296 -6027 0
4296 -6028 0
-4436 6446 6447 6448 0
4436 -6446 0
4436 -6447 0
4436 -6448 0
-4576 6866 6867 6868 0
4576 -6866 0
4576 -6867 0
4576 -6868 0
-4716 7286 7287 7288 0
4716 -7286 0
4716 -7287 0
4716 -7288 0
-4856 7706 7707 7708 0
4856 -7706 0
4856 -7707 0
4856 -7708 0
5606 -706 -287 0
-5606 287 0
-5606 706 0
5607 -707 -288 0
-5607 288 0
-5607 707 0
5608 -708 -286 0
-5608 286 0
-5608 708 0
6026 -1126 -707 0
-6026 707 0
-6026 1126 0
6027 -1127 -708 0
-6027 708 0
-6027 1127 0
6028 -1128 -706 0
-6028 706 0
-6028 1128 0
6446 -1546 -1127 0
-6446 1127 0
-6446 1546 0
6447 -1547 -1128 0
-6447 1128 0
-6447 1547 0
6448 -1548 -1126 0
-6448 1126 0
-6448 1548 0
6866 -1966 -1547 0
-6866 1547 0
-6866 1966 0
6867 -1967 -1548 0
-6867 1548 0
-6867 1967 0
6868 -1968 -1546 0
-6868 1546 0
-6868 1968 0
7286 -2386 -1967 0
-7286 1967 0
-7286 2386 0
7287 -2387 -1968 0
-7287 1968 0
-7287 2387 0
7288 -2388 -1966 0
-7288 1966 0
-7288 2388 0
-7706 286 0
-7706 2386 0
-7706 -2807 0
7706 -286 -2386 2807 0
-7707 287 0
-7707 2387 0
-7707 -2808 0
7707 -287 -2387 2808 0
-7708 288 0
-7708 2388 0
-7708 -2806 0
7708 -288 -2388 2806 0
-3037 8129 8130 8131 0
3037 -8129 0
8129 -289 -710 0
-8129 710 0
-8129 289 0
3037 -8130 0
8130 -290 -711 0
-8130 711 0
-8130 290 0
3037 -8131 0
8131 -291 -709 0
-8131 709 0
-8131 291 0
-3177 8549 8550 8551 0
3177 -8549 0
8549 -709 -1130 0
-8549 1130 0
-8549 709 0
3177 -8550 0
8550 -710 -1131 0
-8550 1131 0
-8550 710 0
3177 -8551 0
8551 -711 -1129 0
-8551 1129 0
-8551 711 0
-3317 8969 8970 8971 0
3317 -8969 0
8969 -1129 -1550 0
-8969 1550 0
-8969 1129 0
3317 -8970 0
8970 -1130 -1551 0
-8970 1551 0
-8970 1130 0
3317 -8971 0
8971 -1131 -1549 0
-8971 1549 0
-8971 1131 0
-3457 9389 9390 9391 0
3457 -9389 0
9389 -1549 -1970 0
-9389 1970 0
-9389 1549 0
3457 -9390 0
9390 -1550 -1971 0
-9390 1971 0
-9390 1550 0
3457 -9391 0
9391 -1551 -1969 0
-9391 1969 0
-9391 1551 0
-3597 9809 9810 9811 0
3597 -9809 0
9809 -1969 -2390 0
-9809 2390 0
-9809 1969 0
3597 -9810 0
9810 -1970 -2391 0
-9810 2391 0
-9810 1970 0
3597 -9811 0
9811 -1971 -2389 0
-9811 2389 0
-9811 1971 0
-3737 10229 10230 10231 0
3737 -10229 0
10229 -2389 -2810 0
-10229 2810 0
-10229 2389 0
3737 -10230 0
10230 -2390 -2811 0
-10230 2811 0
-10230 2390 0
3737 -10231 0
10231 -2391 -2809 0
-10231 2809 0
-10231 2391 0
-4157 5609 5610 5611 0
4157 -5609 0
4157 -5610 0
4157 -5611 0
-4297 6029 6030 6031 0
4297 -6029 0
4297 -6030 0
4297 -6031 0
-4437 6449 6450 6451 0
4437 -6449 0
4437 -6450 0
4437 -6451 0
-4577 6869 6870 6871 0
4577 -6869 0
4577 -6870 0
4577 -6871 0
-4717 7289 7290 7291 0
4717 -7289 0
4717 -7290 0
4717 -7291 0
-4857 7709 7710 7711 0
4857 -7709 0
4857 -7710 0
4857 -7711 0
5609 -709 -290 0
-5609 290 0
-5609 709 0
5610 -710 -291 0
-5610 291 0
-5610 710 0
5611 -711 -289 0
-5611 289 0
-5611 711 0
6029 -1129 -710 0
-6029 710 0
-6029 1129 0
6030 -1130 -711 0
-6030 711 0
-6030 1130 0
6031 -1131 -709 0
-6031 709 0
-6031 1131 0
6449 -1549 -1130 0
-6449 1130 0
-6449 1549 0
6450 -1550 -1131 0
-6450 1131 0
-6450 1550 0
6451 -1551 -1129 0
-6451 1129 0
-6451 1551 0
6869 -1969 -1550 0
-6869 1550 0
-6869 1969 0
6870 -1970 -1551 0
-6870 1551 0
-6870 1970 0
6871 -1971 -1549 0
-6871 1549 0
-6871 1971 0
7289 -2389 -1970 0
-7289 1970 0
-7289 2389 0
7290 -2390 -1971 0
-7290 1971 0
-7290 2390 0
7291 -2391 -1969 0
-7291 1969 0
-7291 2391 0
-7709 289 0
-7709 2389 0
-7709 -2810 0
7709 -289 -2389 2810 0
-7710 290 0
-7710 2390 0
-7710 -2811 0
7710 -290 -2390 2811 0
-7711 291 0
-7711 2391 0
-7711 -2809 0
7711 -291 -2391 2809 0
-3038 8132 8133 8134 0
3038 -8132 0
8132 -292 -713 0
-8132 713 0
-8132 292 0
3038 -8133 0
8133 -293 -714 0
-8133 714 0
-8133 293 0
3038 -8134 0
8134 -294 -712 0
-8134 712 0
-8134 294 0
-3178 8552 8553 8554 0
3178 -8552 0
8552 -712 -1133 0
-8552 1133 0
-8552 712 0
3178 -8553 0
8553 -713 -1134 0
-8553 1134 0
-8553 713 0
3178 -8554 0
8554 -714 -1132 0
-8554 1132 0
-8554 714 0
-3318 8972 8973 8974 0
3318 -8972 0
8972 -1132 -1553 0
-8972 1553 0
-8972 1132 0
3318 -8973 0
8973 -1133 -1554 0
-8973 1554 0
-8973 1133 0
3318 -8974 0
8974 -1134 -1552 0
-8974 1552 0
-8974 1134 0
-3458 9392 9393 9394 0
3458 -9392 0
9392 -1552 -1973 0
-9392 1973 0
-9392 1552 0
3458 -9393 0
9393 -1553 -1974 0
-9393 1974 0
-9393 1553 0
3458 -9394 0
9394 -1554 -1972 0
-9394 1972 0
-9394 1554 0
-3598 9812 9813 9814 0
3598 -9812 0
9812 -1972 -2393 0
-9812 2393 0
-9812 1972 0
3598 -9813 0
9813 -1973 -2394 0
-9813 2394 0
-9813 1973 0
3598 -9814 0
9814 -1974 -2392 0
-9814 2392 0
-9814 1974 0
-3738 10232 10233 10234 0
3738 -10232 0
10232 -2392 -2813 0
-10232 2813 0
-10232 2392 0
3738 -10233 0
10233 -2393 -2814 0
-10233 2814 0
-10233 2393 0
3738 -10234 0
10234 -2394 -2812 0
-10234 2812 0
-10234 2394 0
-4158 5612 5613 5614 0
4158 -5612 0
4158 -5613 0
4158 -5614 0
-4298 6032 6033 6034 0
4298 -6032 0
4298 -6033 0
4298 -6034 0
-4438 6452 6453 6454 0
4438 -6452 0
4438 -6453 0
4438 -6454 0
-4578 6872 6873 6874 0
4578 -6872 0
4578 -6873 0
4578 -6874 0
-4718 7292 7293 7294 0
4718 -7292 0
4718 -7293 0
4718 -7294 0
-4858 7712 7713 7714 0
4858 -7712 0
4858 -7713 0
4858 -7714 0
5612 -712 -293 0
-5612 293 0
-5612 712 0
5613 -713 -294 0
-5613 294 0
-5613 713 0
5614 -714 -292 0
-5614 292 0
-5614 714 0
6032 -1132 -713 0
-6032 713 0
-6032 1132 0
6033 -1133 -714 0
-6033 714 0
-6033 1133 0
6034 -1134 -712 0
-6034 712 0
-6034 1134 0
6452 -1552 -1133 0
-6452 1133 0
-6452 1552 0
6453 -1553 -1134 0
-6453 1134 0
-6453 1553 0
6454 -1554 -1132 0
-6454 1132 0
-6454 1554 0
6872 -1972 -1553 0
-6872 1553 0
-6872 1972 0
6873 -1973 -1554 0
-6873 1554 0
-6873 1973 0
6874 -1974 -1552 0
-6874 1552 0
-6874 1974 0
7292 -2392 -1973 0
-7292 1973 0
-7292 2392 0
7293 -2393 -1974 0
-7293 1974 0
-7293 2393 0
7294 -2394 -1972 0
-7294 1972 0
-7294 2394 0
-7712 292 0
-7712 2392 0
-7712 -2813 0
7712 -292 -2392 2813 0
-7713 293 0
-7713 2393 0
-7713 -2814 0
7713 -293 -2393 2814 0
-7714 294 0
-7714 2394 0
-7714 -2812 0
7714 -294 -2394 2812 0
-3039 8135 8136 8137 0
3039 -8135 0
8135 -295 -716 0
-8135 716 0
-8135 295 0
3039 -8136 0
8136 -296 -717 0
-8136 717 0
-8136 296 0
3039 -8137 0
8137 -297 -715 0
-8137 715 0
-8137 297 0
-3179 8555 8556 8557 0
3179 -8555 0
8555 -715 -1136 0
-8555 1136 0
-8555 715 0
3179 -8556 0
8556 -716 -1137 0
-8556 1137 0
-8556 716 0
3179 -8557 0
8557 -717 -1135 0
-8557 1135 0
-8557 717 0
-3319 8975 8976 8977 0
3319 -8975 0
8975 -1135 -1556 0
-8975 1556 0
-8975 1135 0
3319 -8976 0
8976 -1136 -1557 0
-8976 1557 0
-8976 1136 0
3319 -8977 0
8977 -1137 -1555 0
-8977 1555 0
-8977 1137 0
-3459 9395 9396 9397 0
3459 -9395 0
9395 -1555 -1976 0
-9395 1976 0
-9395 1555 0
3459 -9396 0
9396 -1556 -1977 0
-9396 1977 0
-9396 1556 0
3459 -9397 0
9397 -1557 -1975 0
-9397 1975 0
-9397 1557 0
-3599 9815 9816 9817 0
3599 -9815 0
9815 -1975 -2396 0
-9815 2396 0
-9815 1975 0
3599 -9816 0
9816 -1976 -2397 0
-9816 2397 0
-9816 1976 0
3599 -9817 0
9817 -1977 -2395 0
-9817 2395 0
-9817 1977 0
-3739 10235 10236 10237 0
3739 -10235 0
10235 -2395 -2816 0
-10235 2816 0
-10235 2395 0
3739 -10236 0
10236 -2396 -2817 0
-10236 2817 0
-10236 2396 0
3739 -10237 0
10237 -2397 -2815 0
-10237 2815 0
-10237 2397 0
-4159 5615 5616 5617 0
4159 -5615 0
4159 -5616 0
4159 -5617 0
-4299 6035 6036 6037 0
4299 -6035 0
4299 -6036 0
4299 -6037 0
-4439 6455 6456 6457 0
4439 -6455 0
4439 -6456 0
4439 -6457 0
-4579 6875 6876 6877 0
4579 -6875 0
4579 -6876 0
4579 -6877 0
-4719 7295 7296 7297 0
4719 -7295 0
4719 -7296 0
4719 -7297 0
-4859 7715 7716 7717 0
4859 -7715 0
4859 -7716 0
4859 -7717 0
5615 -715 -296 0
-5615 296 0
-5615 715 0
5616 -716 -297 0
-5616 297 0
-5616 716 0
5617 -717 -295 0
-5617 295 0
-5617 717 0
6035 -1135 -716 0
-6035 716 0
-6035 1135 0
6036 -1136 -717 0
-6036 717 0
-6036 1136 0
6037 -1137 -715 0
-6037 715 0
-6037 1137 0
6455 -1555 -1136 0
-6455 1136 0
-6455 1555 0
6456 -1556 -1137 0
-6456 1137 0
-6456 1556 0
6457 -1557 -1135 0
-6457 1135 0
-6457 1557 0
6875 -1975 -1556 0
-6875 1556 0
-6875 1975 0
6876 -1976 -1557 0
-6876 1557 0
-6876 1976 0
6877 -1977 -1555 0
-6877 1555 0
-6877 1977 0
7295 -2395 -1976 0
-7295 1976 0
-7295 2395 0
7296 -2396 -1977 0
-7296 1977 0
-7296 2396 0
7297 -2397 -1975 0
-7297 1975 0
-7297 2397 0
-7715 295 0
-7715 2395 0
-7715 -2816 0
7715 -295 -2395 2816 0
-7716 296 0
-7716 2396 0
-7716 -2817 0
7716 -296 -2396 2817 0
-7717 297 0
-7717 2397 0
-7717 -2815 0
7717 -297 -2397 2815 0
-3040 8138 8139 8140 0
3040 -8138 0
8138 -298 -719 0
-8138 719 0
-8138 298 0
3040 -8139 0
8139 -299 -720 0
-8139 720 0
-8139 299 0
3040 -8140 0
8140 -300 -718 0
-8140 718 0
-8140 300 0
-3180 8558 8559 8560 0
3180 -8558 0
8558 -718 -1139 0
-8558 1139 0
-8558 718 0
3180 -8559 0
8559 -719 -1140 0
-8559 1140 0
-8559 719 0
3180 -8560 0
8560 -720 -1138 0
-8560 1138 0
-8560 720 0
-3320 8978 8979 8980 0
3320 -8978 0
8978 -1138 -1559 0
-8978 1559 0
-8978 1138 0
3320 -8979 0
8979 -1139 -1560 0
-8979 1560 0
-8979 1139 0
3320 -8980 0
8980 -1140 -1558 0
-8980 1558 0
-8980 1140 0
-3460 9398 9399 9400 0
3460 -9398 0
9398 -1558 -1979 0
-9398 1979 0
-9398 1558 0
3460 -9399 0
9399 -1559 -1980 0
-9399 1980 0
-9399 1559 0
3460 -9400 0
9400 -1560 -1978 0
-9400 1978 0
-9400 1560 0
-3600 9818 9819 9820 0
3600 -9818 0
9818 -1978 -2399 0
-9818 2399 0
-9818 1978 0
3600 -9819 0
9819 -1979 -2400 0
-9819 2400 0
-9819 1979 0
3600 -9820 0
9820 -1980 -2398 0
-9820 2398 0
-9820 1980 0
-3740 10238 10239 10240 0
3740 -10238 0
10238 -2398 -2819 0
-10238 2819 0
-10238 2398 0
3740 -10239 0
10239 -2399 -2820 0
-10239 2820 0
-10239 2399 0
3740 -10240 0
10240 -2400 -2818 0
-10240 2818 0
-10240 2400 0
-4160 5618 5619 5620 0
4160 -5618 0
4160 -5619 0
4160 -5620 0
-4300 6038 6039 6040 0
4300 -6038 0
4300 -6039 0
4300 -6040 0
-4440 6458 6459 6460 0
4440 -6458 0
4440 -6459 0
4440 -6460 0
-4580 6878 6879 6880 0
4580 -6878 0
4580 -6879 0
4580 -6880 0
-4720 7298 7299 7300 0
4720 -7298 0
4720 -7299 0
4720 -7300 0
-4860 7718 7719 7720 0
4860 -7718 0
4860 -7719 0
4860 -7720 0
5618 -718 -299 0
-5618 299 0
-5618 718 0
5619 -719 -300 0
-5619 300 0
-5619 719 0
5620 -720 -298 0
-5620 298 0
-5620 720 0
6038 -1138 -719 0
-6038 719 0
-6038 1138 0
6039 -1139 -720 0
-6039 720 0
-6039 1139 0
6040 -1140 -718 0
-6040 718 0
-6040 1140 0
6458 -1558 -1139 0
-6458 1139 0
-6458 1558 0
6459 -1559 -1140 0
-6459 1140 0
-6459 1559 0
6460 -1560 -1138 0
-6460 1138 0
-6460 1560 0
6878 -1978 -1559 0
-6878 1559 0
-6878 1978 0
6879 -1979 -1560 0
-6879 1560 0
-6879 1979 0
6880 -1980 -1558 0
-6880 1558 0
-6880 1980 0
7298 -2398 -1979 0
-7298 1979 0
-7298 2398 0
7299 -2399 -1980 0
-7299 1980 0
-7299 2399 0
7300 -2400 -1978 0
-7300 1978 0
-7300 2400 0
-7718 298 0
-7718 2398 0
-7718 -2819 0
7718 -298 -2398 2819 0
-7719 299 0
-7719 2399 0
-7719 -2820 0
7719 -299 -2399 2820 0
-7720 300 0
-7720 2400 0
-7720 -2818 0
7720 -300 -2400 2818 0
-3041 8141 8142 8143 0
3041 -8141 0
8141 -301 -722 0
-8141 722 0
-8141 301 0
3041 -8142 0
8142 -302 -723 0
-8142 723 0
-8142 302 0
3041 -8143 0
8143 -303 -721 0
-8143 721 0
-8143 303 0
-3181 8561 8562 8563 0
3181 -8561 0
8561 -721 -1142 0
-8561 1142 0
-8561 721 0
3181 -8562 0
8562 -722 -1143 0
-8562 1143 0
-8562 722 0
3181 -8563 0
8563 -723 -1141 0
-8563 1141 0
-8563 723 0
-3321 8981 8982 8983 0
3321 -8981 0
8981 -1141 -1562 0
-8981 1562 0
-8981 1141 0
3321 -8982 0
8982 -1142 -1563 0
-8982 1563 0
-8982 1142 0
3321 -8983 0
8983 -1143 -1561 0
-8983 1561 0
-8983 1143 0
-3461 9401 9402 9403 0
3461 -9401 0
9401 -1561 -1982 0
-9401 1982 0
-9401 1561 0
3461 -9402 0
9402 -1562 -1983 0
-9402 1983 0
-9402 1562 0
3461 -9403 0
9403 -1563 -1981 0
-9403 1981 0
-9403 1563 0
-3601 9821 9822 9823 0
3601 -9821 0
9821 -1981 -2402 0
-9821 2402 0
-9821 1981 0
3601 -9822 0
9822 -1982 -2403 0
-9822 2403 0
-9822 1982 0
3601 -9823 0
9823 -1983 -2401 0
-9823 2401 0
-9823 1983 0
-3741 10241 10242 10243 0
3741 -10241 0
10241 -2401 -2822 0
-10241 2822 0
-10241 2401 0
3741 -10242 0
10242 -2402 -2823 0
-10242 2823 0
-10242 2402 0
3741 -10243 0
10243 -2403 -2821 0
-10243 2821 0
-10243 2403 0
-4161 5621 5622 5623 0
4161 -5621 0
4161 -5622 0
4161 -5623 0
-4301 6041 6042 6043 0
4301 -6041 0
4301 -6042 0
4301 -6043 0
-4441 6461 6462 6463 0
4441 -6461 0
4441 -6462 0
4441 -6463 0
-4581 6881 6882 6883 0
4581 -6881 0
4581 -6882 0
4581 -6883 0
-4721 7301 7302 7303 0
4721 -7301 0
4721 -7302 0
4721 -7303 0
-4861 7721 7722 7723 0
4861 -7721 0
4861 -7722 0
4861 -7723 0
5621 -721 -302 0
-5621 302 0
-5621 721 0
5622 -722 -303 0
-5622 303 0
-5622 722 0
5623 -723 -301 0
-5623 301 0
-5623 723 0
6041 -1141 -722 0
-6041 722 0
-6041 1141 0
6042 -1142 -723 0
-6042 723 0
-6042 1142 0
6043 -1143 -721 0
-6043 721 0
-6043 1143 0
6461 -1561 -1142 0
-6461 1142 0
-6461 1561 0
6462 -1562 -1143 0
-6462 1143 0
-6462 1562 0
6463 -1563 -1141 0
-6463 1141 0
-6463 1563 0
6881 -1981 -1562 0
-6881 1562 0
-6881 1981 0
6882 -1982 -1563 0
-6882 1563 0
-6882 1982 0
6883 -1983 -1561 0
-6883 1561 0
-6883 1983 0
7301 -2401 -1982 0
-7301 1982 0
-7301 2401 0
7302 -2402 -1983 0
-7302 1983 0
-7302 2402 0
7303 -2403 -1981 0
-7303 1981 0
-7303 2403 0
-7721 301 0
-7721 2401 0
-7721 -2822 0
7721 -301 -2401 2822 0
-7722 302 0
-7722 2402 0
-7722 -2823 0
7722 -302 -2402 2823 0
-7723 303 0
-7723 2403 0
-7723 -2821 0
7723 -303 -2403 2821 0
-3042 8144 8145 8146 0
3042 -8144 0
8144 -304 -725 0
-8144 725 0
-8144 304 0
3042 -8145 0
8145 -305 -726 0
-8145 726 0
-8145 305 0
3042 -8146 0
8146 -306 -724 0
-8146 724 0
-8146 306 0
-3182 8564 8565 8566 0
3182 -8564 0
8564 -724 -1145 0
-8564 1145 0
-8564 724 0
3182 -8565 0
8565 -725 -1146 0
-8565 1146 0
-8565 725 0
3182 -8566 0
8566 -726 -1144 0
-8566 1144 0
-8566 726 0
-3322 8984 8985 8986 0
3322 -8984 0
8984 -1144 -1565 0
-8984 1565 0
-8984 1144 0
3322 -8985 0
8985 -1145 -1566 0
-8985 1566 0
-8985 1145 0
3322 -8986 0
8986 -1146 -1564 0
-8986 1564 0
-8986 1146 0
-3462 9404 9405 9406 0
3462 -9404 0
9404 -1564 -1985 0
-9404 1985 0
-9404 1564 0
3462 -9405 0
9405 -1565 -1986 0
-9405 1986 0
-9405 1565 0
3462 -9406 0
9406 -1566 -1984 0
-9406 1984 0
-9406 1566 0
-3602 9824 9825 9826 0
3602 -9824 0
9824 -1984 -2405 0
-9824 2405 0
-9824 1984 0
3602 -9825 0
9825 -1985 -2406 0
-9825 2406 0
-9825 1985 0
3602 -9826 0
9826 -1986 -2404 0
-9826 2404 0
-9826 1986 0
-3742 10244 10245 10246 0
3742 -10244 0
10244 -2404 -2825 0
-10244 2825 0
-10244 2404 0
3742 -10245 0
10245 -2405 -2826 0
-10245 2826 0
-10245 2405 0
3742 -10246 0
10246 -2406 -2824 0
-10246 2824 0
-10246 2406 0
-4162 5624 5625 5626 0
4162 -5624 0
4162 -5625 0
4162 -5626 0
-4302 6044 6045 6046 0
4302 -6044 0
4302 -6045 0
4302 -6046 0
-4442 6464 6465 6466 0
4442 -6464 0
4442 -6465 0
4442 -6466 0
-4582 6884 6885 6886 0
4582 -6884 0
4582 -6885 0
4582 -6886 0
-4722 7304 7305 7306 0
4722 -7304 0
4722 -7305 0
4722 -7306 0
-4862 7724 7725 7726 0
4862 -7724 0
4862 -7725 0
4862 -7726 0
5624 -724 -305 0
-5624 305 0
-5624 724 0
5625 -725 -306 0
-5625 306 0
-5625 725 0
5626 -726 -304 0
-5626 304 0
-5626 726 0
6044 -1144 -725 0
-6044 725 0
-6044 1144 0
6045 -1145 -726 0
-6045 726 0
-6045 1145 0
6046 -1146 -724 0
-6046 724 0
-6046 1146 0
6464 -1564 -1145 0
-6464 1145 0
-6464 1564 0
6465 -1565 -1146 0
-6465 1146 0
-6465 1565 0
6466 -1566 -1144 0
-6466 1144 0
-6466 1566 0
6884 -1984 -1565 0
-6884 1565 0
-6884 1984 0
6885 -1985 -1566 0
-6885 1566 0
-6885 1985 0
6886 -1986 -1564 0
-6886 1564 0
-6886 1986 0
7304 -2404 -1985 0
-7304 1985 0
-7304 2404 0
7305 -2405 -1986 0
-7305 1986 0
-7305 2405 0
7306 -2406 -1984 0
-7306 1984 0
-7306 2406 0
-7724 304 0
-7724 2404 0
-7724 -2825 0
7724 -304 -2404 2825 0
-7725 305 0
-7725 2405 0
-7725 -2826 0
7725 -305 -2405 2826 0
-7726 306 0
-7726 2406 0
-7726 -2824 0
7726 -306 -2406 2824 0
-3043 8147 8148 8149 0
3043 -8147 0
8147 -307 -728 0
-8147 728 0
-8147 307 0
3043 -8148 0
8148 -308 -729 0
-8148 729 0
-8148 308 0
3043 -8149 0
8149 -309 -727 0
-8149 727 0
-8149 309 0
-3183 8567 8568 8569 0
3183 -8567 0
8567 -727 -1148 0
-8567 1148 0
-8567 727 0
3183 -8568 0
8568 -728 -1149 0
-8568 1149 0
-8568 728 0
3183 -8569 0
8569 -729 -1147 0
-8569 1147 0
-8569 729 0
-3323 8987 8988 8989 0
3323 -8987 0
8987 -1147 -1568 0
-8987 1568 0
-8987 1147 0
3323 -8988 0
8988 -1148 -1569 0
-8988 1569 0
-8988 1148 0
3323 -8989 0
8989 -1149 -1567 0
-8989 1567 0
-8989 1149 0
-3463 9407 9408 9409 0
3463 -9407 0
9407 -1567 -1988 0
-9407 1988 0
-9407 1567 0
3463 -9408 0
9408 -1568 -1989 0
-9408 1989 0
-9408 1568 0
3463 -9409 0
9409 -1569 -1987 0
-9409 1987 0
-9409 1569 0
-3603 9827 9828 9829 0
3603 -9827 0
9827 -1987 -2408 0
-9827 2408 0
-9827 1987 0
3603 -9828 0
9828 -1988 -2409 0
-9828 2409 0
-9828 1988 0
3603 -9829 0
9829 -1989 -2407 0
-9829 2407 0
-9829 1989 0
-3743 10247 10248 10249 0
3743 -10247 0
10247 -2407 -2828 0
-10247 2828 0
-10247 2407 0
3743 -10248 0
10248 -2408 -2829 0
-10248 2829 0
-10248 2408 0
3743 -10249 0
10249 -2409 -2827 0
-10249 2827 0
-10249 2409 0
-4163 5627 5628 5629 0
4163 -5627 0
4163 -5628 0
4163 -5629 0
-4303 6047 6048 6049 0
4303 -6047 0
4303 -6048 0
4303 -6049 0
-4443 6467 6468 6469 0
4443 -6467 0
4443 -6468 0
4443 -6469 0
-4583 6887 6888 6889 0
4583 -6887 0
4583 -6888 0
4583 -6889 0
-4723 7307 7308 7309 0
4723 -7307 0
4723 -7308 0
4723 -7309 0
-4863 7727 7728 7729 0
4863 -7727 0
4863 -7728 0
4863 -7729 0
5627 -727 -308 0
-5627 308 0
-5627 727 0
5628 -728 -309 0
-5628 309 0
-5628 728 0
5629 -729 -307 0
-5629 307 0
-5629 729 0
6047 -1147 -728 0
-6047 728 0
-6047 1147 0
6048 -1148 -729 0
-6048 729 0
-6048 1148 0
6049 -1149 -727 0
-6049 727 0
-6049 1149 0
6467 -1567 -1148 0
-6467 1148 0
-6467 1567 0
6468 -1568 -1149 0
-6468 1149 0
-6468 1568 0
6469 -1569 -1147 0
-6469 1147 0
-6469 1569 0
6887 -1987 -1568 0
-6887 1568 0
-6887 1987 0
6888 -1988 -1569 0
-6888 1569 0
-6888 1988 0
6889 -1989 -1567 0
-6889 1567 0
-6889 1989 0
7307 -2407 -1988 0
-7307 1988 0
-7307 2407 0
7308 -2408 -1989 0
-7308 1989 0
-7308 2408 0
7309 -2409 -1987 0
-7309 1987 0
-7309 2409 0
-7727 307 0
-7727 2407 0
-7727 -2828 0
7727 -307 -2407 2828 0
-7728 308 0
-7728 2408 0
-7728 -2829 0
7728 -308 -2408 2829 0
-7729 309 0
-7729 2409 0
-7729 -2827 0
7729 -309 -2409 2827 0
-3044 8150 8151 8152 0
3044 -8150 0
8150 -310 -731 0
-8150 731 0
-8150 310 0
3044 -8151 0
8151 -311 -732 0
-8151 732 0
-8151 311 0
3044 -8152 0
8152 -312 -730 0
-8152 730 0
-8152 312 0
-3184 8570 8571 8572 0
3184 -8570 0
8570 -730 -1151 0
-8570 1151 0
-8570 730 0
3184 -8571 0
8571 -731 -1152 0
-8571 1152 0
-8571 731 0
3184 -8572 0
8572 -732 -1150 0
-8572 1150 0
-8572 732 0
-3324 8990 8991 8992 0
3324 -8990 0
8990 -1150 -1571 0
-8990 1571 0
-8990 1150 0
3324 -8991 0
8991 -1151 -1572 0
-8991 1572 0
-8991 1151 0
3324 -8992 0
8992 -1152 -1570 0
-8992 1570 0
-8992 1152 0
-3464 9410 9411 9412 0
3464 -9410 0
9410 -1570 -1991 0
-9410 1991 0
-9410 1570 0
3464 -9411 0
9411 -1571 -1992 0
-9411 1992 0
-9411 1571 0
3464 -9412 0
9412 -1572 -1990 0
-9412 1990 0
-9412 1572 0
-3604 9830 9831 9832 0
3604 -9830 0
9830 -1990 -2411 0
-9830 2411 0
-9830 1990 0
3604 -9831 0
9831 -1991 -2412 0
-9831 2412 0
-9831 1991 0
3604 -9832 0
9832 -1992 -2410 0
-9832 2410 0
-9832 1992 0
-3744 10250 10251 10252 0
3744 -10250 0
10250 -2410 -2831 0
-10250 2831 0
-10250 2410 0
3744 -10251 0
10251 -2411 -2832 0
-10251 2832 0
-10251 2411 0
3744 -10252 0
10252 -2412 -2830 0
-10252 2830 0
-10252 2412 0
-4164 5630 5631 5632 0
4164 -5630 0
4164 -5631 0
4164 -5632 0
-4304 6050 6051 6052 0
4304 -6050 0
4304 -6051 0
4304 -6052 0
-4444 6470 6471 6472 0
4444 -6470 0
4444 -6471 0
4444 -6472 0
-4584 6890 6891 6892 0
4584 -6890 0
4584 -6891 0
4584 -6892 0
-4724 7310 7311 7312 0
4724 -7310 0
4724 -7311 0
4724 -7312 0
-4864 7730 7731 7732 0
4864 -7730 0
4864 -7731 0
4864 -7732 0
5630 -730 -311 0
-5630 311 0
-5630 730 0
5631 -731 -312 0
-5631 312 0
-5631 731 0
5632 -732 -310 0
-5632 310 0
-5632 732 0
6050 -1150 -731 0
-6050 731 0
-6050 1150 0
6051 -1151 -732 0
-6051 732 0
-6051 1151 0
6052 -1152 -730 0
-6052 730 0
-6052 1152 0
6470 -1570 -1151 0
-6470 1151 0
-6470 1570 0
6471 -1571 -1152 0
-6471 1152 0
-6471 1571 0
6472 -1572 -1150 0
-6472 1150 0
-6472 1572 0
6890 -1990 -1571 0
-6890 1571 0
-6890 1990 0
6891 -1991 -1572 0
-6891 1572 0
-6891 1991 0
6892 -1992 -1570 0
-6892 1570 0
-6892 1992 0
7310 -2410 -1991 0
-7310 1991 0
-7310 2410 0
7311 -2411 -1992 0
-7311 1992 0
-7311 2411 0
7312 -2412 -1990 0
-7312 1990 0
-7312 2412 0
-7730 310 0
-7730 2410 0
-7730 -2831 0
7730 -310 -2410 2831 0
-7731 311 0
-7731 2411 0
-7731 -2832 0
7731 -311 -2411 2832 0
-7732 312 0
-7732 2412 0
-7732 -2830 0
7732 -312 -2412 2830 0
-3045 8153 8154 8155 0
3045 -8153 0
8153 -313 -734 0
-8153 734 0
-8153 313 0
3045 -8154 0
8154 -314 -735 0
-8154 735 0
-8154 314 0
3045 -8155 0
8155 -315 -733 0
-8155 733 0
-8155 315 0
-3185 8573 8574 8575 0
3185 -8573 0
8573 -733 -1154 0
-8573 1154 0
-8573 733 0
3185 -8574 0
8574 -734 -1155 0
-8574 1155 0
-8574 734 0
3185 -8575 0
8575 -735 -1153 0
-8575 1153 0
-8575 735 0
-3325 8993 8994 8995 0
3325 -8993 0
8993 -1153 -1574 0
-8993 1574 0
-8993 1153 0
3325 -8994 0
8994 -1154 -1575 0
-8994 1575 0
-8994 1154 0
3325 -8995 0
8995 -1155 -1573 0
-8995 1573 0
-8995 1155 0
-3465 9413 9414 9415 0
3465 -9413 0
9413 -1573 -1994 0
-9413 1994 0
-9413 1573 0
3465 -9414 0
9414 -1574 -1995 0
-9414 1995 0
-9414 1574 0
3465 -9415 0
9415 -1575 -1993 0
-9415 1993 0
-9415 1575 0
-3605 9833 9834 9835 0
3605 -9833 0
9833 -1993 -2414 0
-9833 2414 0
-9833 1993 0
3605 -9834 0
9834 -1994 -2415 0
-9834 2415 0
-9834 1994 0
3605 -9835 0
9835 -1995 -2413 0
-9835 2413 0
-9835 1995 0
-3745 10253 10254 10255 0
3745 -10253 0
10253 -2413 -2834 0
-10253 2834 0
-10253 2413 0
3745 -10254 0
10254 -2414 -2835 0
-10254 2835 0
-10254 2414 0
3745 -10255 0
10255 -2415 -2833 0
-10255 2833 0
-10255 2415 0
-4165 5633 5634 5635 0
4165 -5633 0
4165 -5634 0
4165 -5635 0
-4305 6053 6054 6055 0
4305 -6053 0
4305 -6054 0
4305 -6055 0
-4445 6473 6474 6475 0
4445 -6473 0
4445 -6474 0
4445 -6475 0
-4585 6893 6894 6895 0
4585 -6893 0
4585 -6894 0
4585 -6895 0
-4725 7313 7314 7315 0
4725 -7313 0
4725 -7314 0
4725 -7315 0
-4865 7733 7734 7735 0
4865 -7733 0
4865 -7734 0
4865 -7735 0
5633 -733 -314 0
-5633 314 0
-5633 733 0
5634 -734 -315 0
-5634 315 0
-5634 734 0
5635 -735 -313 0
-5635 313 0
-5635 735 0
6053 -1153 -734 0
-6053 734 0
-6053 1153 0
6054 -1154 -735 0
-6054 735 0
-6054 1154 0
6055 -1155 -733 0
-6055 733 0
-6055 1155 0
6473 -1573 -1154 0
-6473 1154 0
-6473 1573 0
6474 -1574 -1155 0
-6474 1155 0
-6474 1574 0
6475 -1575 -1153 0
-6475 1153 0
-6475 1575 0
6893 -1993 -1574 0
-6893 1574 0
-6893 1993 0
6894 -1994 -1575 0
-6894 1575 0
-6894 1994 0
6895 -1995 -1573 0
-6895 1573 0
-6895 1995 0
7313 -2413 -1994 0
-7313 1994 0
-7313 2413 0
7314 -2414 -1995 0
-7314 1995 0
-7314 2414 0
7315 -2415 -1993 0
-7315 1993 0
-7315 2415 0
-7733 313 0
-7733 2413 0
-7733 -2834 0
7733 -313 -2413 2834 0
-7734 314 0
-7734 2414 0
-7734 -2835 0
7734 -314 -2414 2835 0
-7735 315 0
-7735 2415 0
-7735 -2833 0
7735 -315 -2415 2833 0
-3046 8156 8157 8158 0
3046 -8156 0
8156 -316 -737 0
-8156 737 0
-8156 316 0
3046 -8157 0
8157 -317 -738 0
-8157 738 0
-8157 317 0
3046 -8158 0
8158 -318 -736 0
-8158 736 0
-8158 318 0
-3186 8576 8577 8578 0
3186 -8576 0
8576 -736 -1157 0
-8576 1157 0
-8576 736 0
3186 -8577 0
8577 -737 -1158 0
-8577 1158 0
-8577 737 0
3186 -8578 0
8578 -738 -1156 0
-8578 1156 0
-8578 738 0
-3326 8996 8997 8998 0
3326 -8996 0
8996 -1156 -1577 0
-8996 1577 0
-8996 1156 0
3326 -8997 0
8997 -1157 -1578 0
-8997 1578 0
-8997 1157 0
3326 -8998 0
8998 -1158 -1576 0
-8998 1576 0
-8998 1158 0
-3466 9416 9417 9418 0
3466 -9416 0
9416 -1576 -1997 0
-9416 1997 0
-9416 1576 0
3466 -9417 0
9417 -1577 -1998 0
-9417 1998 0
-9417 1577 0
3466 -9418 0
9418 -1578 -1996 0
-9418 1996 0
-9418 1578 0
-3606 9836 9837 9838 0
3606 -9836 0
9836 -1996 -2417 0
-9836 2417 0
-9836 1996 0
3606 -9837 0
9837 -1997 -2418 0
-9837 2418 0
-9837 1997 0
3606 -9838 0
9838 -1998 -2416 0
-9838 2416 0
-9838 1998 0
-3746 10256 10257 10258 0
3746 -10256 0
10256 -2416 -2837 0
-10256 2837 0
-10256 2416 0
3746 -10257 0
10257 -2417 -2838 0
-10257 2838 0
-10257 2417 0
3746 -10258 0
10258 -2418 -2836 0
-10258 2836 0
-10258 2418 0
-4166 5636 5637 5638 0
4166 -5636 0
4166 -5637 0
4166 -5638 0
-4306 6056 6057 6058 0
4306 -6056 0
4306 -6057 0
4306 -6058 0
-4446 6476 6477 6478 0
4446 -6476 0
4446 -6477 0
4446 -6478 0
-4586 6896 6897 6898 0
4586 -6896 0
4586 -6897 0
4586 -6898 0
-4726 7316 7317 7318 0
4726 -7316 0
4726 -7317 0
4726 -7318 0
-4866 7736 7737 7738 0
4866 -7736 0
4866 -7737 0
4866 -7738 0
5636 -736 -317 0
-5636 317 0
-5636 736 0
5637 -737 -318 0
-5637 318 0
-5637 737 0
5638 -738 -316 0
-5638 316 0
-5638 738 0
6056 -1156 -737 0
-6056 737 0
-6056 1156 0
6057 -1157 -738 0
-6057 738 0
-6057 1157 0
6058 -1158 -736 0
-6058 736 0
-6058 1158 0
6476 -1576 -1157 0
-6476 1157 0
-6476 1576 0
6477 -1577 -1158 0
-6477 1158 0
-6477 1577 0
6478 -1578 -1156 0
-6478 1156 0
-6478 1578 0
6896 -1996 -1577 0
-6896 1577 0
-6896 1996 0
6897 -1997 -1578 0
-6897 1578 0
-6897 1997 0
6898 -1998 -1576 0
-6898 1576 0
-6898 1998 0
7316 -2416 -1997 0
-7316 1997 0
-7316 2416 0
7317 -2417 -1998 0
-7317 1998 0
-7317 2417 0
7318 -2418 -1996 0
-7318 1996 0
-7318 2418 0
-7736 316 0
-7736 2416 0
-7736 -2837 0
7736 -316 -2416 2837 0
-7737 317 0
-7737 2417 0
-7737 -2838 0
7737 -317 -2417 2838 0
-7738 318 0
-7738 2418 0
-7738 -2836 0
7738 -318 -2418 2836 0
-3047 8159 8160 8161 0
3047 -8159 0
8159 -319 -740 0
-8159 740 0
-8159 319 0
3047 -8160 0
8160 -320 -741 0
-8160 741 0
-8160 320 0
3047 -8161 0
8161 -321 -739 0
-8161 739 0
-8161 321 0
-3187 8579 8580 8581 0
3187 -8579 0
8579 -739 -1160 0
-8579 1160 0
-8579 739 0
3187 -8580 0
8580 -740 -1161 0
-8580 1161 0
-8580 740 0
3187 -8581 0
8581 -741 -1159 0
-8581 1159 0
-8581 741 0
-3327 8999 9000 9001 0
3327 -8999 0
8999 -1159 -1580 0
-8999 1580 0
-8999 1159 0
3327 -9000 0
9000 -1160 -1581 0
-9000 1581 0
-9000 1160 0
3327 -9001 0
9001 -1161 -1579 0
-9001 1579 0
-9001 1161 0
-3467 9419 9420 9421 0
3467 -9419 0
9419 -1579 -2000 0
-9419 2000 0
-9419 1579 0
3467 -9420 0
9420 -1580 -2001 0
-9420 2001 0
-9420 1580 0
3467 -9421 0
9421 -1581 -1999 0
-9421 1999 0
-9421 1581 0
-3607 9839 9840 9841 0
3607 -9839 0
9839 -1999 -2420 0
-9839 2420 0
-9839 1999 0
3607 -9840 0
9840 -2000 -2421 0
-9840 2421 0
-9840 2000 0
3607 -9841 0
9841 -2001 -2419 0
-9841 2419 0
-9841 2001 0
-3747 10259 10260 10261 0
3747 -10259 0
10259 -2419 -2840 0
-10259 2840 0
-10259 2419 0
3747 -10260 0
10260 -2420 -2841 0
-10260 2841 0
-10260 2420 0
3747 -10261 0
10261 -2421 -2839 0
-10261 2839 0
-10261 2421 0
-4167 5639 5640 5641 0
4167 -5639 0
4167 -5640 0
4167 -5641 0
-4307 6059 6060 6061 0
4307 -6059 0
4307 -6060 0
4307 -6061 0
-4447 6479 6480 6481 0
4447 -6479 0
4447 -6480 0
4447 -6481 0
-4587 6899 6900 6901 0
4587 -6899 0
4587 -6900 0
4587 -6901 0
-4727 7319 7320 7321 0
4727 -7319 0
4727 -7320 0
4727 -7321 0
-4867 7739 7740 7741 0
4867 -7739 0
4867 -7740 0
4867 -7741 0
5639 -739 -320 0
-5639 320 0
-5639 739 0
5640 -740 -321 0
-5640 321 0
-5640 740 0
5641 -741 -319 0
-5641 319 0
-5641 741 0
6059 -1159 -740 0
-6059 740 0
-6059 1159 0
6060 -1160 -741 0
-6060 741 0
-6060 1160 0
6061 -1161 -739 0
-6061 739 0
-6061 1161 0
6479 -1579 -1160 0
-6479 1160 0
-6479 1579 0
6480 -1580 -1161 0
-6480 1161 0
-6480 1580 0
6481 -1581 -1159 0
-6481 1159 0
-6481 1581 0
6899 -1999 -1580 0
-6899 1580 0
-6899 1999 0
6900 -2000 -1581 0
-6900 1581 0
-6900 2000 0
6901 -2001 -1579 0
-6901 1579 0
-6901 2001 0
7319 -2419 -2000 0
-7319 2000 0
-7319 2419 0
7320 -2420 -2001 0
-7320 2001 0
-7320 2420 0
7321 -2421 -1999 0
-7321 1999 0
-7321 2421 0
-7739 319 0
-7739 2419 0
-7739 -2840 0
7739 -319 -2419 2840 0
-7740 320 0
-7740 2420 0
-7740 -2841 0
7740 -320 -2420 2841 0
-7741 321 0
-7741 2421 0
-7741 -2839 0
7741 -321 -2421 2839 0
-3048 8162 8163 8164 0
3048 -8162 0
8162 -322 -743 0
-8162 743 0
-8162 322 0
3048 -8163 0
8163 -323 -744 0
-8163 744 0
-8163 323 0
3048 -8164 0
8164 -324 -742 0
-8164 742 0
-8164 324 0
-3188 8582 8583 8584 0
3188 -8582 0
8582 -742 -1163 0
-8582 1163 0
-8582 742 0
3188 -8583 0
8583 -743 -1164 0
-8583 1164 0
-8583 743 0
3188 -8584 0
8584 -744 -1162 0
-8584 1162 0
-8584 744 0
-3328 9002 9003 9004 0
3328 -9002 0
9002 -1162 -1583 0
-9002 1583 0
-9002 1162 0
3328 -9003 0
9003 -1163 -1584 0
-9003 1584 0
-9003 1163 0
3328 -9004 0
9004 -1164 -1582 0
-9004 1582 0
-9004 1164 0
-3468 9422 9423 9424 0
3468 -9422 0
9422 -1582 -2003 0
-9422 2003 0
-9422 1582 0
3468 -9423 0
9423 -1583 -2004 0
-9423 2004 0
-9423 1583 0
3468 -9424 0
9424 -1584 -2002 0
-9424 2002 0
-9424 1584 0
-3608 9842 9843 9844 0
3608 -9842 0
9842 -2002 -2423 0
-9842 2423 0
-9842 2002 0
3608 -9843 0
9843 -2003 -2424 0
-9843 2424 0
-9843 2003 0
3608 -9844 0
9844 -2004 -2422 0
-9844 2422 0
-9844 2004 0
-3748 10262 10263 10264 0
3748 -10262 0
10262 -2422 -2843 0
-10262 2843 0
-10262 2422 0
3748 -10263 0
10263 -2423 -2844 0
-10263 2844 0
-10263 2423 0
3748 -10264 0
10264 -2424 -2842 0
-10264 2842 0
-10264 2424 0
-4168 5642 5643 5644 0
4168 -5642 0
4168 -5643 0
4168 -5644 0
-4308 6062 6063 6064 0
4308 -6062 0
4308 -6063 0
4308 -6064 0
-4448 6482 6483 6484 0
4448 -6482 0
4448 -6483 0
4448 -6484 0
-4588 6902 6903 6904 0
4588 -6902 0
4588 -6903 0
4588 -6904 0
-4728 7322 7323 7324 0
4728 -7322 0
4728 -7323 0
4728 -7324 0
-4868 7742 7743 7744 0
4868 -7742 0
4868 -7743 0
4868 -7744 0
5642 -742 -323 0
-5642 323 0
-5642 742 0
5643 -743 -324 0
-5643 324 0
-5643 743 0
5644 -744 -322 0
-5644 322 0
-5644 744 0
6062 -1162 -743 0
-6062 743 0
-6062 1162 0
6063 -1163 -744 0
-6063 744 0
-6063 1163 0
6064 -1164 -742 0
-6064 742 0
-6064 1164 0
6482 -1582 -1163 0
-6482 1163 0
-6482 1582 0
6483 -1583 -1164 0
-6483 1164 0
-6483 1583 0
6484 -1584 -1162 0
-6484 1162 0
-6484 1584 0
6902 -2002 -1583 0
-6902 1583 0
-6902 2002 0
6903 -2003 -1584 0
-6903 1584 0
-6903 2003 0
6904 -2004 -1582 0
-6904 1582 0
-6904 2004 0
7322 -2422 -2003 0
-7322 2003 0
-7322 2422 0
7323 -2423 -2004 0
-7323 2004 0
-7323 2423 0
7324 -2424 -2002 0
-7324 2002 0
-7324 2424 0
-7742 322 0
-7742 2422 0
-7742 -2843 0
7742 -322 -2422 2843 0
-7743 323 0
-7743 2423 0
-7743 -2844 0
7743 -323 -2423 2844 0
-7744 324 0
-7744 2424 0
-7744 -2842 0
7744 -324 -2424 2842 0
-3049 8165 8166 8167 0
3049 -8165 0
8165 -325 -746 0
-8165 746 0
-8165 325 0
3049 -8166 0
8166 -326 -747 0
-8166 747 0
-8166 326 0
3049 -8167 0
8167 -327 -745 0
-8167 745 0
-8167 327 0
-3189 8585 8586 8587 0
3189 -8585 0
8585 -745 -1166 0
-8585 1166 0
-8585 745 0
3189 -8586 0
8586 -746 -1167 0
-8586 1167 0
-8586 746 0
3189 -8587 0
8587 -747 -1165 0
-8587 1165 0
-8587 747 0
-3329 9005 9006 9007 0
3329 -9005 0
9005 -1165 -1586 0
-9005 1586 0
-9005 1165 0
3329 -9006 0
9006 -1166 -1587 0
-9006 1587 0
-9006 1166 0
3329 -9007 0
9007 -1167 -1585 0
-9007 1585 0
-9007 1167 0
-3469 9425 9426 9427 0
3469 -9425 0
9425 -1585 -2006 0
-9425 2006 0
-9425 1585 0
3469 -9426 0
9426 -1586 -2007 0
-9426 2007 0
-9426 1586 0
3469 -9427 0
9427 -1587 -2005 0
-9427 2005 0
-9427 1587 0
-3609 9845 9846 9847 0
3609 -9845 0
9845 -2005 -2426 0
-9845 2426 0
-9845 2005 0
3609 -9846 0
9846 -2006 -2427 0
-9846 2427 0
-9846 2006 0
3609 -9847 0
9847 -2007 -2425 0
-9847 2425 0
-9847 2007 0
-3749 10265 10266 10267 0
3749 -10265 0
10265 -2425 -2846 0
-10265 2846 0
-10265 2425 0
3749 -10266 0
10266 -2426 -2847 0
-10266 2847 0
-10266 2426 0
3749 -10267 0
10267 -2427 -2845 0
-10267 2845 0
-10267 2427 0
-4169 5645 5646 5647 0
4169 -5645 0
4169 -5646 0
4169 -5647 0
-4309 6065 6066 6067 0
4309 -6065 0
4309 -6066 0
4309 -6067 0
-4449 6485 6486 6487 0
4449 -6485 0
4449 -6486 0
4449 -6487 0
-4589 6905 6906 6907 0
4589 -6905 0
4589 -6906 0
4589 -6907 0
-4729 7325 7326 7327 0
4729 -7325 0
4729 -7326 0
4729 -7327 0
-4869 7745 7746 7747 0
4869 -7745 0
4869 -7746 0
4869 -7747 0
5645 -745 -326 0
-5645 326 0
-5645 745 0
5646 -746 -327 0
-5646 327 0
-5646 746 0
5647 -747 -325 0
-5647 325 0
-5647 747 0
6065 -1165 -746 0
-6065 746 0
-6065 1165 0
6066 -1166 -747 0
-6066 747 0
-6066 1166 0
6067 -1167 -745 0
-6067 745 0
-6067 1167 0
6485 -1585 -1166 0
-6485 1166 0
-6485 1585 0
6486 -1586 -1167 0
-6486 1167 0
-6486 1586 0
6487 -1587 -1165 0
-6487 1165 0
-6487 1587 0
6905 -2005 -1586 0
-6905 1586 0
-6905 2005 0
6906 -2006 -1587 0
-6906 1587 0
-6906 2006 0
6907 -2007 -1585 0
-6907 1585 0
-6907 2007 0
7325 -2425 -2006 0
-7325 2006 0
-7325 2425 0
7326 -2426 -2007 0
-7326 2007 0
-7326 2426 0
7327 -2427 -2005 0
-7327 2005 0
-7327 2427 0
-7745 325 0
-7745 2425 0
-7745 -2846 0
7745 -325 -2425 2846 0
-7746 326 0
-7746 2426 0
-7746 -2847 0
7746 -326 -2426 2847 0
-7747 327 0
-7747 2427 0
-7747 -2845 0
7747 -327 -2427 2845 0
-3050 8168 8169 8170 0
3050 -8168 0
8168 -328 -749 0
-8168 749 0
-8168 328 0
3050 -8169 0
8169 -329 -750 0
-8169 750 0
-8169 329 0
3050 -8170 0
8170 -330 -748 0
-8170 748 0
-8170 330 0
-3190 8588 8589 8590 0
3190 -8588 0
8588 -748 -1169 0
-8588 1169 0
-8588 748 0
3190 -8589 0
8589 -749 -1170 0
-8589 1170 0
-8589 749 0
3190 -8590 0
8590 -750 -1168 0
-8590 1168 0
-8590 750 0
-3330 9008 9009 9010 0
3330 -9008 0
9008 -1168 -1589 0
-9008 1589 0
-9008 1168 0
3330 -9009 0
9009 -1169 -1590 0
-9009 1590 0
-9009 1169 0
3330 -9010 0
9010 -1170 -1588 0
-9010 1588 0
-9010 1170 0
-3470 9428 9429 9430 0
3470 -9428 0
9428 -1588 -2009 0
-9428 2009 0
-9428 1588 0
3470 -9429 0
9429 -1589 -2010 0
-9429 2010 0
-9429 1589 0
3470 -9430 0
9430 -1590 -2008 0
-9430 2008 0
-9430 1590 0
-3610 9848 9849 9850 0
3610 -9848 0
9848 -2008 -2429 0
-9848 2429 0
-9848 2008 0
3610 -9849 0
9849 -2009 -2430 0
-9849 2430 0
-9849 2009 0
3610 -9850 0
9850 -2010 -2428 0
-9850 2428 0
-9850 2010 0
-3750 10268 10269 10270 0
3750 -10268 0
10268 -2428 -2849 0
-10268 2849 0
-10268 2428 0
3750 -10269 0
10269 -2429 -2850 0
-10269 2850 0
-10269 2429 0
3750 -10270 0
10270 -2430 -2848 0
-10270 2848 0
-10270 2430 0
-4170 5648 5649 5650 0
4170 -5648 0
4170 -5649 0
4170 -5650 0
-4310 6068 6069 6070 0
4310 -6068 0
4310 -6069 0
4310 -6070 0
-4450 6488 6489 6490 0
4450 -6488 0
4450 -6489 0
4450 -6490 0
-4590 6908 6909 6910 0
4590 -6908 0
4590 -6909 0
4590 -6910 0
-4730 7328 7329 7330 0
4730 -7328 0
4730 -7329 0
4730 -7330 0
-4870 7748 7749 7750 0
4870 -7748 0
4870 -7749 0
4870 -7750 0
5648 -748 -329 0
-5648 329 0
-5648 748 0
5649 -749 -330 0
-5649 330 0
-5649 749 0
5650 -750 -328 0
-5650 328 0
-5650 750 0
6068 -1168 -749 0
-6068 749 0
-6068 1168 0
6069 -1169 -750 0
-6069 750 0
-6069 1169 0
6070 -1170 -748 0
-6070 748 0
-6070 1170 0
6488 -1588 -1169 0
-6488 1169 0
-6488 1588 0
6489 -1589 -1170 0
-6489 1170 0
-6489 1589 0
6490 -1590 -1168 0
-6490 1168 0
-6490 1590 0
6908 -2008 -1589 0
-6908 1589 0
-6908 2008 0
6909 -2009 -1590 0
-6909 1590 0
-6909 2009 0
6910 -2010 -1588 0
-6910 1588 0
-6910 2010 0
7328 -2428 -2009 0
-7328 2009 0
-7328 2428 0
7329 -2429 -2010 0
-7329 2010 0
-7329 2429 0
7330 -2430 -2008 0
-7330 2008 0
-7330 2430 0
-7748 328 0
-7748 2428 0
-7748 -2849 0
7748 -328 -2428 2849 0
-7749 329 0
-7749 2429 0
-7749 -2850 0
7749 -329 -2429 2850 0
-7750 330 0
-7750 2430 0
-7750 -2848 0
7750 -330 -2430 2848 0
-3051 8171 8172 8173 0
3051 -8171 0
8171 -331 -752 0
-8171 752 0
-8171 331 0
3051 -8172 0
8172 -332 -753 0
-8172 753 0
-8172 332 0
3051 -8173 0
8173 -333 -751 0
-8173 751 0
-8173 333 0
-3191 8591 8592 8593 0
3191 -8591 0
8591 -751 -1172 0
-8591 1172 0
-8591 751 0
3191 -8592 0
8592 -752 -1173 0
-8592 1173 0
-8592 752 0
3191 -8593 0
8593 -753 -1171 0
-8593 1171 0
-8593 753 0
-3331 9011 9012 9013 0
3331 -9011 0
9011 -1171 -1592 0
-9011 1592 0
-9011 1171 0
3331 -9012 0
9012 -1172 -1593 0
-9012 1593 0
-9012 1172 0
3331 -9013 0
9013 -1173 -1591 0
-9013 1591 0
-9013 1173 0
-3471 9431 9432 9433 0
3471 -9431 0
9431 -1591 -2012 0
-9431 2012 0
-9431 1591 0
3471 -9432 0
9432 -1592 -2013 0
-9432 2013 0
-9432 1592 0
3471 -9433 0
9433 -1593 -2011 0
-9433 2011 0
-9433 1593 0
-3611 9851 9852 9853 0
3611 -9851 0
9851 -2011 -2432 0
-9851 2432 0
-9851 2011 0
3611 -9852 0
9852 -2012 -2433 0
-9852 2433 0
-9852 2012 0
3611 -9853 0
9853 -2013 -2431 0
-9853 2431 0
-9853 2013 0
-3751 10271 10272 10273 0
3751 -10271 0
10271 -2431 -2852 0
-10271 2852 0
-10271 2431 0
3751 -10272 0
10272 -2432 -2853 0
-10272 2853 0
-10272 2432 0
3751 -10273 0
10273 -2433 -2851 0
-10273 2851 0
-10273 2433 0
-4171 5651 5652 5653 0
4171 -5651 0
4171 -5652 0
4171 -5653 0
-4311 6071 6072 6073 0
4311 -6071 0
4311 -6072 0
4311 -6073 0
-4451 6491 6492 6493 0
4451 -6491 0
4451 -6492 0
4451 -6493 0
-4591 6911 6912 6913 0
4591 -6911 0
4591 -6912 0
4591 -6913 0
-4731 7331 7332 7333 0
4731 -7331 0
4731 -7332 0
4731 -7333 0
-4871 7751 7752 7753 0
4871 -7751 0
4871 -7752 0
4871 -7753 0
5651 -751 -332 0
-5651 332 0
-5651 751 0
5652 -752 -333 0
-5652 333 0
-5652 752 0
5653 -753 -331 0
-5653 331 0
-5653 753 0
6071 -1171 -752 0
-6071 752 0
-6071 1171 0
6072 -1172 -753 0
-6072 753 0
-6072 1172 0
6073 -1173 -751 0
-6073 751 0
-6073 1173 0
6491 -1591 -1172 0
-6491 1172 0
-6491 1591 0
6492 -1592 -1173 0
-6492 1173 0
-6492 1592 0
6493 -1593 -1171 0
-6493 1171 0
-6493 1593 0
6911 -2011 -1592 0
-6911 1592 0
-6911 2011 0
6912 -2012 -1593 0
-6912 1593 0
-6912 2012 0
6913 -2013 -1591 0
-6913 1591 0
-6913 2013 0
7331 -2431 -2012 0
-7331 2012 0
-7331 2431 0
7332 -2432 -2013 0
-7332 2013 0
-7332 2432 0
7333 -2433 -2011 0
-7333 2011 0
-7333 2433 0
-7751 331 0
-7751 2431 0
-7751 -2852 0
7751 -331 -2431 2852 0
-7752 332 0
-7752 2432 0
-7752 -2853 0
7752 -332 -2432 2853 0
-7753 333 0
-7753 2433 0
-7753 -2851 0
7753 -333 -2433 2851 0
-3052 8174 8175 8176 0
3052 -8174 0
8174 -334 -755 0
-8174 755 0
-8174 334 0
3052 -8175 0
8175 -335 -756 0
-8175 756 0
-8175 335 0
3052 -8176 0
8176 -336 -754 0
-8176 754 0
-8176 336 0
-3192 8594 8595 8596 0
3192 -8594 0
8594 -754 -1175 0
-8594 1175 0
-8594 754 0
3192 -8595 0
8595 -755 -1176 0
-8595 1176 0
-8595 755 0
3192 -8596 0
8596 -756 -1174 0
-8596 1174 0
-8596 756 0
-3332 9014 9015 9016 0
3332 -9014 0
9014 -1174 -1595 0
-9014 1595 0
-9014 1174 0
3332 -9015 0
9015 -1175 -1596 0
-9015 1596 0
-9015 1175 0
3332 -9016 0
9016 -1176 -1594 0
-9016 1594 0
-9016 1176 0
-3472 9434 9435 9436 0
3472 -9434 0
9434 -1594 -2015 0
-9434 2015 0
-9434 1594 0
3472 -9435 0
9435 -1595 -2016 0
-9435 2016 0
-9435 1595 0
3472 -9436 0
9436 -1596 -2014 0
-9436 2014 0
-9436 1596 0
-3612 9854 9855 9856 0
3612 -9854 0
9854 -2014 -2435 0
-9854 2435 0
-9854 2014 0
3612 -9855 0
9855 -2015 -2436 0
-9855 2436 0
-9855 2015 0
3612 -9856 0
9856 -2016 -2434 0
-9856 2434 0
-9856 2016 0
-3752 10274 10275 10276 0
3752 -10274 0
10274 -2434 -2855 0
-10274 2855 0
-10274 2434 0
3752 -10275 0
10275 -2435 -2856 0
-10275 2856 0
-10275 2435 0
3752 -10276 0
10276 -2436 -2854 0
-10276 2854 0
-10276 2436 0
-4172 5654 5655 5656 0
4172 -5654 0
4172 -5655 0
4172 -5656 0
-4312 6074 6075 6076 0
4312 -6074 0
4312 -6075 0
4312 -6076 0
-4452 6494 6495 6496 0
4452 -6494 0
4452 -6495 0
4452 -6496 0
-4592 6914 6915 6916 0
4592 -6914 0
4592 -6915 0
4592 -6916 0
-4732 7334 7335 7336 0
4732 -7334 0
4732 -7335 0
4732 -7336 0
-4872 7754 7755 7756 0
4872 -7754 0
4872 -7755 0
4872 -7756 0
5654 -754 -335 0
-5654 335 0
-5654 754 0
5655 -755 -336 0
-5655 336 0
-5655 755 0
5656 -756 -334 0
-5656 334 0
-5656 756 0
6074 -1174 -755 0
-6074 755 0
-6074 1174 0
6075 -1175 -756 0
-6075 756 0
-6075 1175 0
6076 -1176 -754 0
-6076 754 0
-6076 1176 0
6494 -1594 -1175 0
-6494 1175 0
-6494 1594 0
6495 -1595 -1176 0
-6495 1176 0
-6495 1595 0
6496 -1596 -1174 0
-6496 1174 0
-6496 1596 0
6914 -2014 -1595 0
-6914 1595 0
-6914 2014 0
6915 -2015 -1596 0
-6915 1596 0
-6915 2015 0
6916 -2016 -1594 0
-6916 1594 0
-6916 2016 0
7334 -2434 -2015 0
-7334 2015 0
-7334 2434 0
7335 -2435 -2016 0
-7335 2016 0
-7335 2435 0
7336 -2436 -2014 0
-7336 2014 0
-7336 2436 0
-7754 334 0
-7754 2434 0
-7754 -2855 0
7754 -334 -2434 2855 0
-7755 335 0
-7755 2435 0
-7755 -2856 0
7755 -335 -2435 2856 0
-7756 336 0
-7756 2436 0
-7756 -2854 0
7756 -336 -2436 2854 0
-3053 8177 8178 8179 0
3053 -8177 0
8177 -337 -758 0
-8177 758 0
-8177 337 0
3053 -8178 0
8178 -338 -759 0
-8178 759 0
-8178 338 0
3053 -8179 0
8179 -339 -757 0
-8179 757 0
-8179 339 0
-3193 8597 8598 8599 0
3193 -8597 0
8597 -757 -1178 0
-8597 1178 0
-8597 757 0
3193 -8598 0
8598 -758 -1179 0
-8598 1179 0
-8598 758 0
3193 -8599 0
8599 -759 -1177 0
-8599 1177 0
-8599 759 0
-3333 9017 9018 9019 0
3333 -9017 0
9017 -1177 -1598 0
-9017 1598 0
-9017 1177 0
3333 -9018 0
9018 -1178 -1599 0
-9018 1599 0
-9018 1178 0
3333 -9019 0
9019 -1179 -1597 0
-9019 1597 0
-9019 1179 0
-3473 9437 9438 9439 0
3473 -9437 0
9437 -1597 -2018 0
-9437 2018 0
-9437 1597 0
3473 -9438 0
9438 -1598 -2019 0
-9438 2019 0
-9438 1598 0
3473 -9439 0
9439 -1599 -2017 0
-9439 2017 0
-9439 1599 0
-3613 9857 9858 9859 0
3613 -9857 0
9857 -2017 -2438 0
-9857 2438 0
-9857 2017 0
3613 -9858 0
9858 -2018 -2439 0
-9858 2439 0
-9858 2018 0
3613 -9859 0
9859 -2019 -2437 0
-9859 2437 0
-9859 2019 0
-3753 10277 10278 10279 0
3753 -10277 0
10277 -2437 -2858 0
-10277 2858 0
-10277 2437 0
3753 -10278 0
10278 -2438 -2859 0
-10278 2859 0
-10278 2438 0
3753 -10279 0
10279 -2439 -2857 0
-10279 2857 0
-10279 2439 0
-4173 5657 5658 5659 0
4173 -5657 0
4173 -5658 0
4173 -5659 0
-4313 6077 6078 6079 0
4313 -6077 0
4313 -6078 0
4313 -6079 0
-4453 6497 6498 6499 0
4453 -6497 0
4453 -6498 0
4453 -6499 0
-4593 6917 6918 6919 0
4593 -6917 0
4593 -6918 0
4593 -6919 0
-4733 7337 7338 7339 0
4733 -7337 0
4733 -7338 0
4733 -7339 0
-4873 7757 7758 7759 0
4873 -7757 0
4873 -7758 0
4873 -7759 0
5657 -757 -338 0
-5657 338 0
-5657 757 0
5658 -758 -339 0
-5658 339 0
-5658 758 0
5659 -759 -337 0
-5659 337 0
-5659 759 0
6077 -1177 -758 0
-6077 758 0
-6077 1177 0
6078 -1178 -759 0
-6078 759 0
-6078 1178 0
6079 -1179 -757 0
-6079 757 0
-6079 1179 0
6497 -1597 -1178 0
-6497 1178 0
-6497 1597 0
6498 -1598 -1179 0
-6498 1179 0
-6498 1598 0
6499 -1599 -1177 0
-6499 1177 0
-6499 1599 0
6917 -2017 -1598 0
-6917 1598 0
-6917 2017 0
6918 -2018 -1599 0
-6918 1599 0
-6918 2018 0
6919 -2019 -1597 0
-6919 1597 0
-6919 2019 0
7337 -2437 -2018 0
-7337 2018 0
-7337 2437 0
7338 -2438 -2019 0
-7338 2019 0
-7338 2438 0
7339 -2439 -2017 0
-7339 2017 0
-7339 2439 0
-7757 337 0
-7757 2437 0
-7757 -2858 0
7757 -337 -2437 2858 0
-7758 338 0
-7758 2438 0
-7758 -2859 0
7758 -338 -2438 2859 0
-7759 339 0
-7759 2439 0
-7759 -2857 0
7759 -339 -2439 2857 0
-3054 8180 8181 8182 0
3054 -8180 0
8180 -340 -761 0
-8180 761 0
-8180 340 0
3054 -8181 0
8181 -341 -762 0
-8181 762 0
-8181 341 0
3054 -8182 0
8182 -342 -760 0
-8182 760 0
-8182 342 0
-3194 8600 8601 8602 0
3194 -8600 0
8600 -760 -1181 0
-8600 1181 0
-8600 760 0
3194 -8601 0
8601 -761 -1182 0
-8601 1182 0
-8601 761 0
3194 -8602 0
8602 -762 -1180 0
-8602 1180 0
-8602 762 0
-3334 9020 9021 9022 0
3334 -9020 0
9020 -1180 -1601 0
-9020 1601 0
-9020 1180 0
3334 -9021 0
9021 -1181 -1602 0
-9021 1602 0
-9021 1181 0
3334 -9022 0
9022 -1182 -1600 0
-9022 1600 0
-9022 1182 0
-3474 9440 9441 9442 0
3474 -9440 0
9440 -1600 -2021 0
-9440 2021 0
-9440 1600 0
3474 -9441 0
9441 -1601 -2022 0
-9441 2022 0
-9441 1601 0
3474 -9442 0
9442 -1602 -2020 0
-9442 2020 0
-9442 1602 0
-3614 9860 9861 9862 0
3614 -9860 0
9860 -2020 -2441 0
-9860 2441 0
-9860 2020 0
3614 -9861 0
9861 -2021 -2442 0
-9861 2442 0
-9861 2021 0
3614 -9862 0
9862 -2022 -2440 0
-9862 2440 0
-9862 2022 0
-3754 10280 10281 10282 0
3754 -10280 0
10280 -2440 -2861 0
-10280 2861 0
-10280 2440 0
3754 -10281 0
10281 -2441 -2862 0
-10281 2862 0
-10281 2441 0
3754 -10282 0
10282 -2442 -2860 0
-10282 2860 0
-10282 2442 0
-4174 5660 5661 5662 0
4174 -5660 0
4174 -5661 0
4174 -5662 0
-4314 6080 6081 6082 0
4314 -6080 0
4314 -6081 0
4314 -6082 0
-4454 6500 6501 6502 0
4454 -6500 0
4454 -6501 0
4454 -6502 0
-4594 6920 6921 6922 0
4594 -6920 0
4594 -6921 0
4594 -6922 0
-4734 7340 7341 7342 0
4734 -7340 0
4734 -7341 0
4734 -7342 0
-4874 7760 7761 7762 0
4874 -7760 0
4874 -7761 0
4874 -7762 0
5660 -760 -341 0
-5660 341 0
-5660 760 0
5661 -761 -342 0
-5661 342 0
-5661 761 0
5662 -762 -340 0
-5662 340 0
-5662 762 0
6080 -1180 -761 0
-6080 761 0
-6080 1180 0
6081 -1181 -762 0
-6081 762 0
-6081 1181 0
6082 -1182 -760 0
-6082 760 0
-6082 1182 0
6500 -1600 -1181 0
-6500 1181 0
-6500 1600 0
6501 -1601 -1182 0
-6501 1182 0
-6501 1601 0
6502 -1602 -1180 0
-6502 1180 0
-6502 1602 0
6920 -2020 -1601 0
-6920 1601 0
-6920 2020 0
6921 -2021 -1602 0
-6921 1602 0
-6921 2021 0
6922 -2022 -1600 0
-6922 1600 0
-6922 2022 0
7340 -2440 -2021 0
-7340 2021 0
-7340 2440 0
7341 -2441 -2022 0
-7341 2022 0
-7341 2441 0
7342 -2442 -2020 0
-7342 2020 0
-7342 2442 0
-7760 340 0
-7760 2440 0
-7760 -2861 0
7760 -340 -2440 2861 0
-7761 341 0
-7761 2441 0
-7761 -2862 0
7761 -341 -2441 2862 0
-7762 342 0
-7762 2442 0
-7762 -2860 0
7762 -342 -2442 2860 0
-3055 8183 8184 8185 0
3055 -8183 0
8183 -343 -764 0
-8183 764 0
-8183 343 0
3055 -8184 0
8184 -344 -765 0
-8184 765 0
-8184 344 0
3055 -8185 0
8185 -345 -763 0
-8185 763 0
-8185 345 0
-3195 8603 8604 8605 0
3195 -8603 0
8603 -763 -1184 0
-8603 1184 0
-8603 763 0
3195 -8604 0
8604 -764 -1185 0
-8604 1185 0
-8604 764 0
3195 -8605 0
8605 -765 -1183 0
-8605 1183 0
-8605 765 0
-3335 9023 9024 9025 0
3335 -9023 0
9023 -1183 -1604 0
-9023 1604 0
-9023 1183 0
3335 -9024 0
9024 -1184 -1605 0
-9024 1605 0
-9024 1184 0
3335 -9025 0
9025 -1185 -1603 0
-9025 1603 0
-9025 1185 0
-3475 9443 9444 9445 0
3475 -9443 0
9443 -1603 -2024 0
-9443 2024 0
-9443 1603 0
3475 -9444 0
9444 -1604 -2025 0
-9444 2025 0
-9444 1604 0
3475 -9445 0
9445 -1605 -2023 0
-9445 2023 0
-9445 1605 0
-3615 9863 9864 9865 0
3615 -9863 0
9863 -2023 -2444 0
-9863 2444 0
-9863 2023 0
3615 -9864 0
9864 -2024 -2445 0
-9864 2445 0
-9864 2024 0
3615 -9865 0
9865 -2025 -2443 0
-9865 2443 0
-9865 2025 0
-3755 10283 10284 10285 0
3755 -10283 0
10283 -2443 -2864 0
-10283 2864 0
-10283 2443 0
3755 -10284 0
10284 -2444 -2865 0
-10284 2865 0
-10284 2444 0
3755 -10285 0
10285 -2445 -2863 0
-10285 2863 0
-10285 2445 0
-4175 5663 5664 5665 0
4175 -5663 0
4175 -5664 0
4175 -5665 0
-4315 6083 6084 6085 0
4315 -6083 0
4315 -6084 0
4315 -6085 0
-4455 6503 6504 6505 0
4455 -6503 0
4455 -6504 0
4455 -6505 0
-4595 6923 6924 6925 0
4595 -6923 0
4595 -6924 0
4595 -6925 0
-4735 7343 7344 7345 0
4735 -7343 0
4735 -7344 0
4735 -7345 0
-4875 7763 7764 7765 0
4875 -7763 0
4875 -7764 0
4875 -7765 0
5663 -763 -344 0
-5663 344 0
-5663 763 0
5664 -764 -345 0
-5664 345 0
-5664 764 0
5665 -765 -343 0
-5665 343 0
-5665 765 0
6083 -1183 -764 0
-6083 764 0
-6083 1183 0
6084 -1184 -765 0
-6084 765 0
-6084 1184 0
6085 -1185 -763 0
-6085 763 0
-6085 1185 0
6503 -1603 -1184 0
-6503 1184 0
-6503 1603 0
6504 -1604 -1185 0
-6504 1185 0
-6504 1604 0
6505 -1605 -1183 0
-6505 1183 0
-6505 1605 0
6923 -2023 -1604 0
-6923 1604 0
-6923 2023 0
6924 -2024 -1605 0
-6924 1605 0
-6924 2024 0
6925 -2025 -1603 0
-6925 1603 0
-6925 2025 0
7343 -2443 -2024 0
-7343 2024 0
-7343 2443 0
7344 -2444 -2025 0
-7344 2025 0
-7344 2444 0
7345 -2445 -2023 0
-7345 2023 0
-7345 2445 0
-7763 343 0
-7763 2443 0
-7763 -2864 0
7763 -343 -2443 2864 0
-7764 344 0
-7764 2444 0
-7764 -2865 0
7764 -344 -2444 2865 0
-7765 345 0
-7765 2445 0
-7765 -2863 0
7765 -345 -2445 2863 0
-3056 8186 8187 8188 0
3056 -8186 0
8186 -346 -767 0
-8186 767 0
-8186 346 0
3056 -8187 0
8187 -347 -768 0
-8187 768 0
-8187 347 0
3056 -8188 0
8188 -348 -766 0
-8188 766 0
-8188 348 0
-3196 8606 8607 8608 0
3196 -8606 0
8606 -766 -1187 0
-8606 1187 0
-8606 766 0
3196 -8607 0
8607 -767 -1188 0
-8607 1188 0
-8607 767 0
3196 -8608 0
8608 -768 -1186 0
-8608 1186 0
-8608 768 0
-3336 9026 9027 9028 0
3336 -9026 0
9026 -1186 -1607 0
-9026 1607 0
-9026 1186 0
3336 -9027 0
9027 -1187 -1608 0
-9027 1608 0
-9027 1187 0
3336 -9028 0
9028 -1188 -1606 0
-9028 1606 0
-9028 1188 0
-3476 9446 9447 9448 0
3476 -9446 0
9446 -1606 -2027 0
-9446 2027 0
-9446 1606 0
3476 -9447 0
9447 -1607 -2028 0
-9447 2028 0
-9447 1607 0
3476 -9448 0
9448 -1608 -2026 0
-9448 2026 0
-9448 1608 0
-3616 9866 9867 9868 0
3616 -9866 0
9866 -2026 -2447 0
-9866 2447 0
-9866 2026 0
3616 -9867 0
9867 -2027 -2448 0
-9867 2448 0
-9867 2027 0
3616 -9868 0
9868 -2028 -2446 0
-9868 2446 0
-9868 2028 0
-3756 10286 10287 10288 0
3756 -10286 0
10286 -2446 -2867 0
-10286 2867 0
-10286 2446 0
3756 -10287 0
10287 -2447 -2868 0
-10287 2868 0
-10287 2447 0
3756 -10288 0
10288 -2448 -2866 0
-10288 2866 0
-10288 2448 0
-4176 5666 5667 5668 0
4176 -5666 0
4176 -5667 0
4176 -5668 0
-4316 6086 6087 6088 0
4316 -6086 0
4316 -6087 0
4316 -6088 0
-4456 6506 6507 6508 0
4456 -6506 0
4456 -6507 0
4456 -6508 0
-4596 6926 6927 6928 0
4596 -6926 0
4596 -6927 0
4596 -6928 0
-4736 7346 7347 7348 0
4736 -7346 0
4736 -7347 0
4736 -7348 0
-4876 7766 7767 7768 0
4876 -7766 0
4876 -7767 0
4876 -7768 0
5666 -766 -347 0
-5666 347 0
-5666 766 0
5667 -767 -348 0
-5667 348 0
-5667 767 0
5668 -768 -346 0
-5668 346 0
-5668 768 0
6086 -1186 -767 0
-6086 767 0
-6086 1186 0
6087 -1187 -768 0
-6087 768 0
-6087 1187 0
6088 -1188 -766 0
-6088 766 0
-6088 1188 0
6506 -1606 -1187 0
-6506 1187 0
-6506 1606 0
6507 -1607 -1188 0
-6507 1188 0
-6507 1607 0
6508 -1608 -1186 0
-6508 1186 0
-6508 1608 0
6926 -2026 -1607 0
-6926 1607 0
-6926 2026 0
6927 -2027 -1608 0
-6927 1608 0
-6927 2027 0
6928 -2028 -1606 0
-6928 1606 0
-6928 2028 0
7346 -2446 -2027 0
-7346 2027 0
-7346 2446 0
7347 -2447 -2028 0
-7347 2028 0
-7347 2447 0
7348 -2448 -2026 0
-7348 2026 0
-7348 2448 0
-7766 346 0
-7766 2446 0
-7766 -2867 0
7766 -346 -2446 2867 0
-7767 347 0
-7767 2447 0
-7767 -2868 0
7767 -347 -2447 2868 0
-7768 348 0
-7768 2448 0
-7768 -2866 0
7768 -348 -2448 2866 0
-3057 8189 8190 8191 0
3057 -8189 0
8189 -349 -770 0
-8189 770 0
-8189 349 0
3057 -8190 0
8190 -350 -771 0
-8190 771 0
-8190 350 0
3057 -8191 0
8191 -351 -769 0
-8191 769 0
-8191 351 0
-3197 8609 8610 8611 0
3197 -8609 0
8609 -769 -1190 0
-8609 1190 0
-8609 769 0
3197 -8610 0
8610 -770 -1191 0
-8610 1191 0
-8610 770 0
3197 -8611 0
8611 -771 -1189 0
-8611 1189 0
-8611 771 0
-3337 9029 9030 9031 0
3337 -9029 0
9029 -1189 -1610 0
-9029 1610 0
-9029 1189 0
3337 -9030 0
9030 -1190 -1611 0
-9030 1611 0
-9030 1190 0
3337 -9031 0
9031 -1191 -1609 0
-9031 1609 0
-9031 1191 0
-3477 9449 9450 9451 0
3477 -9449 0
9449 -1609 -2030 0
-9449 2030 0
-9449 1609 0
3477 -9450 0
9450 -1610 -2031 0
-9450 2031 0
-9450 1610 0
3477 -9451 0
9451 -1611 -2029 0
-9451 2029 0
-9451 1611 0
-3617 9869 9870 9871 0
3617 -9869 0
9869 -2029 -2450 0
-9869 2450 0
-9869 2029 0
3617 -9870 0
9870 -2030 -2451 0
-9870 2451 0
-9870 2030 0
3617 -9871 0
9871 -2031 -2449 0
-9871 2449 0
-9871 2031 0
-3757 10289 10290 10291 0
3757 -10289 0
10289 -2449 -2870 0
-10289 2870 0
-10289 2449 0
3757 -10290 0
10290 -2450 -2871 0
-10290 2871 0
-10290 2450 0
3757 -10291 0
10291 -2451 -2869 0
-10291 2869 0
-10291 2451 0
-4177 5669 5670 5671 0
4177 -5669 0
4177 -5670 0
4177 -5671 0
-4317 6089 6090 6091 0
4317 -6089 0
4317 -6090 0
4317 -6091 0
-4457 6509 6510 6511 0
4457 -6509 0
4457 -6510 0
4457 -6511 0
-4597 6929 6930 6931 0
4597 -6929 0
4597 -6930 0
4597 -6931 0
-4737 7349 7350 7351 0
4737 -7349 0
4737 -7350 0
4737 -7351 0
-4877 7769 7770 7771 0
4877 -7769 0
4877 -7770 0
4877 -7771 0
5669 -769 -350 0
-5669 350 0
-5669 769 0
5670 -770 -351 0
-5670 351 0
-5670 770 0
5671 -771 -349 0
-5671 349 0
-5671 771 0
6089 -1189 -770 0
-6089 770 0
-6089 1189 0
6090 -1190 -771 0
-6090 771 0
-6090 1190 0
6091 -1191 -769 0
-6091 769 0
-6091 1191 0
6509 -1609 -1190 0
-6509 1190 0
-6509 1609 0
6510 -1610 -1191 0
-6510 1191 0
-6510 1610 0
6511 -1611 -1189 0
-6511 1189 0
-6511 1611 0
6929 -2029 -1610 0
-6929 1610 0
-6929 2029 0
6930 -2030 -1611 0
-6930 1611 0
-6930 2030 0
6931 -2031 -1609 0
-6931 1609 0
-6931 2031 0
7349 -2449 -2030 0
-7349 2030 0
-7349 2449 0
7350 -2450 -2031 0
-7350 2031 0
-7350 2450 0
7351 -2451 -2029 0
-7351 2029 0
-7351 2451 0
-7769 349 0
-7769 2449 0
-7769 -2870 0
7769 -349 -2449 2870 0
-7770 350 0
-7770 2450 0
-7770 -2871 0
7770 -350 -2450 2871 0
-7771 351 0
-7771 2451 0
-7771 -2869 0
7771 -351 -2451 2869 0
-3058 8192 8193 8194 0
3058 -8192 0
8192 -352 -773 0
-8192 773 0
-8192 352 0
3058 -8193 0
8193 -353 -774 0
-8193 774 0
-8193 353 0
3058 -8194 0
8194 -354 -772 0
-8194 772 0
-8194 354 0
-3198 8612 8613 8614 0
3198 -8612 0
8612 -772 -1193 0
-8612 1193 0
-8612 772 0
3198 -8613 0
8613 -773 -1194 0
-8613 1194 0
-8613 773 0
3198 -8614 0
8614 -774 -1192 0
-8614 1192 0
-8614 774 0
-3338 9032 9033 9034 0
3338 -9032 0
9032 -1192 -1613 0
-9032 1613 0
-9032 1192 0
3338 -9033 0
9033 -1193 -1614 0
-9033 1614 0
-9033 1193 0
3338 -9034 0
9034 -1194 -1612 0
-9034 1612 0
-9034 1194 0
-3478 9452 9453 9454 0
3478 -9452 0
9452 -1612 -2033 0
-9452 2033 0
-9452 1612 0
3478 -9453 0
9453 -1613 -2034 0
-9453 2034 0
-9453 1613 0
3478 -9454 0
9454 -1614 -2032 0
-9454 2032 0
-9454 1614 0
-3618 9872 9873 9874 0
3618 -9872 0
9872 -2032 -2453 0
-9872 2453 0
-9872 2032 0
3618 -9873 0
9873 -2033 -2454 0
-9873 2454 0
-9873 2033 0
3618 -9874 0
9874 -2034 -2452 0
-9874 2452 0
-9874 2034 0
-3758 10292 10293 10294 0
3758 -10292 0
10292 -2452 -2873 0
-10292 2873 0
-10292 2452 0
3758 -10293 0
10293 -2453 -2874 0
-10293 2874 0
-10293 2453 0
3758 -10294 0
10294 -2454 -2872 0
-10294 2872 0
-10294 2454 0
-4178 5672 5673 5674 0
4178 -5672 0
4178 -5673 0
4178 -5674 0
-4318 6092 6093 6094 0
4318 -6092 0
4318 -6093 0
4318 -6094 0
-4458 6512 6513 6514 0
4458 -6512 0
4458 -6513 0
4458 -6514 0
-4598 6932 6933 6934 0
4598 -6932 0
4598 -6933 0
4598 -6934 0
-4738 7352 7353 7354 0
4738 -7352 0
4738 -7353 0
4738 -7354 0
-4878 7772 7773 7774 0
4878 -7772 0
4878 -7773 0
4878 -7774 0
5672 -772 -353 0
-5672 353 0
-5672 772 0
5673 -773 -354 0
-5673 354 0
-5673 773 0
5674 -774 -352 0
-5674 352 0
-5674 774 0
6092 -1192 -773 0
-6092 773 0
-6092 1192 0
6093 -1193 -774 0
-6093 774 0
-6093 1193 0
6094 -1194 -772 0
-6094 772 0
-6094 1194 0
6512 -1612 -1193 0
-6512 1193 0
-6512 1612 0
6513 -1613 -1194 0
-6513 1194 0
-6513 1613 0
6514 -1614 -1192 0
-6514 1192 0
-6514 1614 0
6932 -2032 -1613 0
-6932 1613 0
-6932 2032 0
6933 -2033 -1614 0
-6933 1614 0
-6933 2033 0
6934 -2034 -1612 0
-6934 1612 0
-6934 2034 0
7352 -2452 -2033 0
-7352 2033 0
-7352 2452 0
7353 -2453 -2034 0
-7353 2034 0
-7353 2453 0
7354 -2454 -2032 0
-7354 2032 0
-7354 2454 0
-7772 352 0
-7772 2452 0
-7772 -2873 0
7772 -352 -2452 2873 0
-7773 353 0
-7773 2453 0
-7773 -2874 0
7773 -353 -2453 2874 0
-7774 354 0
-7774 2454 0
-7774 -2872 0
7774 -354 -2454 2872 0
-3059 8195 8196 8197 0
3059 -8195 0
8195 -355 -776 0
-8195 776 0
-8195 355 0
3059 -8196 0
8196 -356 -777 0
-8196 777 0
-8196 356 0
3059 -8197 0
8197 -357 -775 0
-8197 775 0
-8197 357 0
-3199 8615 8616 8617 0
3199 -8615 0
8615 -775 -1196 0
-8615 1196 0
-8615 775 0
3199 -8616 0
8616 -776 -1197 0
-8616 1197 0
-8616 776 0
3199 -8617 0
8617 -777 -1195 0
-8617 1195 0
-8617 777 0
-3339 9035 9036 9037 0
3339 -9035 0
9035 -1195 -1616 0
-9035 1616 0
-9035 1195 0
3339 -9036 0
9036 -1196 -1617 0
-9036 1617 0
-9036 1196 0
3339 -9037 0
9037 -1197 -1615 0
-9037 1615 0
-9037 1197 0
-3479 9455 9456 9457 0
3479 -9455 0
9455 -1615 -2036 0
-9455 2036 0
-9455 1615 0
3479 -9456 0
9456 -1616 -2037 0
-9456 2037 0
-9456 1616 0
3479 -9457 0
9457 -1617 -2035 0
-9457 2035 0
-9457 1617 0
-3619 9875 9876 9877 0
3619 -9875 0
9875 -2035 -2456 0
-9875 2456 0
-9875 2035 0
3619 -9876 0
9876 -2036 -2457 0
-9876 2457 0
-9876 2036 0
3619 -9877 0
9877 -2037 -2455 0
-9877 2455 0
-9877 2037 0
-3759 10295 10296 10297 0
3759 -10295 0
10295 -2455 -2876 0
-10295 2876 0
-10295 2455 0
3759 -10296 0
10296 -2456 -2877 0
-10296 2877 0
-10296 2456 0
3759 -10297 0
10297 -2457 -2875 0
-10297 2875 0
-10297 2457 0
-4179 5675 5676 5677 0
4179 -5675 0
4179 -5676 0
4179 -5677 0
-4319 6095 6096 6097 0
4319 -6095 0
4319 -6096 0
4319 -6097 0
-4459 6515 6516 6517 0
4459 -6515 0
4459 -6516 0
4459 -6517 0
-4599 6935 6936 6937 0
4599 -6935 0
4599 -6936 0
4599 -6937 0
-4739 7355 7356 7357 0
4739 -7355 0
4739 -7356 0
4739 -7357 0
-4879 7775 7776 7777 0
4879 -7775 0
4879 -7776 0
4879 -7777 0
5675 -775 -356 0
-5675 356 0
-5675 775 0
5676 -776 -357 0
-5676 357 0
-5676 776 0
5677 -777 -355 0
-5677 355 0
-5677 777 0
6095 -1195 -776 0
-6095 776 0
-6095 1195 0
6096 -1196 -777 0
-6096 777 0
-6096 1196 0
6097 -1197 -775 0
-6097 775 0
-6097 1197 0
6515 -1615 -1196 0
-6515 1196 0
-6515 1615 0
6516 -1616 -1197 0
-6516 1197 0
-6516 1616 0
6517 -1617 -1195 0
-6517 1195 0
-6517 1617 0
6935 -2035 -1616 0
-6935 1616 0
-6935 2035 0
6936 -2036 -1617 0
-6936 1617 0
-6936 2036 0
6937 -2037 -1615 0
-6937 1615 0
-6937 2037 0
7355 -2455 -2036 0
-7355 2036 0
-7355 2455 0
7356 -2456 -2037 0
-7356 2037 0
-7356 2456 0
7357 -2457 -2035 0
-7357 2035 0
-7357 2457 0
-7775 355 0
-7775 2455 0
-7775 -2876 0
7775 -355 -2455 2876 0
-7776 356 0
-7776 2456 0
-7776 -2877 0
7776 -356 -2456 2877 0
-7777 357 0
-7777 2457 0
-7777 -2875 0
7777 -357 -2457 2875 0
-3060 8198 8199 8200 0
3060 -8198 0
8198 -358 -779 0
-8198 779 0
-8198 358 0
3060 -8199 0
8199 -359 -780 0
-8199 780 0
-8199 359 0
3060 -8200 0
8200 -360 -778 0
-8200 778 0
-8200 360 0
-3200 8618 8619 8620 0
3200 -8618 0
8618 -778 -1199 0
-8618 1199 0
-8618 778 0
3200 -8619 0
8619 -779 -1200 0
-8619 1200 0
-8619 779 0
3200 -8620 0
8620 -780 -1198 0
-8620 1198 0
-8620 780 0
-3340 9038 9039 9040 0
3340 -9038 0
9038 -1198 -1619 0
-9038 1619 0
-9038 1198 0
3340 -9039 0
9039 -1199 -1620 0
-9039 1620 0
-9039 1199 0
3340 -9040 0
9040 -1200 -1618 0
-9040 1618 0
-9040 1200 0
-3480 9458 9459 9460 0
3480 -9458 0
9458 -1618 -2039 0
-9458 2039 0
-9458 1618 0
3480 -9459 0
9459 -1619 -2040 0
-9459 2040 0
-9459 1619 0
3480 -9460 0
9460 -1620 -2038 0
-9460 2038 0
-9460 1620 0
-3620 9878 9879 9880 0
3620 -9878 0
9878 -2038 -2459 0
-9878 2459 0
-9878 2038 0
3620 -9879 0
9879 -2039 -2460 0
-9879 2460 0
-9879 2039 0
3620 -9880 0
9880 -2040 -2458 0
-9880 2458 0
-9880 2040 0
-3760 10298 10299 10300 0
3760 -10298 0
10298 -2458 -2879 0
-10298 2879 0
-10298 2458 0
3760 -10299 0
10299 -2459 -2880 0
-10299 2880 0
-10299 2459 0
3760 -10300 0
10300 -2460 -2878 0
-10300 2878 0
-10300 2460 0
-4180 5678 5679 5680 0
4180 -5678 0
4180 -5679 0
4180 -5680 0
-4320 6098 6099 6100 0
4320 -6098 0
4320 -6099 0
4320 -6100 0
-4460 6518 6519 6520 0
4460 -6518 0
4460 -6519 0
4460 -6520 0
-4600 6938 6939 6940 0
4600 -6938 0
4600 -6939 0
4600 -6940 0
-4740 7358 7359 7360 0
4740 -7358 0
4740 -7359 0
4740 -7360 0
-4880 7778 7779 7780 0
4880 -7778 0
4880 -7779 0
4880 -7780 0
5678 -778 -359 0
-5678 359 0
-5678 778 0
5679 -779 -360 0
-5679 360 0
-5679 779 0
5680 -780 -358 0
-5680 358 0
-5680 780 0
6098 -1198 -779 0
-6098 779 0
-6098 1198 0
6099 -1199 -780 0
-6099 780 0
-6099 1199 0
6100 -1200 -778 0
-6100 778 0
-6100 1200 0
6518 -1618 -1199 0
-6518 1199 0
-6518 1618 0
6519 -1619 -1200 0
-6519 1200 0
-6519 1619 0
6520 -1620 -1198 0
-6520 1198 0
-6520 1620 0
6938 -2038 -1619 0
-6938 1619 0
-6938 2038 0
6939 -2039 -1620 0
-6939 1620 0
-6939 2039 0
6940 -2040 -1618 0
-6940 1618 0
-6940 2040 0
7358 -2458 -2039 0
-7358 2039 0
-7358 2458 0
7359 -2459 -2040 0
-7359 2040 0
-7359 2459 0
7360 -2460 -2038 0
-7360 2038 0
-7360 2460 0
-7778 358 0
-7778 2458 0
-7778 -2879 0
7778 -358 -2458 2879 0
-7779 359 0
-7779 2459 0
-7779 -2880 0
7779 -359 -2459 2880 0
-7780 360 0
-7780 2460 0
-7780 -2878 0
7780 -360 -2460 2878 0
-3061 8201 8202 8203 0
3061 -8201 0
8201 -361 -782 0
-8201 782 0
-8201 361 0
3061 -8202 0
8202 -362 -783 0
-8202 783 0
-8202 362 0
3061 -8203 0
8203 -363 -781 0
-8203 781 0
-8203 363 0
-3201 8621 8622 8623 0
3201 -8621 0
8621 -781 -1202 0
-8621 1202 0
-8621 781 0
3201 -8622 0
8622 -782 -1203 0
-8622 1203 0
-8622 782 0
3201 -8623 0
8623 -783 -1201 0
-8623 1201 0
-8623 783 0
-3341 9041 9042 9043 0
3341 -9041 0
9041 -1201 -1622 0
-9041 1622 0
-9041 1201 0
3341 -9042 0
9042 -1202 -1623 0
-9042 1623 0
-9042 1202 0
3341 -9043 0
9043 -1203 -1621 0
-9043 1621 0
-9043 1203 0
-3481 9461 9462 9463 0
3481 -9461 0
9461 -1621 -2042 0
-9461 2042 0
-9461 1621 0
3481 -9462 0
9462 -1622 -2043 0
-9462 2043 0
-9462 1622 0
3481 -9463 0
9463 -1623 -2041 0
-9463 2041 0
-9463 1623 0
-3621 9881 9882 9883 0
3621 -9881 0
9881 -2041 -2462 0
-9881 2462 0
-9881 2041 0
3621 -9882 0
9882 -2042 -2463 0
-9882 2463 0
-9882 2042 0
3621 -9883 0
9883 -2043 -2461 0
-9883 2461 0
-9883 2043 0
-3761 10301 10302 10303 0
3761 -10301 0
10301 -2461 -2882 0
-10301 2882 0
-10301 2461 0
3761 -10302 0
10302 -2462 -2883 0
-10302 2883 0
-10302 2462 0
3761 -10303 0
10303 -2463 -2881 0
-10303 2881 0
-10303 2463 0
-4181 5681 5682 5683 0
4181 -5681 0
4181 -5682 0
4181 -5683 0
-4321 6101 6102 6103 0
4321 -6101 0
4321 -6102 0
4321 -6103 0
-4461 6521 6522 6523 0
4461 -6521 0
4461 -6522 0
4461 -6523 0
-4601 6941 6942 6943 0
4601 -6941 0
4601 -6942 0
4601 -6943 0
-4741 7361 7362 7363 0
4741 -7361 0
4741 -7362 0
4741 -7363 0
-4881 7781 7782 7783 0
4881 -7781 0
4881 -7782 0
4881 -7783 0
5681 -781 -362 0
-5681 362 0
-5681 781 0
5682 -782 -363 0
-5682 363 0
-5682 782 0
5683 -783 -361 0
-5683 361 0
-5683 783 0
6101 -1201 -782 0
-6101 782 0
-6101 1201 0
6102 -1202 -783 0
-6102 783 0
-6102 1202 0
6103 -1203 -781 0
-6103 781 0
-6103 1203 0
6521 -1621 -1202 0
-6521 1202 0
-6521 1621 0
6522 -1622 -1203 0
-6522 1203 0
-6522 1622 0
6523 -1623 -1201 0
-6523 1201 0
-6523 1623 0
6941 -2041 -1622 0
-6941 1622 0
-6941 2041 0
6942 -2042 -1623 0
-6942 1623 0
-6942 2042 0
6943 -2043 -1621 0
-6943 1621 0
-6943 2043 0
7361 -2461 -2042 0
-7361 2042 0
-7361 2461 0
7362 -2462 -2043 0
-7362 2043 0
-7362 2462 0
7363 -2463 -2041 0
-7363 2041 0
-7363 2463 0
-7781 361 0
-7781 2461 0
-7781 -2882 0
7781 -361 -2461 2882 0
-7782 362 0
-7782 2462 0
-7782 -2883 0
7782 -362 -2462 2883 0
-7783 363 0
-7783 2463 0
-7783 -2881 0
7783 -363 -2463 2881 0
-3062 8204 8205 8206 0
3062 -8204 0
8204 -364 -785 0
-8204 785 0
-8204 364 0
3062 -8205 0
8205 -365 -786 0
-8205 786 0
-8205 365 0
3062 -8206 0
8206 -366 -784 0
-8206 784 0
-8206 366 0
-3202 8624 8625 8626 0
3202 -8624 0
8624 -784 -1205 0
-8624 1205 0
-8624 784 0
3202 -8625 0
8625 -785 -1206 0
-8625 1206 0
-8625 785 0
3202 -8626 0
8626 -786 -1204 0
-8626 1204 0
-8626 786 0
-3342 9044 9045 9046 0
3342 -9044 0
9044 -1204 -1625 0
-9044 1625 0
-9044 1204 0
3342 -9045 0
9045 -1205 -1626 0
-9045 1626 0
-9045 1205 0
3342 -9046 0
9046 -1206 -1624 0
-9046 1624 0
-9046 1206 0
-3482 9464 9465 9466 0
3482 -9464 0
9464 -1624 -2045 0
-9464 2045 0
-9464 1624 0
3482 -9465 0
9465 -1625 -2046 0
-9465 2046 0
-9465 1625 0
3482 -9466 0
9466 -1626 -2044 0
-9466 2044 0
-9466 1626 0
-3622 9884 9885 9886 0
3622 -9884 0
9884 -2044 -2465 0
-9884 2465 0
-9884 2044 0
3622 -9885 0
9885 -2045 -2466 0
-9885 2466 0
-9885 2045 0
3622 -9886 0
9886 -2046 -2464 0
-9886 2464 0
-9886 2046 0
-3762 10304 10305 10306 0
3762 -10304 0
10304 -2464 -2885 0
-10304 2885 0
-10304 2464 0
3762 -10305 0
10305 -2465 -2886 0
-10305 2886 0
-10305 2465 0
3762 -10306 0
10306 -2466 -2884 0
-10306 2884 0
-10306 2466 0
-4182 5684 5685 5686 0
4182 -5684 0
4182 -5685 0
4182 -5686 0
-4322 6104 6105 6106 0
4322 -6104 0
4322 -6105 0
4322 -6106 0
-4462 6524 6525 6526 0
4462 -6524 0
4462 -6525 0
4462 -6526 0
-4602 6944 6945 6946 0
4602 -6944 0
4602 -6945 0
4602 -6946 0
-4742 7364 7365 7366 0
4742 -7364 0
4742 -7365 0
4742 -7366 0
-4882 7784 7785 7786 0
4882 -7784 0
4882 -7785 0
4882 -7786 0
5684 -784 -365 0
-5684 365 0
-5684 784 0
5685 -785 -366 0
-5685 366 0
-5685 785 0
5686 -786 -364 0
-5686 364 0
-5686 786 0
6104 -1204 -785 0
-6104 785 0
-6104 1204 0
6105 -1205 -786 0
-6105 786 0
-6105 1205 0
6106 -1206 -784 0
-6106 784 0
-6106 1206 0
6524 -1624 -1205 0
-6524 1205 0
-6524 1624 0
6525 -1625 -1206 0
-6525 1206 0
-6525 1625 0
6526 -1626 -1204 0
-6526 1204 0
-6526 1626 0
6944 -2044 -1625 0
-6944 1625 0
-6944 2044 0
6945 -2045 -1626 0
-6945 1626 0
-6945 2045 0
6946 -2046 -1624 0
-6946 1624 0
-6946 2046 0
7364 -2464 -2045 0
-7364 2045 0
-7364 2464 0
7365 -2465 -2046 0
-7365 2046 0
-7365 2465 0
7366 -2466 -2044 0
-7366 2044 0
-7366 2466 0
-7784 364 0
-7784 2464 0
-7784 -2885 0
7784 -364 -2464 2885 0
-7785 365 0
-7785 2465 0
-7785 -2886 0
7785 -365 -2465 2886 0
-7786 366 0
-7786 2466 0
-7786 -2884 0
7786 -366 -2466 2884 0
-3063 8207 8208 8209 0
3063 -8207 0
8207 -367 -788 0
-8207 788 0
-8207 367 0
3063 -8208 0
8208 -368 -789 0
-8208 789 0
-8208 368 0
3063 -8209 0
8209 -369 -787 0
-8209 787 0
-8209 369 0
-3203 8627 8628 8629 0
3203 -8627 0
8627 -787 -1208 0
-8627 1208 0
-8627 787 0
3203 -8628 0
8628 -788 -1209 0
-8628 1209 0
-8628 788 0
3203 -8629 0
8629 -789 -1207 0
-8629 1207 0
-8629 789 0
-3343 9047 9048 9049 0
3343 -9047 0
9047 -1207 -1628 0
-9047 1628 0
-9047 1207 0
3343 -9048 0
9048 -1208 -1629 0
-9048 1629 0
-9048 1208 0
3343 -9049 0
9049 -1209 -1627 0
-9049 1627 0
-9049 1209 0
-3483 9467 9468 9469 0
3483 -9467 0
9467 -1627 -2048 0
-9467 2048 0
-9467 1627 0
3483 -9468 0
9468 -1628 -2049 0
-9468 2049 0
-9468 1628 0
3483 -9469 0
9469 -1629 -2047 0
-9469 2047 0
-9469 1629 0
-3623 9887 9888 9889 0
3623 -9887 0
9887 -2047 -2468 0
-9887 2468 0
-9887 2047 0
3623 -9888 0
9888 -2048 -2469 0
-9888 2469 0
-9888 2048 0
3623 -9889 0
9889 -2049 -2467 0
-9889 2467 0
-9889 2049 0
-3763 10307 10308 10309 0
3763 -10307 0
10307 -2467 -2888 0
-10307 2888 0
-10307 2467 0
3763 -10308 0
10308 -2468 -2889 0
-10308 2889 0
-10308 2468 0
3763 -10309 0
10309 -2469 -2887 0
-10309 2887 0
-10309 2469 0
-4183 5687 5688 5689 0
4183 -5687 0
4183 -5688 0
4183 -5689 0
-4323 6107 6108 6109 0
4323 -6107 0
4323 -6108 0
4323 -6109 0
-4463 6527 6528 6529 0
4463 -6527 0
4463 -6528 0
4463 -6529 0
-4603 6947 6948 6949 0
4603 -6947 0
4603 -6948 0
4603 -6949 0
-4743 7367 7368 7369 0
4743 -7367 0
4743 -7368 0
4743 -7369 0
-4883 7787 7788 7789 0
4883 -7787 0
4883 -7788 0
4883 -7789 0
5687 -787 -368 0
-5687 368 0
-5687 787 0
5688 -788 -369 0
-5688 369 0
-5688 788 0
5689 -789 -367 0
-5689 367 0
-5689 789 0
6107 -1207 -788 0
-6107 788 0
-6107 1207 0
6108 -1208 -789 0
-6108 789 0
-6108 1208 0
6109 -1209 -787 0
-6109 787 0
-6109 1209 0
6527 -1627 -1208 0
-6527 1208 0
-6527 1627 0
6528 -1628 -1209 0
-6528 1209 0
-6528 1628 0
6529 -1629 -1207 0
-6529 1207 0
-6529 1629 0
6947 -2047 -1628 0
-6947 1628 0
-6947 2047 0
6948 -2048 -1629 0
-6948 1629 0
-6948 2048 0
6949 -2049 -1627 0
-6949 1627 0
-6949 2049 0
7367 -2467 -2048 0
-7367 2048 0
-7367 2467 0
7368 -2468 -2049 0
-7368 2049 0
-7368 2468 0
7369 -2469 -2047 0
-7369 2047 0
-7369 2469 0
-7787 367 0
-7787 2467 0
-7787 -2888 0
7787 -367 -2467 2888 0
-7788 368 0
-7788 2468 0
-7788 -2889 0
7788 -368 -2468 2889 0
-7789 369 0
-7789 2469 0
-7789 -2887 0
7789 -369 -2469 2887 0
-3064 8210 8211 8212 0
3064 -8210 0
8210 -370 -791 0
-8210 791 0
-8210 370 0
3064 -8211 0
8211 -371 -792 0
-8211 792 0
-8211 371 0
3064 -8212 0
8212 -372 -790 0
-8212 790 0
-8212 372 0
-3204 8630 8631 8632 0
3204 -8630 0
8630 -790 -1211 0
-8630 1211 0
-8630 790 0
3204 -8631 0
8631 -791 -1212 0
-8631 1212 0
-8631 791 0
3204 -8632 0
8632 -792 -1210 0
-8632 1210 0
-8632 792 0
-3344 9050 9051 9052 0
3344 -9050 0
9050 -1210 -1631 0
-9050 1631 0
-9050 1210 0
3344 -9051 0
9051 -1211 -1632 0
-9051 1632 0
-9051 1211 0
3344 -9052 0
9052 -1212 -1630 0
-9052 1630 0
-9052 1212 0
-3484 9470 9471 9472 0
3484 -9470 0
9470 -1630 -2051 0
-9470 2051 0
-9470 1630 0
3484 -9471 0
9471 -1631 -2052 0
-9471 2052 0
-9471 1631 0
3484 -9472 0
9472 -1632 -2050 0
-9472 2050 0
-9472 1632 0
-3624 9890 9891 9892 0
3624 -9890 0
9890 -2050 -2471 0
-9890 2471 0
-9890 2050 0
3624 -9891 0
9891 -2051 -2472 0
-9891 2472 0
-9891 2051 0
3624 -9892 0
9892 -2052 -2470 0
-9892 2470 0
-9892 2052 0
-3764 10310 10311 10312 0
3764 -10310 0
10310 -2470 -2891 0
-10310 2891 0
-10310 2470 0
3764 -10311 0
10311 -2471 -2892 0
-10311 2892 0
-10311 2471 0
3764 -10312 0
10312 -2472 -2890 0
-10312 2890 0
-10312 2472 0
-4184 5690 5691 5692 0
4184 -5690 0
4184 -5691 0
4184 -5692 0
-4324 6110 6111 6112 0
4324 -6110 0
4324 -6111 0
4324 -6112 0
-4464 6530 6531 6532 0
4464 -6530 0
4464 -6531 0
4464 -6532 0
-4604 6950 6951 6952 0
4604 -6950 0
4604 -6951 0
4604 -6952 0
-4744 7370 7371 7372 0
4744 -7370 0
4744 -7371 0
4744 -7372 0
-4884 7790 7791 7792 0
4884 -7790 0
4884 -7791 0
4884 -7792 0
5690 -790 -371 0
-5690 371 0
-5690 790 0
5691 -791 -372 0
-5691 372 0
-5691 791 0
5692 -792 -370 0
-5692 370 0
-5692 792 0
6110 -1210 -791 0
-6110 791 0
-6110 1210 0
6111 -1211 -792 0
-6111 792 0
-6111 1211 0
6112 -1212 -790 0
-6112 790 0
-6112 1212 0
6530 -1630 -1211 0
-6530 1211 0
-6530 1630 0
6531 -1631 -1212 0
-6531 1212 0
-6531 1631 0
6532 -1632 -1210 0
-6532 1210 0
-6532 1632 0
6950 -2050 -1631 0
-6950 1631 0
-6950 2050 0
6951 -2051 -1632 0
-6951 1632 0
-6951 2051 0
6952 -2052 -1630 0
-6952 1630 0
-6952 2052 0
7370 -2470 -2051 0
-7370 2051 0
-7370 2470 0
7371 -2471 -2052 0
-7371 2052 0
-7371 2471 0
7372 -2472 -2050 0
-7372 2050 0
-7372 2472 0
-7790 370 0
-7790 2470 0
-7790 -2891 0
7790 -370 -2470 2891 0
-7791 371 0
-7791 2471 0
-7791 -2892 0
7791 -371 -2471 2892 0
-7792 372 0
-7792 2472 0
-7792 -2890 0
7792 -372 -2472 2890 0
-3065 8213 8214 8215 0
3065 -8213 0
8213 -373 -794 0
-8213 794 0
-8213 373 0
3065 -8214 0
8214 -374 -795 0
-8214 795 0
-8214 374 0
3065 -8215 0
8215 -375 -793 0
-8215 793 0
-8215 375 0
-3205 8633 8634 8635 0
3205 -8633 0
8633 -793 -1214 0
-8633 1214 0
-8633 793 0
3205 -8634 0
8634 -794 -1215 0
-8634 1215 0
-8634 794 0
3205 -8635 0
8635 -795 -1213 0
-8635 1213 0
-8635 795 0
-3345 9053 9054 9055 0
3345 -9053 0
9053 -1213 -1634 0
-9053 1634 0
-9053 1213 0
3345 -9054 0
9054 -1214 -1635 0
-9054 1635 0
-9054 1214 0
3345 -9055 0
9055 -1215 -1633 0
-9055 1633 0
-9055 1215 0
-3485 9473 9474 9475 0
3485 -9473 0
9473 -1633 -2054 0
-9473 2054 0
-9473 1633 0
3485 -9474 0
9474 -1634 -2055 0
-9474 2055 0
-9474 1634 0
3485 -9475 0
9475 -1635 -2053 0
-9475 2053 0
-9475 1635 0
-3625 9893 9894 9895 0
3625 -9893 0
9893 -2053 -2474 0
-9893 2474 0
-9893 2053 0
3625 -9894 0
9894 -2054 -2475 0
-9894 2475 0
-9894 2054 0
3625 -9895 0
9895 -2055 -2473 0
-9895 2473 0
-9895 2055 0
-3765 10313 10314 10315 0
3765 -10313 0
10313 -2473 -2894 0
-10313 2894 0
-10313 2473 0
3765 -10314 0
10314 -2474 -2895 0
-10314 2895 0
-10314 2474 0
3765 -10315 0
10315 -2475 -2893 0
-10315 2893 0
-10315 2475 0
-4185 5693 5694 5695 0
4185 -5693 0
4185 -5694 0
4185 -5695 0
-4325 6113 6114 6115 0
4325 -6113 0
4325 -6114 0
4325 -6115 0
-4465 6533 6534 6535 0
4465 -6533 0
4465 -6534 0
4465 -6535 0
-4605 6953 6954 6955 0
4605 -6953 0
4605 -6954 0
4605 -6955 0
-4745 7373 7374 7375 0
4745 -7373 0
4745 -7374 0
4745 -7375 0
-4885 7793 7794 7795 0
4885 -7793 0
4885 -7794 0
4885 -7795 0
5693 -793 -374 0
-5693 374 0
-5693 793 0
5694 -794 -375 0
-5694 375 0
-5694 794 0
5695 -795 -373 0
-5695 373 0
-5695 795 0
6113 -1213 -794 0
-6113 794 0
-6113 1213 0
6114 -1214 -795 0
-6114 795 0
-6114 1214 0
6115 -1215 -793 0
-6115 793 0
-6115 1215 0
6533 -1633 -1214 0
-6533 1214 0
-6533 1633 0
6534 -1634 -1215 0
-6534 1215 0
-6534 1634 0
6535 -1635 -1213 0
-6535 1213 0
-6535 1635 0
6953 -2053 -1634 0
-6953 1634 0
-6953 2053 0
6954 -2054 -1635 0
-6954 1635 0
-6954 2054 0
6955 -2055 -1633 0
-6955 1633 0
-6955 2055 0
7373 -2473 -2054 0
-7373 2054 0
-7373 2473 0
7374 -2474 -2055 0
-7374 2055 0
-7374 2474 0
7375 -2475 -2053 0
-7375 2053 0
-7375 2475 0
-7793 373 0
-7793 2473 0
-7793 -2894 0
7793 -373 -2473 2894 0
-7794 374 0
-7794 2474 0
-7794 -2895 0
7794 -374 -2474 2895 0
-7795 375 0
-7795 2475 0
-7795 -2893 0
7795 -375 -2475 2893 0
-3066 8216 8217 8218 0
3066 -8216 0
8216 -376 -797 0
-8216 797 0
-8216 376 0
3066 -8217 0
8217 -377 -798 0
-8217 798 0
-8217 377 0
3066 -8218 0
8218 -378 -796 0
-8218 796 0
-8218 378 0
-3206 8636 8637 8638 0
3206 -8636 0
8636 -796 -1217 0
-8636 1217 0
-8636 796 0
3206 -8637 0
8637 -797 -1218 0
-8637 1218 0
-8637 797 0
3206 -8638 0
8638 -798 -1216 0
-8638 1216 0
-8638 798 0
-3346 9056 9057 9058 0
3346 -9056 0
9056 -1216 -1637 0
-9056 1637 0
-9056 1216 0
3346 -9057 0
9057 -1217 -1638 0
-9057 1638 0
-9057 1217 0
3346 -9058 0
9058 -1218 -1636 0
-9058 1636 0
-9058 1218 0
-3486 9476 9477 9478 0
3486 -9476 0
9476 -1636 -2057 0
-9476 2057 0
-9476 1636 0
3486 -9477 0
9477 -1637 -2058 0
-9477 2058 0
-9477 1637 0
3486 -9478 0
9478 -1638 -2056 0
-9478 2056 0
-9478 1638 0
-3626 9896 9897 9898 0
3626 -9896 0
9896 -2056 -2477 0
-9896 2477 0
-9896 2056 0
3626 -9897 0
9897 -2057 -2478 0
-9897 2478 0
-9897 2057 0
3626 -9898 0
9898 -2058 -2476 0
-9898 2476 0
-9898 2058 0
-3766 10316 10317 10318 0
3766 -10316 0
10316 -2476 -2897 0
-10316 2897 0
-10316 2476 0
3766 -10317 0
10317 -2477 -2898 0
-10317 2898 0
-10317 2477 0
3766 -10318 0
10318 -2478 -2896 0
-10318 2896 0
-10318 2478 0
-4186 5696 5697 5698 0
4186 -5696 0
4186 -5697 0
4186 -5698 0
-4326 6116 6117 6118 0
4326 -6116 0
4326 -6117 0
4326 -6118 0
-4466 6536 6537 6538 0
4466 -6536 0
4466 -6537 0
4466 -6538 0
-4606 6956 6957 6958 0
4606 -6956 0
4606 -6957 0
4606 -6958 0
-4746 7376 7377 7378 0
4746 -7376 0
4746 -7377 0
4746 -7378 0
-4886 7796 7797 7798 0
4886 -7796 0
4886 -7797 0
4886 -7798 0
5696 -796 -377 0
-5696 377 0
-5696 796 0
5697 -797 -378 0
-5697 378 0
-5697 797 0
5698 -798 -376 0
-5698 376 0
-5698 798 0
6116 -1216 -797 0
-6116 797 0
-6116 1216 0
6117 -1217 -798 0
-6117 798 0
-6117 1217 0
6118 -1218 -796 0
-6118 796 0
-6118 1218 0
6536 -1636 -1217 0
-6536 1217 0
-6536 1636 0
6537 -1637 -1218 0
-6537 1218 0
-6537 1637 0
6538 -1638 -1216 0
-6538 1216 0
-6538 1638 0
6956 -2056 -1637 0
-6956 1637 0
-6956 2056 0
6957 -2057 -1638 0
-6957 1638 0
-6957 2057 0
6958 -2058 -1636 0
-6958 1636 0
-6958 2058 0
7376 -2476 -2057 0
-7376 2057 0
-7376 2476 0
7377 -2477 -2058 0
-7377 2058 0
-7377 2477 0
7378 -2478 -2056 0
-7378 2056 0
-7378 2478 0
-7796 376 0
-7796 2476 0
-7796 -2897 0
7796 -376 -2476 2897 0
-7797 377 0
-7797 2477 0
-7797 -2898 0
7797 -377 -2477 2898 0
-7798 378 0
-7798 2478 0
-7798 -2896 0
7798 -378 -2478 2896 0
-3067 8219 8220 8221 0
3067 -8219 0
8219 -379 -800 0
-8219 800 0
-8219 379 0
3067 -8220 0
8220 -380 -801 0
-8220 801 0
-8220 380 0
3067 -8221 0
8221 -381 -799 0
-8221 799 0
-8221 381 0
-3207 8639 8640 8641 0
3207 -8639 0
8639 -799 -1220 0
-8639 1220 0
-8639 799 0
3207 -8640 0
8640 -800 -1221 0
-8640 1221 0
-8640 800 0
3207 -8641 0
8641 -801 -1219 0
-8641 1219 0
-8641 801 0
-3347 9059 9060 9061 0
3347 -9059 0
9059 -1219 -1640 0
-9059 1640 0
-9059 1219 0
3347 -9060 0
9060 -1220 -1641 0
-9060 1641 0
-9060 1220 0
3347 -9061 0
9061 -1221 -1639 0
-9061 1639 0
-9061 1221 0
-3487 9479 9480 9481 0
3487 -9479 0
9479 -1639 -2060 0
-9479 2060 0
-9479 1639 0
3487 -9480 0
9480 -1640 -2061 0
-9480 2061 0
-9480 1640 0
3487 -9481 0
9481 -1641 -2059 0
-9481 2059 0
-9481 1641 0
-3627 9899 9900 9901 0
3627 -9899 0
9899 -2059 -2480 0
-9899 2480 0
-9899 2059 0
3627 -9900 0
9900 -2060 -2481 0
-9900 2481 0
-9900 2060 0
3627 -9901 0
9901 -2061 -2479 0
-9901 2479 0
-9901 2061 0
-3767 10319 10320 10321 0
3767 -10319 0
10319 -2479 -2900 0
-10319 2900 0
-10319 2479 0
3767 -10320 0
10320 -2480 -2901 0
-10320 2901 0
-10320 2480 0
3767 -10321 0
10321 -2481 -2899 0
-10321 2899 0
-10321 2481 0
-4187 5699 5700 5701 0
4187 -5699 0
4187 -5700 0
4187 -5701 0
-4327 6119 6120 6121 0
4327 -6119 0
4327 -6120 0
4327 -6121 0
-4467 6539 6540 6541 0
4467 -6539 0
4467 -6540 0
4467 -6541 0
-4607 6959 6960 6961 0
4607 -6959 0
4607 -6960 0
4607 -6961 0
-4747 7379 7380 7381 0
4747 -7379 0
4747 -7380 0
4747 -7381 0
-4887 7799 7800 7801 0
4887 -7799 0
4887 -7800 0
4887 -7801 0
5699 -799 -380 0
-5699 380 0
-5699 799 0
5700 -800 -381 0
-5700 381 0
-5700 800 0
5701 -801 -379 0
-5701 379 0
-5701 801 0
6119 -1219 -800 0
-6119 800 0
-6119 1219 0
6120 -1220 -801 0
-6120 801 0
-6120 1220 0
6121 -1221 -799 0
-6121 799 0
-6121 1221 0
6539 -1639 -1220 0
-6539 1220 0
-6539 1639 0
6540 -1640 -1221 0
-6540 1221 0
-6540 1640 0
6541 -1641 -1219 0
-6541 1219 0
-6541 1641 0
6959 -2059 -1640 0
-6959 1640 0
-6959 2059 0
6960 -2060 -1641 0
-6960 1641 0
-6960 2060 0
6961 -2061 -1639 0
-6961 1639 0
-6961 2061 0
7379 -2479 -2060 0
-7379 2060 0
-7379 2479 0
7380 -2480 -2061 0
-7380 2061 0
-7380 2480 0
7381 -2481 -2059 0
-7381 2059 0
-7381 2481 0
-7799 379 0
-7799 2479 0
-7799 -2900 0
7799 -379 -2479 2900 0
-7800 380 0
-7800 2480 0
-7800 -2901 0
7800 -380 -2480 2901 0
-7801 381 0
-7801 2481 0
-7801 -2899 0
7801 -381 -2481 2899 0
-3068 8222 8223 8224 0
3068 -8222 0
8222 -382 -803 0
-8222 803 0
-8222 382 0
3068 -8223 0
8223 -383 -804 0
-8223 804 0
-8223 383 0
3068 -8224 0
8224 -384 -802 0
-8224 802 0
-8224 384 0
-3208 8642 8643 8644 0
3208 -8642 0
8642 -802 -1223 0
-8642 1223 0
-8642 802 0
3208 -8643 0
8643 -803 -1224 0
-8643 1224 0
-8643 803 0
3208 -8644 0
8644 -804 -1222 0
-8644 1222 0
-8644 804 0
-3348 9062 9063 9064 0
3348 -9062 0
9062 -1222 -1643 0
-9062 1643 0
-9062 1222 0
3348 -9063 0
9063 -1223 -1644 0
-9063 1644 0
-9063 1223 0
3348 -9064 0
9064 -1224 -1642 0
-9064 1642 0
-9064 1224 0
-3488 9482 9483 9484 0
3488 -9482 0
9482 -1642 -2063 0
-9482 2063 0
-9482 1642 0
3488 -9483 0
9483 -1643 -2064 0
-9483 2064 0
-9483 1643 0
3488 -9484 0
9484 -1644 -2062 0
-9484 2062 0
-9484 1644 0
-3628 9902 9903 9904 0
3628 -9902 0
9902 -2062 -2483 0
-9902 2483 0
-9902 2062 0
3628 -9903 0
9903 -2063 -2484 0
-9903 2484 0
-9903 2063 0
3628 -9904 0
9904 -2064 -2482 0
-9904 2482 0
-9904 2064 0
-3768 10322 10323 10324 0
3768 -10322 0
10322 -2482 -2903 0
-10322 2903 0
-10322 2482 0
3768 -10323 0
10323 -2483 -2904 0
-10323 2904 0
-10323 2483 0
3768 -10324 0
10324 -2484 -2902 0
-10324 2902 0
-10324 2484 0
-4188 5702 5703 5704 0
4188 -5702 0
4188 -5703 0
4188 -5704 0
-4328 6122 6123 6124 0
4328 -6122 0
4328 -6123 0
4328 -6124 0
-4468 6542 6543 6544 0
4468 -6542 0
4468 -6543 0
4468 -6544 0
-4608 6962 6963 6964 0
4608 -6962 0
4608 -6963 0
4608 -6964 0
-4748 7382 7383 7384 0
4748 -7382 0
4748 -7383 0
4748 -7384 0
-4888 7802 7803 7804 0
4888 -7802 0
4888 -7803 0
4888 -7804 0
5702 -802 -383 0
-5702 383 0
-5702 802 0
5703 -803 -384 0
-5703 384 0
-5703 803 0
5704 -804 -382 0
-5704 382 0
-5704 804 0
6122 -1222 -803 0
-6122 803 0
-6122 1222 0
6123 -1223 -804 0
-6123 804 0
-6123 1223 0
6124 -1224 -802 0
-6124 802 0
-6124 1224 0
6542 -1642 -1223 0
-6542 1223 0
-6542 1642 0
6543 -1643 -1224 0
-6543 1224 0
-6543 1643 0
6544 -1644 -1222 0
-6544 1222 0
-6544 1644 0
6962 -2062 -1643 0
-6962 1643 0
-6962 2062 0
6963 -2063 -1644 0
-6963 1644 0
-6963 2063 0
6964 -2064 -1642 0
-6964 1642 0
-6964 2064 0
7382 -2482 -2063 0
-7382 2063 0
-7382 2482 0
7383 -2483 -2064 0
-7383 2064 0
-7383 2483 0
7384 -2484 -2062 0
-7384 2062 0
-7384 2484 0
-7802 382 0
-7802 2482 0
-7802 -2903 0
7802 -382 -2482 2903 0
-7803 383 0
-7803 2483 0
-7803 -2904 0
7803 -383 -2483 2904 0
-7804 384 0
-7804 2484 0
-7804 -2902 0
7804 -384 -2484 2902 0
-3069 8225 8226 8227 0
3069 -8225 0
8225 -385 -806 0
-8225 806 0
-8225 385 0
3069 -8226 0
8226 -386 -807 0
-8226 807 0
-8226 386 0
3069 -8227 0
8227 -387 -805 0
-8227 805 0
-8227 387 0
-3209 8645 8646 8647 0
3209 -8645 0
8645 -805 -1226 0
-8645 1226 0
-8645 805 0
3209 -8646 0
8646 -806 -1227 0
-8646 1227 0
-8646 806 0
3209 -8647 0
8647 -807 -1225 0
-8647 1225 0
-8647 807 0
-3349 9065 9066 9067 0
3349 -9065 0
9065 -1225 -1646 0
-9065 1646 0
-9065 1225 0
3349 -9066 0
9066 -1226 -1647 0
-9066 1647 0
-9066 1226 0
3349 -9067 0
9067 -1227 -1645 0
-9067 1645 0
-9067 1227 0
-3489 9485 9486 9487 0
3489 -9485 0
9485 -1645 -2066 0
-9485 2066 0
-9485 1645 0
3489 -9486 0
9486 -1646 -2067 0
-9486 2067 0
-9486 1646 0
3489 -9487 0
9487 -1647 -2065 0
-9487 2065 0
-9487 1647 0
-3629 9905 9906 9907 0
3629 -9905 0
9905 -2065 -2486 0
-9905 2486 0
-9905 2065 0
3629 -9906 0
9906 -2066 -2487 0
-9906 2487 0
-9906 2066 0
3629 -9907 0
9907 -2067 -2485 0
-9907 2485 0
-9907 2067 0
-3769 10325 10326 10327 0
3769 -10325 0
10325 -2485 -2906 0
-10325 2906 0
-10325 2485 0
3769 -10326 0
10326 -2486 -2907 0
-10326 2907 0
-10326 2486 0
3769 -10327 0
10327 -2487 -2905 0
-10327 2905 0
-10327 2487 0
-4189 5705 5706 5707 0
4189 -5705 0
4189 -5706 0
4189 -5707 0
-4329 6125 6126 6127 0
4329 -6125 0
4329 -6126 0
4329 -6127 0
-4469 6545 6546 6547 0
4469 -6545 0
4469 -6546 0
4469 -6547 0
-4609 6965 6966 6967 0
4609 -6965 0
4609 -6966 0
4609 -6967 0
-4749 7385 7386 7387 0
4749 -7385 0
4749 -7386 0
4749 -7387 0
-4889 7805 7806 7807 0
4889 -7805 0
4889 -7806 0
4889 -7807 0
5705 -805 -386 0
-5705 386 0
-5705 805 0
5706 -806 -387 0
-5706 387 0
-5706 806 0
5707 -807 -385 0
-5707 385 0
-5707 807 0
6125 -1225 -806 0
-6125 806 0
-6125 1225 0
6126 -1226 -807 0
-6126 807 0
-6126 1226 0
6127 -1227 -805 0
-6127 805 0
-6127 1227 0
6545 -1645 -1226 0
-6545 1226 0
-6545 1645 0
6546 -1646 -1227 0
-6546 1227 0
-6546 1646 0
6547 -1647 -1225 0
-6547 1225 0
-6547 1647 0
6965 -2065 -1646 0
-6965 1646 0
-6965 2065 0
6966 -2066 -1647 0
-6966 1647 0
-6966 2066 0
6967 -2067 -1645 0
-6967 1645 0
-6967 2067 0
7385 -2485 -2066 0
-7385 2066 0
-7385 2485 0
7386 -2486 -2067 0
-7386 2067 0
-7386 2486 0
7387 -2487 -2065 0
-7387 2065 0
-7387 2487 0
-7805 385 0
-7805 2485 0
-7805 -2906 0
7805 -385 -2485 2906 0
-7806 386 0
-7806 2486 0
-7806 -2907 0
7806 -386 -2486 2907 0
-7807 387 0
-7807 2487 0
-7807 -2905 0
7807 -387 -2487 2905 0
-3070 8228 8229 8230 0
3070 -8228 0
8228 -388 -809 0
-8228 809 0
-8228 388 0
3070 -8229 0
8229 -389 -810 0
-8229 810 0
-8229 389 0
3070 -8230 0
8230 -390 -808 0
-8230 808 0
-8230 390 0
-3210 8648 8649 8650 0
3210 -8648 0
8648 -808 -1229 0
-8648 1229 0
-8648 808 0
3210 -8649 0
8649 -809 -1230 0
-8649 1230 0
-8649 809 0
3210 -8650 0
8650 -810 -1228 0
-8650 1228 0
-8650 810 0
-3350 9068 9069 9070 0
3350 -9068 0
9068 -1228 -1649 0
-9068 1649 0
-9068 1228 0
3350 -9069 0
9069 -1229 -1650 0
-9069 1650 0
-9069 1229 0
3350 -9070 0
9070 -1230 -1648 0
-9070 1648 0
-9070 1230 0
-3490 9488 9489 9490 0
3490 -9488 0
9488 -1648 -2069 0
-9488 2069 0
-9488 1648 0
3490 -9489 0
9489 -1649 -2070 0
-9489 2070 0
-9489 1649 0
3490 -9490 0
9490 -1650 -2068 0
-9490 2068 0
-9490 1650 0
-3630 9908 9909 9910 0
3630 -9908 0
9908 -2068 -2489 0
-9908 2489 0
-9908 2068 0
3630 -9909 0
9909 -2069 -2490 0
-9909 2490 0
-9909 2069 0
3630 -9910 0
9910 -2070 -2488 0
-9910 2488 0
-9910 2070 0
-3770 10328 10329 10330 0
3770 -10328 0
10328 -2488 -2909 0
-10328 2909 0
-10328 2488 0
3770 -10329 0
10329 -2489 -2910 0
-10329 2910 0
-10329 2489 0
3770 -10330 0
10330 -2490 -2908 0
-10330 2908 0
-10330 2490 0
-4190 5708 5709 5710 0
4190 -5708 0
4190 -5709 0
4190 -5710 0
-4330 6128 6129 6130 0
4330 -6128 0
4330 -6129 0
4330 -6130 0
-4470 6548 6549 6550 0
4470 -6548 0
4470 -6549 0
4470 -6550 0
-4610 6968 6969 6970 0
4610 -6968 0
4610 -6969 0
4610 -6970 0
-4750 7388 7389 7390 0
4750 -7388 0
4750 -7389 0
4750 -7390 0
-4890 7808 7809 7810 0
4890 -7808 0
4890 -7809 0
4890 -7810 0
5708 -808 -389 0
-5708 389 0
-5708 808 0
5709 -809 -390 0
-5709 390 0
-5709 809 0
5710 -810 -388 0
-5710 388 0
-5710 810 0
6128 -1228 -809 0
-6128 809 0
-6128 1228 0
6129 -1229 -810 0
-6129 810 0
-6129 1229 0
6130 -1230 -808 0
-6130 808 0
-6130 1230 0
6548 -1648 -1229 0
-6548 1229 0
-6548 1648 0
6549 -1649 -1230 0
-6549 1230 0
-6549 1649 0
6550 -1650 -1228 0
-6550 1228 0
-6550 1650 0
6968 -2068 -1649 0
-6968 1649 0
-6968 2068 0
6969 -2069 -1650 0
-6969 1650 0
-6969 2069 0
6970 -2070 -1648 0
-6970 1648 0
-6970 2070 0
7388 -2488 -2069 0
-7388 2069 0
-7388 2488 0
7389 -2489 -2070 0
-7389 2070 0
-7389 2489 0
7390 -2490 -2068 0
-7390 2068 0
-7390 2490 0
-7808 388 0
-7808 2488 0
-7808 -2909 0
7808 -388 -2488 2909 0
-7809 389 0
-7809 2489 0
-7809 -2910 0
7809 -389 -2489 2910 0
-7810 390 0
-7810 2490 0
-7810 -2908 0
7810 -390 -2490 2908 0
-3071 8231 8232 8233 0
3071 -8231 0
8231 -391 -812 0
-8231 812 0
-8231 391 0
3071 -8232 0
8232 -392 -813 0
-8232 813 0
-8232 392 0
3071 -8233 0
8233 -393 -811 0
-8233 811 0
-8233 393 0
-3211 8651 8652 8653 0
3211 -8651 0
8651 -811 -1232 0
-8651 1232 0
-8651 811 0
3211 -8652 0
8652 -812 -1233 0
-8652 1233 0
-8652 812 0
3211 -8653 0
8653 -813 -1231 0
-8653 1231 0
-8653 813 0
-3351 9071 9072 9073 0
3351 -9071 0
9071 -1231 -1652 0
-9071 1652 0
-9071 1231 0
3351 -9072 0
9072 -1232 -1653 0
-9072 1653 0
-9072 1232 0
3351 -9073 0
9073 -1233 -1651 0
-9073 1651 0
-9073 1233 0
-3491 9491 9492 9493 0
3491 -9491 0
9491 -1651 -2072 0
-9491 2072 0
-9491 1651 0
3491 -9492 0
9492 -1652 -2073 0
-9492 2073 0
-9492 1652 0
3491 -9493 0
9493 -1653 -2071 0
-9493 2071 0
-9493 1653 0
-3631 9911 9912 9913 0
3631 -9911 0
9911 -2071 -2492 0
-9911 2492 0
-9911 2071 0
3631 -9912 0
9912 -2072 -2493 0
-9912 2493 0
-9912 2072 0
3631 -9913 0
9913 -2073 -2491 0
-9913 2491 0
-9913 2073 0
-3771 10331 10332 10333 0
3771 -10331 0
10331 -2491 -2912 0
-10331 2912 0
-10331 2491 0
3771 -10332 0
10332 -2492 -2913 0
-10332 2913 0
-10332 2492 0
3771 -10333 0
10333 -2493 -2911 0
-10333 2911 0
-10333 2493 0
-4191 5711 5712 5713 0
4191 -5711 0
4191 -5712 0
4191 -5713 0
-4331 6131 6132 6133 0
4331 -6131 0
4331 -6132 0
4331 -6133 0
-4471 6551 6552 6553 0
4471 -6551 0
4471 -6552 0
4471 -6553 0
-4611 6971 6972 6973 0
4611 -6971 0
4611 -6972 0
4611 -6973 0
-4751 7391 7392 7393 0
4751 -7391 0
4751 -7392 0
4751 -7393 0
-4891 7811 7812 7813 0
4891 -7811 0
4891 -7812 0
4891 -7813 0
5711 -811 -392 0
-5711 392 0
-5711 811 0
5712 -812 -393 0
-5712 393 0
-5712 812 0
5713 -813 -391 0
-5713 391 0
-5713 813 0
6131 -1231 -812 0
-6131 812 0
-6131 1231 0
6132 -1232 -813 0
-6132 813 0
-6132 1232 0
6133 -1233 -811 0
-6133 811 0
-6133 1233 0
6551 -1651 -1232 0
-6551 1232 0
-6551 1651 0
6552 -1652 -1233 0
-6552 1233 0
-6552 1652 0
6553 -1653 -1231 0
-6553 1231 0
-6553 1653 0
6971 -2071 -1652 0
-6971 1652 0
-6971 2071 0
6972 -2072 -1653 0
-6972 1653 0
-6972 2072 0
6973 -2073 -1651 0
-6973 1651 0
-6973 2073 0
7391 -2491 -2072 0
-7391 2072 0
-7391 2491 0
7392 -2492 -2073 0
-7392 2073 0
-7392 2492 0
7393 -2493 -2071 0
-7393 2071 0
-7393 2493 0
-7811 391 0
-7811 2491 0
-7811 -2912 0
7811 -391 -2491 2912 0
-7812 392 0
-7812 2492 0
-7812 -2913 0
7812 -392 -2492 2913 0
-7813 393 0
-7813 2493 0
-7813 -2911 0
7813 -393 -2493 2911 0
-3072 8234 8235 8236 0
3072 -8234 0
8234 -394 -815 0
-8234 815 0
-8234 394 0
3072 -8235 0
8235 -395 -816 0
-8235 816 0
-8235 395 0
3072 -8236 0
8236 -396 -814 0
-8236 814 0
-8236 396 0
-3212 8654 8655 8656 0
3212 -8654 0
8654 -814 -1235 0
-8654 1235 0
-8654 814 0
3212 -8655 0
8655 -815 -1236 0
-8655 1236 0
-8655 815 0
3212 -8656 0
8656 -816 -1234 0
-8656 1234 0
-8656 816 0
-3352 9074 9075 9076 0
3352 -9074 0
9074 -1234 -1655 0
-9074 1655 0
-9074 1234 0
3352 -9075 0
9075 -1235 -1656 0
-9075 1656 0
-9075 1235 0
3352 -9076 0
9076 -1236 -1654 0
-9076 1654 0
-9076 1236 0
-3492 9494 9495 9496 0
3492 -9494 0
9494 -1654 -2075 0
-9494 2075 0
-9494 1654 0
3492 -9495 0
9495 -1655 -2076 0
-9495 2076 0
-9495 1655 0
3492 -9496 0
9496 -1656 -2074 0
-9496 2074 0
-9496 1656 0
-3632 9914 9915 9916 0
3632 -9914 0
9914 -2074 -2495 0
-9914 2495 0
-9914 2074 0
3632 -9915 0
9915 -2075 -2496 0
-9915 2496 0
-9915 2075 0
3632 -9916 0
9916 -2076 -2494 0
-9916 2494 0
-9916 2076 0
-3772 10334 10335 10336 0
3772 -10334 0
10334 -2494 -2915 0
-10334 2915 0
-10334 2494 0
3772 -10335 0
10335 -2495 -2916 0
-10335 2916 0
-10335 2495 0
3772 -10336 0
10336 -2496 -2914 0
-10336 2914 0
-10336 2496 0
-4192 5714 5715 5716 0
4192 -5714 0
4192 -5715 0
4192 -5716 0
-4332 6134 6135 6136 0
4332 -6134 0
4332 -6135 0
4332 -6136 0
-4472 6554 6555 6556 0
4472 -6554 0
4472 -6555 0
4472 -6556 0
-4612 6974 6975 6976 0
4612 -6974 0
4612 -6975 0
4612 -6976 0
-4752 7394 7395 7396 0
4752 -7394 0
4752 -7395 0
4752 -7396 0
-4892 7814 7815 7816 0
4892 -7814 0
4892 -7815 0
4892 -7816 0
5714 -814 -395 0
-5714 395 0
-5714 814 0
5715 -815 -396 0
-5715 396 0
-5715 815 0
5716 -816 -394 0
-5716 394 0
-5716 816 0
6134 -1234 -815 0
-6134 815 0
-6134 1234 0
6135 -1235 -816 0
-6135 816 0
-6135 1235 0
6136 -1236 -814 0
-6136 814 0
-6136 1236 0
6554 -1654 -1235 0
-6554 1235 0
-6554 1654 0
6555 -1655 -1236 0
-6555 1236 0
-6555 1655 0
6556 -1656 -1234 0
-6556 1234 0
-6556 1656 0
6974 -2074 -1655 0
-6974 1655 0
-6974 2074 0
6975 -2075 -1656 0
-6975 1656 0
-6975 2075 0
6976 -2076 -1654 0
-6976 1654 0
-6976 2076 0
7394 -2494 -2075 0
-7394 2075 0
-7394 2494 0
7395 -2495 -2076 0
-7395 2076 0
-7395 2495 0
7396 -2496 -2074 0
-7396 2074 0
-7396 2496 0
-7814 394 0
-7814 2494 0
-7814 -2915 0
7814 -394 -2494 2915 0
-7815 395 0
-7815 2495 0
-7815 -2916 0
7815 -395 -2495 2916 0
-7816 396 0
-7816 2496 0
-7816 -2914 0
7816 -396 -2496 2914 0
-3073 8237 8238 8239 0
3073 -8237 0
8237 -397 -818 0
-8237 818 0
-8237 397 0
3073 -8238 0
8238 -398 -819 0
-8238 819 0
-8238 398 0
3073 -8239 0
8239 -399 -817 0
-8239 817 0
-8239 399 0
-3213 8657 8658 8659 0
3213 -8657 0
8657 -817 -1238 0
-8657 1238 0
-8657 817 0
3213 -8658 0
8658 -818 -1239 0
-8658 1239 0
-8658 818 0
3213 -8659 0
8659 -819 -1237 0
-8659 1237 0
-8659 819 0
-3353 9077 9078 9079 0
3353 -9077 0
9077 -1237 -1658 0
-9077 1658 0
-9077 1237 0
3353 -9078 0
9078 -1238 -1659 0
-9078 1659 0
-9078 1238 0
3353 -9079 0
9079 -1239 -1657 0
-9079 1657 0
-9079 1239 0
-3493 9497 9498 9499 0
3493 -9497 0
9497 -1657 -2078 0
-9497 2078 0
-9497 1657 0
3493 -9498 0
9498 -1658 -2079 0
-9498 2079 0
-9498 1658 0
3493 -9499 0
9499 -1659 -2077 0
-9499 2077 0
-9499 1659 0
-3633 9917 9918 9919 0
3633 -9917 0
9917 -2077 -2498 0
-9917 2498 0
-9917 2077 0
3633 -9918 0
9918 -2078 -2499 0
-9918 2499 0
-9918 2078 0
3633 -9919 0
9919 -2079 -2497 0
-9919 2497 0
-9919 2079 0
-3773 10337 10338 10339 0
3773 -10337 0
10337 -2497 -2918 0
-10337 2918 0
-10337 2497 0
3773 -10338 0
10338 -2498 -2919 0
-10338 2919 0
-10338 2498 0
3773 -10339 0
10339 -2499 -2917 0
-10339 2917 0
-10339 2499 0
-4193 5717 5718 5719 0
4193 -5717 0
4193 -5718 0
4193 -5719 0
-4333 6137 6138 6139 0
4333 -6137 0
4333 -6138 0
4333 -6139 0
-4473 6557 6558 6559 0
4473 -6557 0
4473 -6558 0
4473 -6559 0
-4613 6977 6978 6979 0
4613 -6977 0
4613 -6978 0
4613 -6979 0
-4753 7397 7398 7399 0
4753 -7397 0
4753 -7398 0
4753 -7399 0
-4893 7817 7818 7819 0
4893 -7817 0
4893 -7818 0
4893 -7819 0
5717 -817 -398 0
-5717 398 0
-5717 817 0
5718 -818 -399 0
-5718 399 0
-5718 818 0
5719 -819 -397 0
-5719 397 0
-5719 819 0
6137 -1237 -818 0
-6137 818 0
-6137 1237 0
6138 -1238 -819 0
-6138 819 0
-6138 1238 0
6139 -1239 -817 0
-6139 817 0
-6139 1239 0
6557 -1657 -1238 0
-6557 1238 0
-6557 1657 0
6558 -1658 -1239 0
-6558 1239 0
-6558 1658 0
6559 -1659 -1237 0
-6559 1237 0
-6559 1659 0
6977 -2077 -1658 0
-6977 1658 0
-6977 2077 0
6978 -2078 -1659 0
-6978 1659 0
-6978 2078 0
6979 -2079 -1657 0
-6979 1657 0
-6979 2079 0
7397 -2497 -2078 0
-7397 2078 0
-7397 2497 0
7398 -2498 -2079 0
-7398 2079 0
-7398 2498 0
7399 -2499 -2077 0
-7399 2077 0
-7399 2499 0
-7817 397 0
-7817 2497 0
-7817 -2918 0
7817 -397 -2497 2918 0
-7818 398 0
-7818 2498 0
-7818 -2919 0
7818 -398 -2498 2919 0
-7819 399 0
-7819 2499 0
-7819 -2917 0
7819 -399 -2499 2917 0
-3074 8240 8241 8242 0
3074 -8240 0
8240 -400 -821 0
-8240 821 0
-8240 400 0
3074 -8241 0
8241 -401 -822 0
-8241 822 0
-8241 401 0
3074 -8242 0
8242 -402 -820 0
-8242 820 0
-8242 402 0
-3214 8660 8661 8662 0
3214 -8660 0
8660 -820 -1241 0
-8660 1241 0
-8660 820 0
3214 -8661 0
8661 -821 -1242 0
-8661 1242 0
-8661 821 0
3214 -8662 0
8662 -822 -1240 0
-8662 1240 0
-8662 822 0
-3354 9080 9081 9082 0
3354 -9080 0
9080 -1240 -1661 0
-9080 1661 0
-9080 1240 0
3354 -9081 0
9081 -1241 -1662 0
-9081 1662 0
-9081 1241 0
3354 -9082 0
9082 -1242 -1660 0
-9082 1660 0
-9082 1242 0
-3494 9500 9501 9502 0
3494 -9500 0
9500 -1660 -2081 0
-9500 2081 0
-9500 1660 0
3494 -9501 0
9501 -1661 -2082 0
-9501 2082 0
-9501 1661 0
3494 -9502 0
9502 -1662 -2080 0
-9502 2080 0
-9502 1662 0
-3634 9920 9921 9922 0
3634 -9920 0
9920 -2080 -2501 0
-9920 2501 0
-9920 2080 0
3634 -9921 0
9921 -2081 -2502 0
-9921 2502 0
-9921 2081 0
3634 -9922 0
9922 -2082 -2500 0
-9922 2500 0
-9922 2082 0
-3774 10340 10341 10342 0
3774 -10340 0
10340 -2500 -2921 0
-10340 2921 0
-10340 2500 0
3774 -10341 0
10341 -2501 -2922 0
-10341 2922 0
-10341 2501 0
3774 -10342 0
10342 -2502 -2920 0
-10342 2920 0
-10342 2502 0
-4194 5720 5721 5722 0
4194 -5720 0
4194 -5721 0
4194 -5722 0
-4334 6140 6141 6142 0
4334 -6140 0
4334 -6141 0
4334 -6142 0
-4474 6560 6561 6562 0
4474 -6560 0
4474 -6561 0
4474 -6562 0
-4614 6980 6981 6982 0
4614 -6980 0
4614 -6981 0
4614 -6982 0
-4754 7400 7401 7402 0
4754 -7400 0
4754 -7401 0
4754 -7402 0
-4894 7820 7821 7822 0
4894 -7820 0
4894 -7821 0
4894 -7822 0
5720 -820 -401 0
-5720 401 0
-5720 820 0
5721 -821 -402 0
-5721 402 0
-5721 821 0
5722 -822 -400 0
-5722 400 0
-5722 822 0
6140 -1240 -821 0
-6140 821 0
-6140 1240 0
6141 -1241 -822 0
-6141 822 0
-6141 1241 0
6142 -1242 -820 0
-6142 820 0
-6142 1242 0
6560 -1660 -1241 0
-6560 1241 0
-6560 1660 0
6561 -1661 -1242 0
-6561 1242 0
-6561 1661 0
6562 -1662 -1240 0
-6562 1240 0
-6562 1662 0
6980 -2080 -1661 0
-6980 1661 0
-6980 2080 0
6981 -2081 -1662 0
-6981 1662 0
-6981 2081 0
6982 -2082 -1660 0
-6982 1660 0
-6982 2082 0
7400 -2500 -2081 0
-7400 2081 0
-7400 2500 0
7401 -2501 -2082 0
-7401 2082 0
-7401 2501 0
7402 -2502 -2080 0
-7402 2080 0
-7402 2502 0
-7820 400 0
-7820 2500 0
-7820 -2921 0
7820 -400 -2500 2921 0
-7821 401 0
-7821 2501 0
-7821 -2922 0
7821 -401 -2501 2922 0
-7822 402 0
-7822 2502 0
-7822 -2920 0
7822 -402 -2502 2920 0
-3075 8243 8244 8245 0
3075 -8243 0
8243 -403 -824 0
-8243 824 0
-8243 403 0
3075 -8244 0
8244 -404 -825 0
-8244 825 0
-8244 404 0
3075 -8245 0
8245 -405 -823 0
-8245 823 0
-8245 405 0
-3215 8663 8664 8665 0
3215 -8663 0
8663 -823 -1244 0
-8663 1244 0
-8663 823 0
3215 -8664 0
8664 -824 -1245 0
-8664 1245 0
-8664 824 0
3215 -8665 0
8665 -825 -1243 0
-8665 1243 0
-8665 825 0
-3355 9083 9084 9085 0
3355 -9083 0
9083 -1243 -1664 0
-9083 1664 0
-9083 1243 0
3355 -9084 0
9084 -1244 -1665 0
-9084 1665 0
-9084 1244 0
3355 -9085 0
9085 -1245 -1663 0
-9085 1663 0
-9085 1245 0
-3495 9503 9504 9505 0
3495 -9503 0
9503 -1663 -2084 0
-9503 2084 0
-9503 1663 0
3495 -9504 0
9504 -1664 -2085 0
-9504 2085 0
-9504 1664 0
3495 -9505 0
9505 -1665 -2083 0
-9505 2083 0
-9505 1665 0
-3635 9923 9924 9925 0
3635 -9923 0
9923 -2083 -2504 0
-9923 2504 0
-9923 2083 0
3635 -9924 0
9924 -2084 -2505 0
-9924 2505 0
-9924 2084 0
3635 -9925 0
9925 -2085 -2503 0
-9925 2503 0
-9925 2085 0
-3775 10343 10344 10345 0
3775 -10343 0
10343 -2503 -2924 0
-10343 2924 0
-10343 2503 0
3775 -10344 0
10344 -2504 -2925 0
-10344 2925 0
-10344 2504 0
3775 -10345 0
10345 -2505 -2923 0
-10345 2923 0
-10345 2505 0
-4195 5723 5724 5725 0
4195 -5723 0
4195 -5724 0
4195 -5725 0
-4335 6143 6144 6145 0
4335 -6143 0
4335 -6144 0
4335 -6145 0
-4475 6563 6564 6565 0
4475 -6563 0
4475 -6564 0
4475 -6565 0
-4615 6983 6984 6985 0
4615 -6983 0
4615 -6984 0
4615 -6985 0
-4755 7403 7404 7405 0
4755 -7403 0
4755 -7404 0
4755 -7405 0
-4895 7823 7824 7825 0
4895 -7823 0
4895 -7824 0
4895 -7825 0
5723 -823 -404 0
-5723 404 0
-5723 823 0
5724 -824 -405 0
-5724 405 0
-5724 824 0
5725 -825 -403 0
-5725 403 0
-5725 825 0
6143 -1243 -824 0
-6143 824 0
-6143 1243 0
6144 -1244 -825 0
-6144 825 0
-6144 1244 0
6145 -1245 -823 0
-6145 823 0
-6145 1245 0
6563 -1663 -1244 0
-6563 1244 0
-6563 1663 0
6564 -1664 -1245 0
-6564 1245 0
-6564 1664 0
6565 -1665 -1243 0
-6565 1243 0
-6565 1665 0
6983 -2083 -1664 0
-6983 1664 0
-6983 2083 0
6984 -2084 -1665 0
-6984 1665 0
-6984 2084 0
6985 -2085 -1663 0
-6985 1663 0
-6985 2085 0
7403 -2503 -2084 0
-7403 2084 0
-7403 2503 0
7404 -2504 -2085 0
-7404 2085 0
-7404 2504 0
7405 -2505 -2083 0
-7405 2083 0
-7405 2505 0
-7823 403 0
-7823 2503 0
-7823 -2924 0
7823 -403 -2503 2924 0
-7824 404 0
-7824 2504 0
-7824 -2925 0
7824 -404 -2504 2925 0
-7825 405 0
-7825 2505 0
-7825 -2923 0
7825 -405 -2505 2923 0
-3076 8246 8247 8248 0
3076 -8246 0
8246 -406 -827 0
-8246 827 0
-8246 406 0
3076 -8247 0
8247 -407 -828 0
-8247 828 0
-8247 407 0
3076 -8248 0
8248 -408 -826 0
-8248 826 0
-8248 408 0
-3216 8666 8667 8668 0
3216 -8666 0
8666 -826 -1247 0
-8666 1247 0
-8666 826 0
3216 -8667 0
8667 -827 -1248 0
-8667 1248 0
-8667 827 0
3216 -8668 0
8668 -828 -1246 0
-8668 1246 0
-8668 828 0
-3356 9086 9087 9088 0
3356 -9086 0
9086 -1246 -1667 0
-9086 1667 0
-9086 1246 0
3356 -9087 0
9087 -1247 -1668 0
-9087 1668 0
-9087 1247 0
3356 -9088 0
9088 -1248 -1666 0
-9088 1666 0
-9088 1248 0
-3496 9506 9507 9508 0
3496 -9506 0
9506 -1666 -2087 0
-9506 2087 0
-9506 1666 0
3496 -9507 0
9507 -1667 -2088 0
-9507 2088 0
-9507 1667 0
3496 -9508 0
9508 -1668 -2086 0
-9508 2086 0
-9508 1668 0
-3636 9926 9927 9928 0
3636 -9926 0
9926 -2086 -2507 0
-9926 2507 0
-9926 2086 0
3636 -9927 0
9927 -2087 -2508 0
-9927 2508 0
-9927 2087 0
3636 -9928 0
9928 -2088 -2506 0
-9928 2506 0
-9928 2088 0
-3776 10346 10347 10348 0
3776 -10346 0
10346 -2506 -2927 0
-10346 2927 0
-10346 2506 0
3776 -10347 0
10347 -2507 -2928 0
-10347 2928 0
-10347 2507 0
3776 -10348 0
10348 -2508 -2926 0
-10348 2926 0
-10348 2508 0
-4196 5726 5727 5728 0
4196 -5726 0
4196 -5727 0
4196 -5728 0
-4336 6146 6147 6148 0
4336 -6146 0
4336 -6147 0
4336 -6148 0
-4476 6566 6567 6568 0
4476 -6566 0
4476 -6567 0
4476 -6568 0
-4616 6986 6987 6988 0
4616 -6986 0
4616 -6987 0
4616 -6988 0
-4756 7406 7407 7408 0
4756 -7406 0
4756 -7407 0
4756 -7408 0
-4896 7826 7827 7828 0
4896 -7826 0
4896 -7827 0
4896 -7828 0
5726 -826 -407 0
-5726 407 0
-5726 826 0
5727 -827 -408 0
-5727 408 0
-5727 827 0
5728 -828 -406 0
-5728 406 0
-5728 828 0
6146 -1246 -827 0
-6146 827 0
-6146 1246 0
6147 -1247 -828 0
-6147 828 0
-6147 1247 0
6148 -1248 -826 0
-6148 826 0
-6148 1248 0
6566 -1666 -1247 0
-6566 1247 0
-6566 1666 0
6567 -1667 -1248 0
-6567 1248 0
-6567 1667 0
6568 -1668 -1246 0
-6568 1246 0
-6568 1668 0
6986 -2086 -1667 0
-6986 1667 0
-6986 2086 0
6987 -2087 -1668 0
-6987 1668 0
-6987 2087 0
6988 -2088 -1666 0
-6988 1666 0
-6988 2088 0
7406 -2506 -2087 0
-7406 2087 0
-7406 2506 0
7407 -2507 -2088 0
-7407 2088 0
-7407 2507 0
7408 -2508 -2086 0
-7408 2086 0
-7408 2508 0
-7826 406 0
-7826 2506 0
-7826 -2927 0
7826 -406 -2506 2927 0
-7827 407 0
-7827 2507 0
-7827 -2928 0
7827 -407 -2507 2928 0
-7828 408 0
-7828 2508 0
-7828 -2926 0
7828 -408 -2508 2926 0
-3077 8249 8250 8251 0
3077 -8249 0
8249 -409 -830 0
-8249 830 0
-8249 409 0
3077 -8250 0
8250 -410 -831 0
-8250 831 0
-8250 410 0
3077 -8251 0
8251 -411 -829 0
-8251 829 0
-8251 411 0
-3217 8669 8670 8671 0
3217 -8669 0
8669 -829 -1250 0
-8669 1250 0
-8669 829 0
3217 -8670 0
8670 -830 -1251 0
-8670 1251 0
-8670 830 0
3217 -8671 0
8671 -831 -1249 0
-8671 1249 0
-8671 831 0
-3357 9089 9090 9091 0
3357 -9089 0
9089 -1249 -1670 0
-9089 1670 0
-9089 1249 0
3357 -9090 0
9090 -1250 -1671 0
-9090 1671 0
-9090 1250 0
3357 -9091 0
9091 -1251 -1669 0
-9091 1669 0
-9091 1251 0
-3497 9509 9510 9511 0
3497 -9509 0
9509 -1669 -2090 0
-9509 2090 0
-9509 1669 0
3497 -9510 0
9510 -1670 -2091 0
-9510 2091 0
-9510 1670 0
3497 -9511 0
9511 -1671 -2089 0
-9511 2089 0
-9511 1671 0
-3637 9929 9930 9931 0
3637 -9929 0
9929 -2089 -2510 0
-9929 2510 0
-9929 2089 0
3637 -9930 0
9930 -2090 -2511 0
-9930 2511 0
-9930 2090 0
3637 -9931 0
9931 -2091 -2509 0
-9931 2509 0
-9931 2091 0
-3777 10349 10350 10351 0
3777 -10349 0
10349 -2509 -2930 0
-10349 2930 0
-10349 2509 0
3777 -10350 0
10350 -2510 -2931 0
-10350 2931 0
-10350 2510 0
3777 -10351 0
10351 -2511 -2929 0
-10351 2929 0
-10351 2511 0
-4197 5729 5730 5731 0
4197 -5729 0
4197 -5730 0
4197 -5731 0
-4337 6149 6150 6151 0
4337 -6149 0
4337 -6150 0
4337 -6151 0
-4477 6569 6570 6571 0
4477 -6569 0
4477 -6570 0
4477 -6571 0
-4617 6989 6990 6991 0
4617 -6989 0
4617 -6990 0
4617 -6991 0
-4757 7409 7410 7411 0
4757 -7409 0
4757 -7410 0
4757 -7411 0
-4897 7829 7830 7831 0
4897 -7829 0
4897 -7830 0
4897 -7831 0
5729 -829 -410 0
-5729 410 0
-5729 829 0
5730 -830 -411 0
-5730 411 0
-5730 830 0
5731 -831 -409 0
-5731 409 0
-5731 831 0
6149 -1249 -830 0
-6149 830 0
-6149 1249 0
6150 -1250 -831 0
-6150 831 0
-6150 1250 0
6151 -1251 -829 0
-6151 829 0
-6151 1251 0
6569 -1669 -1250 0
-6569 1250 0
-6569 1669 0
6570 -1670 -1251 0
-6570 1251 0
-6570 1670 0
6571 -1671 -1249 0
-6571 1249 0
-6571 1671 0
6989 -2089 -1670 0
-6989 1670 0
-6989 2089 0
6990 -2090 -1671 0
-6990 1671 0
-6990 2090 0
6991 -2091 -1669 0
-6991 1669 0
-6991 2091 0
7409 -2509 -2090 0
-7409 2090 0
-7409 2509 0
7410 -2510 -2091 0
-7410 2091 0
-7410 2510 0
7411 -2511 -2089 0
-7411 2089 0
-7411 2511 0
-7829 409 0
-7829 2509 0
-7829 -2930 0
7829 -409 -2509 2930 0
-7830 410 0
-7830 2510 0
-7830 -2931 0
7830 -410 -2510 2931 0
-7831 411 0
-7831 2511 0
-7831 -2929 0
7831 -411 -2511 2929 0
-3078 8252 8253 8254 0
3078 -8252 0
8252 -412 -833 0
-8252 833 0
-8252 412 0
3078 -8253 0
8253 -413 -834 0
-8253 834 0
-8253 413 0
3078 -8254 0
8254 -414 -832 0
-8254 832 0
-8254 414 0
-3218 8672 8673 8674 0
3218 -8672 0
8672 -832 -1253 0
-8672 1253 0
-8672 832 0
3218 -8673 0
8673 -833 -1254 0
-8673 1254 0
-8673 833 0
3218 -8674 0
8674 -834 -1252 0
-8674 1252 0
-8674 834 0
-3358 9092 9093 9094 0
3358 -9092 0
9092 -1252 -1673 0
-9092 1673 0
-9092 1252 0
3358 -9093 0
9093 -1253 -1674 0
-9093 1674 0
-9093 1253 0
3358 -9094 0
9094 -1254 -1672 0
-9094 1672 0
-9094 1254 0
-3498 9512 9513 9514 0
3498 -9512 0
9512 -1672 -2093 0
-9512 2093 0
-9512 1672 0
3498 -9513 0
9513 -1673 -2094 0
-9513 2094 0
-9513 1673 0
3498 -9514 0
9514 -1674 -2092 0
-9514 2092 0
-9514 1674 0
-3638 9932 9933 9934 0
3638 -9932 0
9932 -2092 -2513 0
-9932 2513 0
-9932 2092 0
3638 -9933 0
9933 -2093 -2514 0
-9933 2514 0
-9933 2093 0
3638 -9934 0
9934 -2094 -2512 0
-9934 2512 0
-9934 2094 0
-3778 10352 10353 10354 0
3778 -10352 0
10352 -2512 -2933 0
-10352 2933 0
-10352 2512 0
3778 -10353 0
10353 -2513 -2934 0
-10353 2934 0
-10353 2513 0
3778 -10354 0
10354 -2514 -2932 0
-10354 2932 0
-10354 2514 0
-4198 5732 5733 5734 0
4198 -5732 0
4198 -5733 0
4198 -5734 0
-4338 6152 6153 6154 0
4338 -6152 0
4338 -6153 0
4338 -6154 0
-4478 6572 6573 6574 0
4478 -6572 0
4478 -6573 0
4478 -6574 0
-4618 6992 6993 6994 0
4618 -6992 0
4618 -6993 0
4618 -6994 0
-4758 7412 7413 7414 0
4758 -7412 0
4758 -7413 0
4758 -7414 0
-4898 7832 7833 7834 0
4898 -7832 0
4898 -7833 0
4898 -7834 0
5732 -832 -413 0
-5732 413 0
-5732 832 0
5733 -833 -414 0
-5733 414 0
-5733 833 0
5734 -834 -412 0
-5734 412 0
-5734 834 0
6152 -1252 -833 0
-6152 833 0
-6152 1252 0
6153 -1253 -834 0
-6153 834 0
-6153 1253 0
6154 -1254 -832 0
-6154 832 0
-6154 1254 0
6572 -1672 -1253 0
-6572 1253 0
-6572 1672 0
6573 -1673 -1254 0
-6573 1254 0
-6573 1673 0
6574 -1674 -1252 0
-6574 1252 0
-6574 1674 0
6992 -2092 -1673 0
-6992 1673 0
-6992 2092 0
6993 -2093 -1674 0
-6993 1674 0
-6993 2093 0
6994 -2094 -1672 0
-6994 1672 0
-6994 2094 0
7412 -2512 -2093 0
-7412 2093 0
-7412 2512 0
7413 -2513 -2094 0
-7413 2094 0
-7413 2513 0
7414 -2514 -2092 0
-7414 2092 0
-7414 2514 0
-7832 412 0
-7832 2512 0
-7832 -2933 0
7832 -412 -2512 2933 0
-7833 413 0
-7833 2513 0
-7833 -2934 0
7833 -413 -2513 2934 0
-7834 414 0
-7834 2514 0
-7834 -2932 0
7834 -414 -2514 2932 0
-3079 8255 8256 8257 0
3079 -8255 0
8255 -415 -836 0
-8255 836 0
-8255 415 0
3079 -8256 0
8256 -416 -837 0
-8256 837 0
-8256 416 0
3079 -8257 0
8257 -417 -835 0
-8257 835 0
-8257 417 0
-3219 8675 8676 8677 0
3219 -8675 0
8675 -835 -1256 0
-8675 1256 0
-8675 835 0
3219 -8676 0
8676 -836 -1257 0
-8676 1257 0
-8676 836 0
3219 -8677 0
8677 -837 -1255 0
-8677 1255 0
-8677 837 0
-3359 9095 9096 9097 0
3359 -9095 0
9095 -1255 -1676 0
-9095 1676 0
-9095 1255 0
3359 -9096 0
9096 -1256 -1677 0
-9096 1677 0
-9096 1256 0
3359 -9097 0
9097 -1257 -1675 0
-9097 1675 0
-9097 1257 0
-3499 9515 9516 9517 0
3499 -9515 0
9515 -1675 -2096 0
-9515 2096 0
-9515 1675 0
3499 -9516 0
9516 -1676 -2097 0
-9516 2097 0
-9516 1676 0
3499 -9517 0
9517 -1677 -2095 0
-9517 2095 0
-9517 1677 0
-3639 9935 9936 9937 0
3639 -9935 0
9935 -2095 -2516 0
-9935 2516 0
-9935 2095 0
3639 -9936 0
9936 -2096 -2517 0
-9936 2517 0
-9936 2096 0
3639 -9937 0
9937 -2097 -2515 0
-9937 2515 0
-9937 2097 0
-3779 10355 10356 10357 0
3779 -10355 0
10355 -2515 -2936 0
-10355 2936 0
-10355 2515 0
3779 -10356 0
10356 -2516 -2937 0
-10356 2937 0
-10356 2516 0
3779 -10357 0
10357 -2517 -2935 0
-10357 2935 0
-10357 2517 0
-4199 5735 5736 5737 0
4199 -5735 0
4199 -5736 0
4199 -5737 0
-4339 6155 6156 6157 0
4339 -6155 0
4339 -6156 0
4339 -6157 0
-4479 6575 6576 6577 0
4479 -6575 0
4479 -6576 0
4479 -6577 0
-4619 6995 6996 6997 0
4619 -6995 0
4619 -6996 0
4619 -6997 0
-4759 7415 7416 7417 0
4759 -7415 0
4759 -7416 0
4759 -7417 0
-4899 7835 7836 7837 0
4899 -7835 0
4899 -7836 0
4899 -7837 0
5735 -835 -416 0
-5735 416 0
-5735 835 0
5736 -836 -417 0
-5736 417 0
-5736 836 0
5737 -837 -415 0
-5737 415 0
-5737 837 0
6155 -1255 -836 0
-6155 836 0
-6155 1255 0
6156 -1256 -837 0
-6156 837 0
-6156 1256 0
6157 -1257 -835 0
-6157 835 0
-6157 1257 0
6575 -1675 -1256 0
-6575 1256 0
-6575 1675 0
6576 -1676 -1257 0
-6576 1257 0
-6576 1676 0
6577 -1677 -1255 0
-6577 1255 0
-6577 1677 0
6995 -2095 -1676 0
-6995 1676 0
-6995 2095 0
6996 -2096 -1677 0
-6996 1677 0
-6996 2096 0
6997 -2097 -1675 0
-6997 1675 0
-6997 2097 0
7415 -2515 -2096 0
-7415 2096 0
-7415 2515 0
7416 -2516 -2097 0
-7416 2097 0
-7416 2516 0
7417 -2517 -2095 0
-7417 2095 0
-7417 2517 0
-7835 415 0
-7835 2515 0
-7835 -2936 0
7835 -415 -2515 2936 0
-7836 416 0
-7836 2516 0
-7836 -2937 0
7836 -416 -2516 2937 0
-7837 417 0
-7837 2517 0
-7837 -2935 0
7837 -417 -2517 2935 0
-3080 8258 8259 8260 0
3080 -8258 0
8258 -418 -839 0
-8258 839 0
-8258 418 0
3080 -8259 0
8259 -419 -840 0
-8259 840 0
-8259 419 0
3080 -8260 0
8260 -420 -838 0
-8260 838 0
-8260 420 0
-3220 8678 8679 8680 0
3220 -8678 0
8678 -838 -1259 0
-8678 1259 0
-8678 838 0
3220 -8679 0
8679 -839 -1260 0
-8679 1260 0
-8679 839 0
3220 -8680 0
8680 -840 -1258 0
-8680 1258 0
-8680 840 0
-3360 9098 9099 9100 0
3360 -9098 0
9098 -1258 -1679 0
-9098 1679 0
-9098 1258 0
3360 -9099 0
9099 -1259 -1680 0
-9099 1680 0
-9099 1259 0
3360 -9100 0
9100 -1260 -1678 0
-9100 1678 0
-9100 1260 0
-3500 9518 9519 9520 0
3500 -9518 0
9518 -1678 -2099 0
-9518 2099 0
-9518 1678 0
3500 -9519 0
9519 -1679 -2100 0
-9519 2100 0
-9519 1679 0
3500 -9520 0
9520 -1680 -2098 0
-9520 2098 0
-9520 1680 0
-3640 9938 9939 9940 0
3640 -9938 0
9938 -2098 -2519 0
-9938 2519 0
-9938 2098 0
3640 -9939 0
9939 -2099 -2520 0
-9939 2520 0
-9939 2099 0
3640 -9940 0
9940 -2100 -2518 0
-9940 2518 0
-9940 2100 0
-3780 10358 10359 10360 0
3780 -10358 0
10358 -2518 -2939 0
-10358 2939 0
-10358 2518 0
3780 -10359 0
10359 -2519 -2940 0
-10359 2940 0
-10359 2519 0
3780 -10360 0
10360 -2520 -2938 0
-10360 2938 0
-10360 2520 0
-4200 5738 5739 5740 0
4200 -5738 0
4200 -5739 0
4200 -5740 0
-4340 6158 6159 6160 0
4340 -6158 0
4340 -6159 0
4340 -6160 0
-4480 6578 6579 6580 0
4480 -6578 0
4480 -6579 0
4480 -6580 0
-4620 6998 6999 7000 0
4620 -6998 0
4620 -6999 0
4620 -7000 0
-4760 7418 7419 7420 0
4760 -7418 0
4760 -7419 0
4760 -7420 0
-4900 7838 7839 7840 0
4900 -7838 0
4900 -7839 0
4900 -7840 0
5738 -838 -419 0
-5738 419 0
-5738 838 0
5739 -839 -420 0
-5739 420 0
-5739 839 0
5740 -840 -418 0
-5740 418 0
-5740 840 0
6158 -1258 -839 0
-6158 839 0
-6158 1258 0
6159 -1259 -840 0
-6159 840 0
-6159 1259 0
6160 -1260 -838 0
-6160 838 0
-6160 1260 0
6578 -1678 -1259 0
-6578 1259 0
-6578 1678 0
6579 -1679 -1260 0
-6579 1260 0
-6579 1679 0
6580 -1680 -1258 0
-6580 1258 0
-6580 1680 0
6998 -2098 -1679 0
-6998 1679 0
-6998 2098 0
6999 -2099 -1680 0
-6999 1680 0
-6999 2099 0
7000 -2100 -1678 0
-7000 1678 0
-7000 2100 0
7418 -2518 -2099 0
-7418 2099 0
-7418 2518 0
7419 -2519 -2100 0
-7419 2100 0
-7419 2519 0
7420 -2520 -2098 0
-7420 2098 0
-7420 2520 0
-7838 418 0
-7838 2518 0
-7838 -2939 0
7838 -418 -2518 2939 0
-7839 419 0
-7839 2519 0
-7839 -2940 0
7839 -419 -2519 2940 0
-7840 420 0
-7840 2520 0
-7840 -2938 0
7840 -420 -2520 2938 0
-11621 4761 0
11621 -4761 0
-10781 2941 0
10781 -2941 0
-11622 4762 0
11622 -4762 0
-10782 2942 0
10782 -2942 0
-11623 4763 0
11623 -4763 0
-10783 2943 0
10783 -2943 0
-11624 4764 0
11624 -4764 0
-10784 2944 0
10784 -2944 0
-11625 4765 0
11625 -4765 0
-10785 2945 0
10785 -2945 0
-11626 4766 0
11626 -4766 0
-10786 2946 0
10786 -2946 0
-11627 4767 0
11627 -4767 0
-10787 2947 0
10787 -2947 0
-11628 4768 0
11628 -4768 0
-10788 2948 0
10788 -2948 0
-11629 4769 0
11629 -4769 0
-10789 2949 0
10789 -2949 0
-11630 4770 0
11630 -4770 0
-10790 2950 0
10790 -2950 0
-11631 4771 0
11631 -4771 0
-10791 2951 0
10791 -2951 0
-11632 4772 0
11632 -4772 0
-10792 2952 0
10792 -2952 0
-11633 4773 0
11633 -4773 0
-10793 2953 0
10793 -2953 0
-11634 4774 0
11634 -4774 0
-10794 2954 0
10794 -2954 0
-11635 4775 0
11635 -4775 0
-10795 2955 0
10795 -2955 0
-11636 4776 0
11636 -4776 0
-10796 2956 0
10796 -2956 0
-11637 4777 0
11637 -4777 0
-10797 2957 0
10797 -2957 0
-11638 4778 0
11638 -4778 0
-10798 2958 0
10798 -2958 0
-11639 4779 0
11639 -4779 0
-10799 2959 0
10799 -2959 0
-11640 4780 0
11640 -4780 0
-10800 2960 0
10800 -2960 0
-11641 4781 0
11641 -4781 0
-10801 2961 0
10801 -2961 0
-11642 4782 0
11642 -4782 0
-10802 2962 0
10802 -2962 0
-11643 4783 0
11643 -4783 0
-10803 2963 0
10803 -2963 0
-11644 4784 0
11644 -4784 0
-10804 2964 0
10804 -2964 0
-11645 4785 0
11645 -4785 0
-10805 2965 0
10805 -2965 0
-11646 4786 0
11646 -4786 0
-10806 2966 0
10806 -2966 0
-11647 4787 0
11647 -4787 0
-10807 2967 0
10807 -2967 0
-11648 4788 0
11648 -4788 0
-10808 2968 0
10808 -2968 0
-11649 4789 0
11649 -4789 0
-10809 2969 0
10809 -2969 0
-11650 4790 0
11650 -4790 0
-10810 2970 0
10810 -2970 0
-11651 4791 0
11651 -4791 0
-10811 2971 0
10811 -2971 0
-11652 4792 0
11652 -4792 0
-10812 2972 0
10812 -2972 0
-11653 4793 0
11653 -4793 0
-10813 2973 0
10813 -2973 0
-11654 4794 0
11654 -4794 0
-10814 2974 0
10814 -2974 0
-11655 4795 0
11655 -4795 0
-10815 2975 0
10815 -2975 0
-11656 4796 0
11656 -4796 0
-10816 2976 0
10816 -2976 0
-11657 4797 0
11657 -4797 0
-10817 2977 0
10817 -2977 0
-11658 4798 0
11658 -4798 0
-10818 2978 0
10818 -2978 0
-11659 4799 0
11659 -4799 0
-10819 2979 0
10819 -2979 0
-11660 4800 0
11660 -4800 0
-10820 2980 0
10820 -2980 0
-11661 4801 0
11661 -4801 0
-10821 2981 0
10821 -2981 0
-11662 4802 0
11662 -4802 0
-10822 2982 0
10822 -2982 0
-11663 4803 0
11663 -4803 0
-10823 2983 0
10823 -2983 0
-11664 4804 0
11664 -4804 0
-10824 2984 0
10824 -2984 0
-11665 4805 0
11665 -4805 0
-10825 2985 0
10825 -2985 0
-11666 4806 0
11666 -4806 0
-10826 2986 0
10826 -2986 0
-11667 4807 0
11667 -4807 0
-10827 2987 0
10827 -2987 0
-11668 4808 0
11668 -4808 0
-10828 2988 0
10828 -2988 0
-11669 4809 0
11669 -4809 0
-10829 2989 0
10829 -2989 0
-11670 4810 0
11670 -4810 0
-10830 2990 0
10830 -2990 0
-11671 4811 0
11671 -4811 0
-10831 2991 0
10831 -2991 0
-11672 4812 0
11672 -4812 0
-10832 2992 0
10832 -2992 0
-11673 4813 0
11673 -4813 0
-10833 2993 0
10833 -2993 0
-11674 4814 0
11674 -4814 0
-10834 2994 0
10834 -2994 0
-11675 4815 0
11675 -4815 0
-10835 2995 0
10835 -2995 0
-11676 4816 0
11676 -4816 0
-10836 2996 0
10836 -2996 0
-11677 4817 0
11677 -4817 0
-10837 2997 0
10837 -2997 0
-11678 4818 0
11678 -4818 0
-10838 2998 0
10838 -2998 0
-11679 4819 0
11679 -4819 0
-10839 2999 0
10839 -2999 0
-11680 4820 0
11680 -4820 0
-10840 3000 0
10840 -3000 0
-11681 4821 0
11681 -4821 0
-10841 3001 0
10841 -3001 0
-11682 4822 0
11682 -4822 0
-10842 3002 0
10842 -3002 0
-11683 4823 0
11683 -4823 0
-10843 3003 0
10843 -3003 0
-11684 4824 0
11684 -4824 0
-10844 3004 0
10844 -3004 0
-11685 4825 0
11685 -4825 0
-10845 3005 0
10845 -3005 0
-11686 4826 0
11686 -4826 0
-10846 3006 0
10846 -3006 0
-11687 4827 0
11687 -4827 0
-10847 3007 0
10847 -3007 0
-11688 4828 0
11688 -4828 0
-10848 3008 0
10848 -3008 0
-11689 4829 0
11689 -4829 0
-10849 3009 0
10849 -3009 0
-11690 4830 0
11690 -4830 0
-10850 3010 0
10850 -3010 0
-11691 4831 0
11691 -4831 0
-10851 3011 0
10851 -3011 0
-11692 4832 0
11692 -4832 0
-10852 3012 0
10852 -3012 0
-11693 4833 0
11693 -4833 0
-10853 3013 0
10853 -3013 0
-11694 4834 0
11694 -4834 0
-10854 3014 0
10854 -3014 0
-11695 4835 0
11695 -4835 0
-10855 3015 0
10855 -3015 0
-11696 4836 0
11696 -4836 0
-10856 3016 0
10856 -3016 0
-11697 4837 0
11697 -4837 0
-10857 3017 0
10857 -3017 0
-11698 4838 0
11698 -4838 0
-10858 3018 0
10858 -3018 0
-11699 4839 0
11699 -4839 0
-10859 3019 0
10859 -3019 0
-11700 4840 0
11700 -4840 0
-10860 3020 0
10860 -3020 0
-11701 4841 0
11701 -4841 0
-10861 3021 0
10861 -3021 0
-11702 4842 0
11702 -4842 0
-10862 3022 0
10862 -3022 0
-11703 4843 0
11703 -4843 0
-10863 3023 0
10863 -3023 0
-11704 4844 0
11704 -4844 0
-10864 3024 0
10864 -3024 0
-11705 4845 0
11705 -4845 0
-10865 3025 0
10865 -3025 0
-11706 4846 0
11706 -4846 0
-10866 3026 0
10866 -3026 0
-11707 4847 0
11707 -4847 0
-10867 3027 0
10867 -3027 0
-11708 4848 0
11708 -4848 0
-10868 3028 0
10868 -3028 0
-11709 4849 0
11709 -4849 0
-10869 3029 0
10869 -3029 0
-11710 4850 0
11710 -4850 0
-10870 3030 0
10870 -3030 0
-11711 4851 0
11711 -4851 0
-10871 3031 0
10871 -3031 0
-11712 4852 0
11712 -4852 0
-10872 3032 0
10872 -3032 0
-11713 4853 0
11713 -4853 0
-10873 3033 0
10873 -3033 0
-11714 4854 0
11714 -4854 0
-10874 3034 0
10874 -3034 0
-11715 4855 0
11715 -4855 0
-10875 3035 0
10875 -3035 0
-11716 4856 0
11716 -4856 0
-10876 3036 0
10876 -3036 0
-11717 4857 0
11717 -4857 0
-10877 3037 0
10877 -3037 0
-11718 4858 0
11718 -4858 0
-10878 3038 0
10878 -3038 0
-11719 4859 0
11719 -4859 0
-10879 3039 0
10879 -3039 0
-11720 4860 0
11720 -4860 0
-10880 3040 0
10880 -3040 0
-11721 4861 0
11721 -4861 0
-10881 3041 0
10881 -3041 0
-11722 4862 0
11722 -4862 0
-10882 3042 0
10882 -3042 0
-11723 4863 0
11723 -4863 0
-10883 3043 0
10883 -3043 0
-11724 4864 0
11724 -4864 0
-10884 3044 0
10884 -3044 0
-11725 4865 0
11725 -4865 0
-10885 3045 0
10885 -3045 0
-11726 4866 0
11726 -4866 0
-10886 3046 0
10886 -3046 0
-11727 4867 0
11727 -4867 0
-10887 3047 0
10887 -3047 0
-11728 4868 0
11728 -4868 0
-10888 3048 0
10888 -3048 0
-11729 4869 0
11729 -4869 0
-10889 3049 0
10889 -3049 0
-11730 4870 0
11730 -4870 0
-10890 3050 0
10890 -3050 0
-11731 4871 0
11731 -4871 0
-10891 3051 0
10891 -3051 0
-11732 4872 0
11732 -4872 0
-10892 3052 0
10892 -3052 0
-11733 4873 0
11733 -4873 0
-10893 3053 0
10893 -3053 0
-11734 4874 0
11734 -4874 0
-10894 3054 0
10894 -3054 0
-11735 4875 0
11735 -4875 0
-10895 3055 0
10895 -3055 0
-11736 4876 0
11736 -4876 0
-10896 3056 0
10896 -3056 0
-11737 4877 0
11737 -4877 0
-10897 3057 0
10897 -3057 0
-11738 4878 0
11738 -4878 0
-10898 3058 0
10898 -3058 0
-11739 4879 0
11739 -4879 0
-10899 3059 0
10899 -3059 0
-11740 4880 0
11740 -4880 0
-10900 3060 0
10900 -3060 0
-11741 4881 0
11741 -4881 0
-10901 3061 0
10901 -3061 0
-11742 4882 0
11742 -4882 0
-10902 3062 0
10902 -3062 0
-11743 4883 0
11743 -4883 0
-10903 3063 0
10903 -3063 0
-11744 4884 0
11744 -4884 0
-10904 3064 0
10904 -3064 0
-11745 4885 0
11745 -4885 0
-10905 3065 0
10905 -3065 0
-11746 4886 0
11746 -4886 0
-10906 3066 0
10906 -3066 0
-11747 4887 0
11747 -4887 0
-10907 3067 0
10907 -3067 0
-11748 4888 0
11748 -4888 0
-10908 3068 0
10908 -3068 0
-11749 4889 0
11749 -4889 0
-10909 3069 0
10909 -3069 0
-11750 4890 0
11750 -4890 0
-10910 3070 0
10910 -3070 0
-11751 4891 0
11751 -4891 0
-10911 3071 0
10911 -3071 0
-11752 4892 0
11752 -4892 0
-10912 3072 0
10912 -3072 0
-11753 4893 0
11753 -4893 0
-10913 3073 0
10913 -3073 0
-11754 4894 0
11754 -4894 0
-10914 3074 0
10914 -3074 0
-11755 4895 0
11755 -4895 0
-10915 3075 0
10915 -3075 0
-11756 4896 0
11756 -4896 0
-10916 3076 0
10916 -3076 0
-11757 4897 0
11757 -4897 0
-10917 3077 0
10917 -3077 0
-11758 4898 0
11758 -4898 0
-10918 3078 0
10918 -3078 0
-11759 4899 0
11759 -4899 0
-10919 3079 0
10919 -3079 0
-11760 4900 0
11760 -4900 0
-10920 3080 0
10920 -3080 0
-10921 4061 3081 0
10921 -4061 0
10921 -3081 0
-10922 4062 3082 0
10922 -4062 0
10922 -3082 0
-10923 4063 3083 0
10923 -4063 0
10923 -3083 0
-10924 4064 3084 0
10924 -4064 0
10924 -3084 0
-10925 4065 3085 0
10925 -4065 0
10925 -3085 0
-10926 4066 3086 0
10926 -4066 0
10926 -3086 0
-10927 4067 3087 0
10927 -4067 0
10927 -3087 0
-10928 4068 3088 0
10928 -4068 0
10928 -3088 0
-10929 4069 3089 0
10929 -4069 0
10929 -3089 0
-10930 4070 3090 0
10930 -4070 0
10930 -3090 0
-10931 4071 3091 0
10931 -4071 0
10931 -3091 0
-10932 4072 3092 0
10932 -4072 0
10932 -3092 0
-10933 4073 3093 0
10933 -4073 0
10933 -3093 0
-10934 4074 3094 0
10934 -4074 0
10934 -3094 0
-10935 4075 3095 0
10935 -4075 0
10935 -3095 0
-10936 4076 3096 0
10936 -4076 0
10936 -3096 0
-10937 4077 3097 0
10937 -4077 0
10937 -3097 0
-10938 4078 3098 0
10938 -4078 0
10938 -3098 0
-10939 4079 3099 0
10939 -4079 0
10939 -3099 0
-10940 4080 3100 0
10940 -4080 0
10940 -3100 0
-10941 4081 3101 0
10941 -4081 0
10941 -3101 0
-10942 4082 3102 0
10942 -4082 0
10942 -3102 0
-10943 4083 3103 0
10943 -4083 0
10943 -3103 0
-10944 4084 3104 0
10944 -4084 0
10944 -3104 0
-10945 4085 3105 0
10945 -4085 0
10945 -3105 0
-10946 4086 3106 0
10946 -4086 0
10946 -3106 0
-10947 4087 3107 0
10947 -4087 0
10947 -3107 0
-10948 4088 3108 0
10948 -4088 0
10948 -3108 0
-10949 4089 3109 0
10949 -4089 0
10949 -3109 0
-10950 4090 3110 0
10950 -4090 0
10950 -3110 0
-10951 4091 3111 0
10951 -4091 0
10951 -3111 0
-10952 4092 3112 0
10952 -4092 0
10952 -3112 0
-10953 4093 3113 0
10953 -4093 0
10953 -3113 0
-10954 4094 3114 0
10954 -4094 0
10954 -3114 0
-10955 4095 3115 0
10955 -4095 0
10955 -3115 0
-10956 4096 3116 0
10956 -4096 0
10956 -3116 0
-10957 4097 3117 0
10957 -4097 0
10957 -3117 0
-10958 4098 3118 0
10958 -4098 0
10958 -3118 0
-10959 4099 3119 0
10959 -4099 0
10959 -3119 0
-10960 4100 3120 0
10960 -4100 0
10960 -3120 0
-10961 4101 3121 0
10961 -4101 0
10961 -3121 0
-10962 4102 3122 0
10962 -4102 0
10962 -3122 0
-10963 4103 3123 0
10963 -4103 0
10963 -3123 0
-10964 4104 3124 0
10964 -4104 0
10964 -3124 0
-10965 4105 3125 0
10965 -4105 0
10965 -3125 0
-10966 4106 3126 0
10966 -4106 0
10966 -3126 0
-10967 4107 3127 0
10967 -4107 0
10967 -3127 0
-10968 4108 3128 0
10968 -4108 0
10968 -3128 0
-10969 4109 3129 0
10969 -4109 0
10969 -3129 0
-10970 4110 3130 0
10970 -4110 0
10970 -3130 0
-10971 4111 3131 0
10971 -4111 0
10971 -3131 0
-10972 4112 3132 0
10972 -4112 0
10972 -3132 0
-10973 4113 3133 0
10973 -4113 0
10973 -3133 0
-10974 4114 3134 0
10974 -4114 0
10974 -3134 0
-10975 4115 3135 0
10975 -4115 0
10975 -3135 0
-10976 4116 3136 0
10976 -4116 0
10976 -3136 0
-10977 4117 3137 0
10977 -4117 0
10977 -3137 0
-10978 4118 3138 0
10978 -4118 0
10978 -3138 0
-10979 4119 3139 0
10979 -4119 0
10979 -3139 0
-10980 4120 3140 0
10980 -4120 0
10980 -3140 0
-10981 4121 3141 0
10981 -4121 0
10981 -3141 0
-10982 4122 3142 0
10982 -4122 0
10982 -3142 0
-10983 4123 3143 0
10983 -4123 0
10983 -3143 0
-10984 4124 3144 0
10984 -4124 0
10984 -3144 0
-10985 4125 3145 0
10985 -4125 0
10985 -3145 0
-10986 4126 3146 0
10986 -4126 0
10986 -3146 0
-10987 4127 3147 0
10987 -4127 0
10987 -3147 0
-10988 4128 3148 0
10988 -4128 0
10988 -3148 0
-10989 4129 3149 0
10989 -4129 0
10989 -3149 0
-10990 4130 3150 0
10990 -4130 0
10990 -3150 0
-10991 4131 3151 0
10991 -4131 0
10991 -3151 0
-10992 4132 3152 0
10992 -4132 0
10992 -3152 0
-10993 4133 3153 0
10993 -4133 0
10993 -3153 0
-10994 4134 3154 0
10994 -4134 0
10994 -3154 0
-10995 4135 3155 0
10995 -4135 0
10995 -3155 0
-10996 4136 3156 0
10996 -4136 0
10996 -3156 0
-10997 4137 3157 0
10997 -4137 0
10997 -3157 0
-10998 4138 3158 0
10998 -4138 0
10998 -3158 0
-10999 4139 3159 0
10999 -4139 0
10999 -3159 0
-11000 4140 3160 0
11000 -4140 0
11000 -3160 0
-11001 4141 3161 0
11001 -4141 0
11001 -3161 0
-11002 4142 3162 0
11002 -4142 0
11002 -3162 0
-11003 4143 3163 0
11003 -4143 0
11003 -3163 0
-11004 4144 3164 0
11004 -4144 0
11004 -3164 0
-11005 4145 3165 0
11005 -4145 0
11005 -3165 0
-11006 4146 3166 0
11006 -4146 0
11006 -3166 0
-11007 4147 3167 0
11007 -4147 0
11007 -3167 0
-11008 4148 3168 0
11008 -4148 0
11008 -3168 0
-11009 4149 3169 0
11009 -4149 0
11009 -3169 0
-11010 4150 3170 0
11010 -4150 0
11010 -3170 0
-11011 4151 3171 0
11011 -4151 0
11011 -3171 0
-11012 4152 3172 0
11012 -4152 0
11012 -3172 0
-11013 4153 3173 0
11013 -4153 0
11013 -3173 0
-11014 4154 3174 0
11014 -4154 0
11014 -3174 0
-11015 4155 3175 0
11015 -4155 0
11015 -3175 0
-11016 4156 3176 0
11016 -4156 0
11016 -3176 0
-11017 4157 3177 0
11017 -4157 0
11017 -3177 0
-11018 4158 3178 0
11018 -4158 0
11018 -3178 0
-11019 4159 3179 0
11019 -4159 0
11019 -3179 0
-11020 4160 3180 0
11020 -4160 0
11020 -3180 0
-11021 4161 3181 0
11021 -4161 0
11021 -3181 0
-11022 4162 3182 0
11022 -4162 0
11022 -3182 0
-11023 4163 3183 0
11023 -4163 0
11023 -3183 0
-11024 4164 3184 0
11024 -4164 0
11024 -3184 0
-11025 4165 3185 0
11025 -4165 0
11025 -3185 0
-11026 4166 3186 0
11026 -4166 0
11026 -3186 0
-11027 4167 3187 0
11027 -4167 0
11027 -3187 0
-11028 4168 3188 0
11028 -4168 0
11028 -3188 0
-11029 4169 3189 0
11029 -4169 0
11029 -3189 0
-11030 4170 3190 0
11030 -4170 0
11030 -3190 0
-11031 4171 3191 0
11031 -4171 0
11031 -3191 0
-11032 4172 3192 0
11032 -4172 0
11032 -3192 0
-11033 4173 3193 0
11033 -4173 0
11033 -3193 0
-11034 4174 3194 0
11034 -4174 0
11034 -3194 0
-11035 4175 3195 0
11035 -4175 0
11035 -3195 0
-11036 4176 3196 0
11036 -4176 0
11036 -3196 0
-11037 4177 3197 0
11037 -4177 0
11037 -3197 0
-11038 4178 3198 0
11038 -4178 0
11038 -3198 0
-11039 4179 3199 0
11039 -4179 0
11039 -3199 0
-11040 4180 3200 0
11040 -4180 0
11040 -3200 0
-11041 4181 3201 0
11041 -4181 0
11041 -3201 0
-11042 4182 3202 0
11042 -4182 0
11042 -3202 0
-11043 4183 3203 0
11043 -4183 0
11043 -3203 0
-11044 4184 3204 0
11044 -4184 0
11044 -3204 0
-11045 4185 3205 0
11045 -4185 0
11045 -3205 0
-11046 4186 3206 0
11046 -4186 0
11046 -3206 0
-11047 4187 3207 0
11047 -4187 0
11047 -3207 0
-11048 4188 3208 0
11048 -4188 0
11048 -3208 0
-11049 4189 3209 0
11049 -4189 0
11049 -3209 0
-11050 4190 3210 0
11050 -4190 0
11050 -3210 0
-11051 4191 3211 0
11051 -4191 0
11051 -3211 0
-11052 4192 3212 0
11052 -4192 0
11052 -3212 0
-11053 4193 3213 0
11053 -4193 0
11053 -3213 0
-11054 4194 3214 0
11054 -4194 0
11054 -3214 0
-11055 4195 3215 0
11055 -4195 0
11055 -3215 0
-11056 4196 3216 0
11056 -4196 0
11056 -3216 0
-11057 4197 3217 0
11057 -4197 0
11057 -3217 0
-11058 4198 3218 0
11058 -4198 0
11058 -3218 0
-11059 4199 3219 0
11059 -4199 0
11059 -3219 0
-11060 4200 3220 0
11060 -4200 0
11060 -3220 0
-11061 4201 3221 0
11061 -4201 0
11061 -3221 0
-11062 4202 3222 0
11062 -4202 0
11062 -3222 0
-11063 4203 3223 0
11063 -4203 0
11063 -3223 0
-11064 4204 3224 0
11064 -4204 0
11064 -3224 0
-11065 4205 3225 0
11065 -4205 0
11065 -3225 0
-11066 4206 3226 0
11066 -4206 0
11066 -3226 0
-11067 4207 3227 0
11067 -4207 0
11067 -3227 0
-11068 4208 3228 0
11068 -4208 0
11068 -3228 0
-11069 4209 3229 0
11069 -4209 0
11069 -3229 0
-11070 4210 3230 0
11070 -4210 0
11070 -3230 0
-11071 4211 3231 0
11071 -4211 0
11071 -3231 0
-11072 4212 3232 0
11072 -4212 0
11072 -3232 0
-11073 4213 3233 0
11073 -4213 0
11073 -3233 0
-11074 4214 3234 0
11074 -4214 0
11074 -3234 0
-11075 4215 3235 0
11075 -4215 0
11075 -3235 0
-11076 4216 3236 0
11076 -4216 0
11076 -3236 0
-11077 4217 3237 0
11077 -4217 0
11077 -3237 0
-11078 4218 3238 0
11078 -4218 0
11078 -3238 0
-11079 4219 3239 0
11079 -4219 0
11079 -3239 0
-11080 4220 3240 0
11080 -4220 0
11080 -3240 0
-11081 4221 3241 0
11081 -4221 0
11081 -3241 0
-11082 4222 3242 0
11082 -4222 0
11082 -3242 0
-11083 4223 3243 0
11083 -4223 0
11083 -3243 0
-11084 4224 3244 0
11084 -4224 0
11084 -3244 0
-11085 4225 3245 0
11085 -4225 0
11085 -3245 0
-11086 4226 3246 0
11086 -4226 0
11086 -3246 0
-11087 4227 3247 0
11087 -4227 0
11087 -3247 0
-11088 4228 3248 0
11088 -4228 0
11088 -3248 0
-11089 4229 3249 0
11089 -4229 0
11089 -3249 0
-11090 4230 3250 0
11090 -4230 0
11090 -3250 0
-11091 4231 3251 0
11091 -4231 0
11091 -3251 0
-11092 4232 3252 0
11092 -4232 0
11092 -3252 0
-11093 4233 3253 0
11093 -4233 0
11093 -3253 0
-11094 4234 3254 0
11094 -4234 0
11094 -3254 0
-11095 4235 3255 0
11095 -4235 0
11095 -3255 0
-11096 4236 3256 0
11096 -4236 0
11096 -3256 0
-11097 4237 3257 0
11097 -4237 0
11097 -3257 0
-11098 4238 3258 0
11098 -4238 0
11098 -3258 0
-11099 4239 3259 0
11099 -4239 0
11099 -3259 0
-11100 4240 3260 0
11100 -4240 0
11100 -3260 0
-11101 4241 3261 0
11101 -4241 0
11101 -3261 0
-11102 4242 3262 0
11102 -4242 0
11102 -3262 0
-11103 4243 3263 0
11103 -4243 0
11103 -3263 0
-11104 4244 3264 0
11104 -4244 0
11104 -3264 0
-11105 4245 3265 0
11105 -4245 0
11105 -3265 0
-11106 4246 3266 0
11106 -4246 0
11106 -3266 0
-11107 4247 3267 0
11107 -4247 0
11107 -3267 0
-11108 4248 3268 0
11108 -4248 0
11108 -3268 0
-11109 4249 3269 0
11109 -4249 0
11109 -3269 0
-11110 4250 3270 0
11110 -4250 0
11110 -3270 0
-11111 4251 3271 0
11111 -4251 0
11111 -3271 0
-11112 4252 3272 0
11112 -4252 0
11112 -3272 0
-11113 4253 3273 0
11113 -4253 0
11113 -3273 0
-11114 4254 3274 0
11114 -4254 0
11114 -3274 0
-11115 4255 3275 0
11115 -4255 0
11115 -3275 0
-11116 4256 3276 0
11116 -4256 0
11116 -3276 0
-11117 4257 3277 0
11117 -4257 0
11117 -3277 0
-11118 4258 3278 0
11118 -4258 0
11118 -3278 0
-11119 4259 3279 0
11119 -4259 0
11119 -3279 0
-11120 4260 3280 0
11120 -4260 0
11120 -3280 0
-11121 4261 3281 0
11121 -4261 0
11121 -3281 0
-11122 4262 3282 0
11122 -4262 0
11122 -3282 0
-11123 4263 3283 0
11123 -4263 0
11123 -3283 0
-11124 4264 3284 0
11124 -4264 0
11124 -3284 0
-11125 4265 3285 0
11125 -4265 0
11125 -3285 0
-11126 4266 3286 0
11126 -4266 0
11126 -3286 0
-11127 4267 3287 0
11127 -4267 0
11127 -3287 0
-11128 4268 3288 0
11128 -4268 0
11128 -3288 0
-11129 4269 3289 0
11129 -4269 0
11129 -3289 0
-11130 4270 3290 0
11130 -4270 0
11130 -3290 0
-11131 4271 3291 0
11131 -4271 0
11131 -3291 0
-11132 4272 3292 0
11132 -4272 0
11132 -3292 0
-11133 4273 3293 0
11133 -4273 0
11133 -3293 0
-11134 4274 3294 0
11134 -4274 0
11134 -3294 0
-11135 4275 3295 0
11135 -4275 0
11135 -3295 0
-11136 4276 3296 0
11136 -4276 0
11136 -3296 0
-11137 4277 3297 0
11137 -4277 0
11137 -3297 0
-11138 4278 3298 0
11138 -4278 0
11138 -3298 0
-11139 4279 3299 0
11139 -4279 0
11139 -3299 0
-11140 4280 3300 0
11140 -4280 0
11140 -3300 0
-11141 4281 3301 0
11141 -4281 0
11141 -3301 0
-11142 4282 3302 0
11142 -4282 0
11142 -3302 0
-11143 4283 3303 0
11143 -4283 0
11143 -3303 0
-11144 4284 3304 0
11144 -4284 0
11144 -3304 0
-11145 4285 3305 0
11145 -4285 0
11145 -3305 0
-11146 4286 3306 0
11146 -4286 0
11146 -3306 0
-11147 4287 3307 0
11147 -4287 0
11147 -3307 0
-11148 4288 3308 0
11148 -4288 0
11148 -3308 0
-11149 4289 3309 0
11149 -4289 0
11149 -3309 0
-11150 4290 3310 0
11150 -4290 0
11150 -3310 0
-11151 4291 3311 0
11151 -4291 0
11151 -3311 0
-11152 4292 3312 0
11152 -4292 0
11152 -3312 0
-11153 4293 3313 0
11153 -4293 0
11153 -3313 0
-11154 4294 3314 0
11154 -4294 0
11154 -3314 0
-11155 4295 3315 0
11155 -4295 0
11155 -3315 0
-11156 4296 3316 0
11156 -4296 0
11156 -3316 0
-11157 4297 3317 0
11157 -4297 0
11157 -3317 0
-11158 4298 3318 0
11158 -4298 0
11158 -3318 0
-11159 4299 3319 0
11159 -4299 0
11159 -3319 0
-11160 4300 3320 0
11160 -4300 0
11160 -3320 0
-11161 4301 3321 0
11161 -4301 0
11161 -3321 0
-11162 4302 3322 0
11162 -4302 0
11162 -3322 0
-11163 4303 3323 0
11163 -4303 0
11163 -3323 0
-11164 4304 3324 0
11164 -4304 0
11164 -3324 0
-11165 4305 3325 0
11165 -4305 0
11165 -3325 0
-11166 4306 3326 0
11166 -4306 0
11166 -3326 0
-11167 4307 3327 0
11167 -4307 0
11167 -3327 0
-11168 4308 3328 0
11168 -4308 0
11168 -3328 0
-11169 4309 3329 0
11169 -4309 0
11169 -3329 0
-11170 4310 3330 0
11170 -4310 0
11170 -3330 0
-11171 4311 3331 0
11171 -4311 0
11171 -3331 0
-11172 4312 3332 0
11172 -4312 0
11172 -3332 0
-11173 4313 3333 0
11173 -4313 0
11173 -3333 0
-11174 4314 3334 0
11174 -4314 0
11174 -3334 0
-11175 4315 3335 0
11175 -4315 0
11175 -3335 0
-11176 4316 3336 0
11176 -4316 0
11176 -3336 0
-11177 4317 3337 0
11177 -4317 0
11177 -3337 0
-11178 4318 3338 0
11178 -4318 0
11178 -3338 0
-11179 4319 3339 0
11179 -4319 0
11179 -3339 0
-11180 4320 3340 0
11180 -4320 0
11180 -3340 0
-11181 4321 3341 0
11181 -4321 0
11181 -3341 0
-11182 4322 3342 0
11182 -4322 0
11182 -3342 0
-11183 4323 3343 0
11183 -4323 0
11183 -3343 0
-11184 4324 3344 0
11184 -4324 0
11184 -3344 0
-11185 4325 3345 0
11185 -4325 0
11185 -3345 0
-11186 4326 3346 0
11186 -4326 0
11186 -3346 0
-11187 4327 3347 0
11187 -4327 0
11187 -3347 0
-11188 4328 3348 0
11188 -4328 0
11188 -3348 0
-11189 4329 3349 0
11189 -4329 0
11189 -3349 0
-11190 4330 3350 0
11190 -4330 0
11190 -3350 0
-11191 4331 3351 0
11191 -4331 0
11191 -3351 0
-11192 4332 3352 0
11192 -4332 0
11192 -3352 0
-11193 4333 3353 0
11193 -4333 0
11193 -3353 0
-11194 4334 3354 0
11194 -4334 0
11194 -3354 0
-11195 4335 3355 0
11195 -4335 0
11195 -3355 0
-11196 4336 3356 0
11196 -4336 0
11196 -3356 0
-11197 4337 3357 0
11197 -4337 0
11197 -3357 0
-11198 4338 3358 0
11198 -4338 0
11198 -3358 0
-11199 4339 3359 0
11199 -4339 0
11199 -3359 0
-11200 4340 3360 0
11200 -4340 0
11200 -3360 0
-11201 4341 3361 0
11201 -4341 0
11201 -3361 0
-11202 4342 3362 0
11202 -4342 0
11202 -3362 0
-11203 4343 3363 0
11203 -4343 0
11203 -3363 0
-11204 4344 3364 0
11204 -4344 0
11204 -3364 0
-11205 4345 3365 0
11205 -4345 0
11205 -3365 0
-11206 4346 3366 0
11206 -4346 0
11206 -3366 0
-11207 4347 3367 0
11207 -4347 0
11207 -3367 0
-11208 4348 3368 0
11208 -4348 0
11208 -3368 0
-11209 4349 3369 0
11209 -4349 0
11209 -3369 0
-11210 4350 3370 0
11210 -4350 0
11210 -3370 0
-11211 4351 3371 0
11211 -4351 0
11211 -3371 0
-11212 4352 3372 0
11212 -4352 0
11212 -3372 0
-11213 4353 3373 0
11213 -4353 0
11213 -3373 0
-11214 4354 3374 0
11214 -4354 0
11214 -3374 0
-11215 4355 3375 0
11215 -4355 0
11215 -3375 0
-11216 4356 3376 0
11216 -4356 0
11216 -3376 0
-11217 4357 3377 0
11217 -4357 0
11217 -3377 0
-11218 4358 3378 0
11218 -4358 0
11218 -3378 0
-11219 4359 3379 0
11219 -4359 0
11219 -3379 0
-11220 4360 3380 0
11220 -4360 0
11220 -3380 0
-11221 4361 3381 0
11221 -4361 0
11221 -3381 0
-11222 4362 3382 0
11222 -4362 0
11222 -3382 0
-11223 4363 3383 0
11223 -4363 0
11223 -3383 0
-11224 4364 3384 0
11224 -4364 0
11224 -3384 0
-11225 4365 3385 0
11225 -4365 0
11225 -3385 0
-11226 4366 3386 0
11226 -4366 0
11226 -3386 0
-11227 4367 3387 0
11227 -4367 0
11227 -3387 0
-11228 4368 3388 0
11228 -4368 0
11228 -3388 0
-11229 4369 3389 0
11229 -4369 0
11229 -3389 0
-11230 4370 3390 0
11230 -4370 0
11230 -3390 0
-11231 4371 3391 0
11231 -4371 0
11231 -3391 0
-11232 4372 3392 0
11232 -4372 0
11232 -3392 0
-11233 4373 3393 0
11233 -4373 0
11233 -3393 0
-11234 4374 3394 0
11234 -4374 0
11234 -3394 0
-11235 4375 3395 0
11235 -4375 0
11235 -3395 0
-11236 4376 3396 0
11236 -4376 0
11236 -3396 0
-11237 4377 3397 0
11237 -4377 0
11237 -3397 0
-11238 4378 3398 0
11238 -4378 0
11238 -3398 0
-11239 4379 3399 0
11239 -4379 0
11239 -3399 0
-11240 4380 3400 0
11240 -4380 0
11240 -3400 0
-11241 4381 3401 0
11241 -4381 0
11241 -3401 0
-11242 4382 3402 0
11242 -4382 0
11242 -3402 0
-11243 4383 3403 0
11243 -4383 0
11243 -3403 0
-11244 4384 3404 0
11244 -4384 0
11244 -3404 0
-11245 4385 3405 0
11245 -4385 0
11245 -3405 0
-11246 4386 3406 0
11246 -4386 0
11246 -3406 0
-11247 4387 3407 0
11247 -4387 0
11247 -3407 0
-11248 4388 3408 0
11248 -4388 0
11248 -3408 0
-11249 4389 3409 0
11249 -4389 0
11249 -3409 0
-11250 4390 3410 0
11250 -4390 0
11250 -3410 0
-11251 4391 3411 0
11251 -4391 0
11251 -3411 0
-11252 4392 3412 0
11252 -4392 0
11252 -3412 0
-11253 4393 3413 0
11253 -4393 0
11253 -3413 0
-11254 4394 3414 0
11254 -4394 0
11254 -3414 0
-11255 4395 3415 0
11255 -4395 0
11255 -3415 0
-11256 4396 3416 0
11256 -4396 0
11256 -3416 0
-11257 4397 3417 0
11257 -4397 0
11257 -3417 0
-11258 4398 3418 0
11258 -4398 0
11258 -3418 0
-11259 4399 3419 0
11259 -4399 0
11259 -3419 0
-11260 4400 3420 0
11260 -4400 0
11260 -3420 0
-11261 4401 3421 0
11261 -4401 0
11261 -3421 0
-11262 4402 3422 0
11262 -4402 0
11262 -3422 0
-11263 4403 3423 0
11263 -4403 0
11263 -3423 0
-11264 4404 3424 0
11264 -4404 0
11264 -3424 0
-11265 4405 3425 0
11265 -4405 0
11265 -3425 0
-11266 4406 3426 0
11266 -4406 0
11266 -3426 0
-11267 4407 3427 0
11267 -4407 0
11267 -3427 0
-11268 4408 3428 0
11268 -4408 0
11268 -3428 0
-11269 4409 3429 0
11269 -4409 0
11269 -3429 0
-11270 4410 3430 0
11270 -4410 0
11270 -3430 0
-11271 4411 3431 0
11271 -4411 0
11271 -3431 0
-11272 4412 3432 0
11272 -4412 0
11272 -3432 0
-11273 4413 3433 0
11273 -4413 0
11273 -3433 0
-11274 4414 3434 0
11274 -4414 0
11274 -3434 0
-11275 4415 3435 0
11275 -4415 0
11275 -3435 0
-11276 4416 3436 0
11276 -4416 0
11276 -3436 0
-11277 4417 3437 0
11277 -4417 0
11277 -3437 0
-11278 4418 3438 0
11278 -4418 0
11278 -3438 0
-11279 4419 3439 0
11279 -4419 0
11279 -3439 0
-11280 4420 3440 0
11280 -4420 0
11280 -3440 0
-11281 4421 3441 0
11281 -4421 0
11281 -3441 0
-11282 4422 3442 0
11282 -4422 0
11282 -3442 0
-11283 4423 3443 0
11283 -4423 0
11283 -3443 0
-11284 4424 3444 0
11284 -4424 0
11284 -3444 0
-11285 4425 3445 0
11285 -4425 0
11285 -3445 0
-11286 4426 3446 0
11286 -4426 0
11286 -3446 0
-11287 4427 3447 0
11287 -4427 0
11287 -3447 0
-11288 4428 3448 0
11288 -4428 0
11288 -3448 0
-11289 4429 3449 0
11289 -4429 0
11289 -3449 0
-11290 4430 3450 0
11290 -4430 0
11290 -3450 0
-11291 4431 3451 0
11291 -4431 0
11291 -3451 0
-11292 4432 3452 0
11292 -4432 0
11292 -3452 0
-11293 4433 3453 0
11293 -4433 0
11293 -3453 0
-11294 4434 3454 0
11294 -4434 0
11294 -3454 0
-11295 4435 3455 0
11295 -4435 0
11295 -3455 0
-11296 4436 3456 0
11296 -4436 0
11296 -3456 0
-11297 4437 3457 0
11297 -4437 0
11297 -3457 0
-11298 4438 3458 0
11298 -4438 0
11298 -3458 0
-11299 4439 3459 0
11299 -4439 0
11299 -3459 0
-11300 4440 3460 0
11300 -4440 0
11300 -3460 0
-11301 4441 3461 0
11301 -4441 0
11301 -3461 0
-11302 4442 3462 0
11302 -4442 0
11302 -3462 0
-11303 4443 3463 0
11303 -4443 0
11303 -3463 0
-11304 4444 3464 0
11304 -4444 0
11304 -3464 0
-11305 4445 3465 0
11305 -4445 0
11305 -3465 0
-11306 4446 3466 0
11306 -4446 0
11306 -3466 0
-11307 4447 3467 0
11307 -4447 0
11307 -3467 0
-11308 4448 3468 0
11308 -4448 0
11308 -3468 0
-11309 4449 3469 0
11309 -4449 0
11309 -3469 0
-11310 4450 3470 0
11310 -4450 0
11310 -3470 0
-11311 4451 3471 0
11311 -4451 0
11311 -3471 0
-11312 4452 3472 0
11312 -4452 0
11312 -3472 0
-11313 4453 3473 0
11313 -4453 0
11313 -3473 0
-11314 4454 3474 0
11314 -4454 0
11314 -3474 0
-11315 4455 3475 0
11315 -4455 0
11315 -3475 0
-11316 4456 3476 0
11316 -4456 0
11316 -3476 0
-11317 4457 3477 0
11317 -4457 0
11317 -3477 0
-11318 4458 3478 0
11318 -4458 0
11318 -3478 0
-11319 4459 3479 0
11319 -4459 0
11319 -3479 0
-11320 4460 3480 0
11320 -4460 0
11320 -3480 0
-11321 4461 3481 0
11321 -4461 0
11321 -3481 0
-11322 4462 3482 0
11322 -4462 0
11322 -3482 0
-11323 4463 3483 0
11323 -4463 0
11323 -3483 0
-11324 4464 3484 0
11324 -4464 0
11324 -3484 0
-11325 4465 3485 0
11325 -4465 0
11325 -3485 0
-11326 4466 3486 0
11326 -4466 0
11326 -3486 0
-11327 4467 3487 0
11327 -4467 0
11327 -3487 0
-11328 4468 3488 0
11328 -4468 0
11328 -3488 0
-11329 4469 3489 0
11329 -4469 0
11329 -3489 0
-11330 4470 3490 0
11330 -4470 0
11330 -3490 0
-11331 4471 3491 0
11331 -4471 0
11331 -3491 0
-11332 4472 3492 0
11332 -4472 0
11332 -3492 0
-11333 4473 3493 0
11333 -4473 0
11333 -3493 0
-11334 4474 3494 0
11334 -4474 0
11334 -3494 0
-11335 4475 3495 0
11335 -4475 0
11335 -3495 0
-11336 4476 3496 0
11336 -4476 0
11336 -3496 0
-11337 4477 3497 0
11337 -4477 0
11337 -3497 0
-11338 4478 3498 0
11338 -4478 0
11338 -3498 0
-11339 4479 3499 0
11339 -4479 0
11339 -3499 0
-11340 4480 3500 0
11340 -4480 0
11340 -3500 0
-11341 4481 3501 0
11341 -4481 0
11341 -3501 0
-11342 4482 3502 0
11342 -4482 0
11342 -3502 0
-11343 4483 3503 0
11343 -4483 0
11343 -3503 0
-11344 4484 3504 0
11344 -4484 0
11344 -3504 0
-11345 4485 3505 0
11345 -4485 0
11345 -3505 0
-11346 4486 3506 0
11346 -4486 0
11346 -3506 0
-11347 4487 3507 0
11347 -4487 0
11347 -3507 0
-11348 4488 3508 0
11348 -4488 0
11348 -3508 0
-11349 4489 3509 0
11349 -4489 0
11349 -3509 0
-11350 4490 3510 0
11350 -4490 0
11350 -3510 0
-11351 4491 3511 0
11351 -4491 0
11351 -3511 0
-11352 4492 3512 0
11352 -4492 0
11352 -3512 0
-11353 4493 3513 0
11353 -4493 0
11353 -3513 0
-11354 4494 3514 0
11354 -4494 0
11354 -3514 0
-11355 4495 3515 0
11355 -4495 0
11355 -3515 0
-11356 4496 3516 0
11356 -4496 0
11356 -3516 0
-11357 4497 3517 0
11357 -4497 0
11357 -3517 0
-11358 4498 3518 0
11358 -4498 0
11358 -3518 0
-11359 4499 3519 0
11359 -4499 0
11359 -3519 0
-11360 4500 3520 0
11360 -4500 0
11360 -3520 0
-11361 4501 3521 0
11361 -4501 0
11361 -3521 0
-11362 4502 3522 0
11362 -4502 0
11362 -3522 0
-11363 4503 3523 0
11363 -4503 0
11363 -3523 0
-11364 4504 3524 0
11364 -4504 0
11364 -3524 0
-11365 4505 3525 0
11365 -4505 0
11365 -3525 0
-11366 4506 3526 0
11366 -4506 0
11366 -3526 0
-11367 4507 3527 0
11367 -4507 0
11367 -3527 0
-11368 4508 3528 0
11368 -4508 0
11368 -3528 0
-11369 4509 3529 0
11369 -4509 0
11369 -3529 0
-11370 4510 3530 0
11370 -4510 0
11370 -3530 0
-11371 4511 3531 0
11371 -4511 0
11371 -3531 0
-11372 4512 3532 0
11372 -4512 0
11372 -3532 0
-11373 4513 3533 0
11373 -4513 0
11373 -3533 0
-11374 4514 3534 0
11374 -4514 0
11374 -3534 0
-11375 4515 3535 0
11375 -4515 0
11375 -3535 0
-11376 4516 3536 0
11376 -4516 0
11376 -3536 0
-11377 4517 3537 0
11377 -4517 0
11377 -3537 0
-11378 4518 3538 0
11378 -4518 0
11378 -3538 0
-11379 4519 3539 0
11379 -4519 0
11379 -3539 0
-11380 4520 3540 0
11380 -4520 0
11380 -3540 0
-11381 4521 3541 0
11381 -4521 0
11381 -3541 0
-11382 4522 3542 0
11382 -4522 0
11382 -3542 0
-11383 4523 3543 0
11383 -4523 0
11383 -3543 0
-11384 4524 3544 0
11384 -4524 0
11384 -3544 0
-11385 4525 3545 0
11385 -4525 0
11385 -3545 0
-11386 4526 3546 0
11386 -4526 0
11386 -3546 0
-11387 4527 3547 0
11387 -4527 0
11387 -3547 0
-11388 4528 3548 0
11388 -4528 0
11388 -3548 0
-11389 4529 3549 0
11389 -4529 0
11389 -3549 0
-11390 4530 3550 0
11390 -4530 0
11390 -3550 0
-11391 4531 3551 0
11391 -4531 0
11391 -3551 0
-11392 4532 3552 0
11392 -4532 0
11392 -3552 0
-11393 4533 3553 0
11393 -4533 0
11393 -3553 0
-11394 4534 3554 0
11394 -4534 0
11394 -3554 0
-11395 4535 3555 0
11395 -4535 0
11395 -3555 0
-11396 4536 3556 0
11396 -4536 0
11396 -3556 0
-11397 4537 3557 0
11397 -4537 0
11397 -3557 0
-11398 4538 3558 0
11398 -4538 0
11398 -3558 0
-11399 4539 3559 0
11399 -4539 0
11399 -3559 0
-11400 4540 3560 0
11400 -4540 0
11400 -3560 0
-11401 4541 3561 0
11401 -4541 0
11401 -3561 0
-11402 4542 3562 0
11402 -4542 0
11402 -3562 0
-11403 4543 3563 0
11403 -4543 0
11403 -3563 0
-11404 4544 3564 0
11404 -4544 0
11404 -3564 0
-11405 4545 3565 0
11405 -4545 0
11405 -3565 0
-11406 4546 3566 0
11406 -4546 0
11406 -3566 0
-11407 4547 3567 0
11407 -4547 0
11407 -3567 0
-11408 4548 3568 0
11408 -4548 0
11408 -3568 0
-11409 4549 3569 0
11409 -4549 0
11409 -3569 0
-11410 4550 3570 0
11410 -4550 0
11410 -3570 0
-11411 4551 3571 0
11411 -4551 0
11411 -3571 0
-11412 4552 3572 0
11412 -4552 0
11412 -3572 0
-11413 4553 3573 0
11413 -4553 0
11413 -3573 0
-11414 4554 3574 0
11414 -4554 0
11414 -3574 0
-11415 4555 3575 0
11415 -4555 0
11415 -3575 0
-11416 4556 3576 0
11416 -4556 0
11416 -3576 0
-11417 4557 3577 0
11417 -4557 0
11417 -3577 0
-11418 4558 3578 0
11418 -4558 0
11418 -3578 0
-11419 4559 3579 0
11419 -4559 0
11419 -3579 0
-11420 4560 3580 0
11420 -4560 0
11420 -3580 0
-11421 4561 3581 0
11421 -4561 0
11421 -3581 0
-11422 4562 3582 0
11422 -4562 0
11422 -3582 0
-11423 4563 3583 0
11423 -4563 0
11423 -3583 0
-11424 4564 3584 0
11424 -4564 0
11424 -3584 0
-11425 4565 3585 0
11425 -4565 0
11425 -3585 0
-11426 4566 3586 0
11426 -4566 0
11426 -3586 0
-11427 4567 3587 0
11427 -4567 0
11427 -3587 0
-11428 4568 3588 0
11428 -4568 0
11428 -3588 0
-11429 4569 3589 0
11429 -4569 0
11429 -3589 0
-11430 4570 3590 0
11430 -4570 0
11430 -3590 0
-11431 4571 3591 0
11431 -4571 0
11431 -3591 0
-11432 4572 3592 0
11432 -4572 0
11432 -3592 0
-11433 4573 3593 0
11433 -4573 0
11433 -3593 0
-11434 4574 3594 0
11434 -4574 0
11434 -3594 0
-11435 4575 3595 0
11435 -4575 0
11435 -3595 0
-11436 4576 3596 0
11436 -4576 0
11436 -3596 0
-11437 4577 3597 0
11437 -4577 0
11437 -3597 0
-11438 4578 3598 0
11438 -4578 0
11438 -3598 0
-11439 4579 3599 0
11439 -4579 0
11439 -3599 0
-11440 4580 3600 0
11440 -4580 0
11440 -3600 0
-11441 4581 3601 0
11441 -4581 0
11441 -3601 0
-11442 4582 3602 0
11442 -4582 0
11442 -3602 0
-11443 4583 3603 0
11443 -4583 0
11443 -3603 0
-11444 4584 3604 0
11444 -4584 0
11444 -3604 0
-11445 4585 3605 0
11445 -4585 0
11445 -3605 0
-11446 4586 3606 0
11446 -4586 0
11446 -3606 0
-11447 4587 3607 0
11447 -4587 0
11447 -3607 0
-11448 4588 3608 0
11448 -4588 0
11448 -3608 0
-11449 4589 3609 0
11449 -4589 0
11449 -3609 0
-11450 4590 3610 0
11450 -4590 0
11450 -3610 0
-11451 4591 3611 0
11451 -4591 0
11451 -3611 0
-11452 4592 3612 0
11452 -4592 0
11452 -3612 0
-11453 4593 3613 0
11453 -4593 0
11453 -3613 0
-11454 4594 3614 0
11454 -4594 0
11454 -3614 0
-11455 4595 3615 0
11455 -4595 0
11455 -3615 0
-11456 4596 3616 0
11456 -4596 0
11456 -3616 0
-11457 4597 3617 0
11457 -4597 0
11457 -3617 0
-11458 4598 3618 0
11458 -4598 0
11458 -3618 0
-11459 4599 3619 0
11459 -4599 0
11459 -3619 0
-11460 4600 3620 0
11460 -4600 0
11460 -3620 0
-11461 4601 3621 0
11461 -4601 0
11461 -3621 0
-11462 4602 3622 0
11462 -4602 0
11462 -3622 0
-11463 4603 3623 0
11463 -4603 0
11463 -3623 0
-11464 4604 3624 0
11464 -4604 0
11464 -3624 0
-11465 4605 3625 0
11465 -4605 0
11465 -3625 0
-11466 4606 3626 0
11466 -4606 0
11466 -3626 0
-11467 4607 3627 0
11467 -4607 0
11467 -3627 0
-11468 4608 3628 0
11468 -4608 0
11468 -3628 0
-11469 4609 3629 0
11469 -4609 0
11469 -3629 0
-11470 4610 3630 0
11470 -4610 0
11470 -3630 0
-11471 4611 3631 0
11471 -4611 0
11471 -3631 0
-11472 4612 3632 0
11472 -4612 0
11472 -3632 0
-11473 4613 3633 0
11473 -4613 0
11473 -3633 0
-11474 4614 3634 0
11474 -4614 0
11474 -3634 0
-11475 4615 3635 0
11475 -4615 0
11475 -3635 0
-11476 4616 3636 0
11476 -4616 0
11476 -3636 0
-11477 4617 3637 0
11477 -4617 0
11477 -3637 0
-11478 4618 3638 0
11478 -4618 0
11478 -3638 0
-11479 4619 3639 0
11479 -4619 0
11479 -3639 0
-11480 4620 3640 0
11480 -4620 0
11480 -3640 0
-11481 4621 3641 0
11481 -4621 0
11481 -3641 0
-11482 4622 3642 0
11482 -4622 0
11482 -3642 0
-11483 4623 3643 0
11483 -4623 0
11483 -3643 0
-11484 4624 3644 0
11484 -4624 0
11484 -3644 0
-11485 4625 3645 0
11485 -4625 0
11485 -3645 0
-11486 4626 3646 0
11486 -4626 0
11486 -3646 0
-11487 4627 3647 0
11487 -4627 0
11487 -3647 0
-11488 4628 3648 0
11488 -4628 0
11488 -3648 0
-11489 4629 3649 0
11489 -4629 0
11489 -3649 0
-11490 4630 3650 0
11490 -4630 0
11490 -3650 0
-11491 4631 3651 0
11491 -4631 0
11491 -3651 0
-11492 4632 3652 0
11492 -4632 0
11492 -3652 0
-11493 4633 3653 0
11493 -4633 0
11493 -3653 0
-11494 4634 3654 0
11494 -4634 0
11494 -3654 0
-11495 4635 3655 0
11495 -4635 0
11495 -3655 0
-11496 4636 3656 0
11496 -4636 0
11496 -3656 0
-11497 4637 3657 0
11497 -4637 0
11497 -3657 0
-11498 4638 3658 0
11498 -4638 0
11498 -3658 0
-11499 4639 3659 0
11499 -4639 0
11499 -3659 0
-11500 4640 3660 0
11500 -4640 0
11500 -3660 0
-11501 4641 3661 0
11501 -4641 0
11501 -3661 0
-11502 4642 3662 0
11502 -4642 0
11502 -3662 0
-11503 4643 3663 0
11503 -4643 0
11503 -3663 0
-11504 4644 3664 0
11504 -4644 0
11504 -3664 0
-11505 4645 3665 0
11505 -4645 0
11505 -3665 0
-11506 4646 3666 0
11506 -4646 0
11506 -3666 0
-11507 4647 3667 0
11507 -4647 0
11507 -3667 0
-11508 4648 3668 0
11508 -4648 0
11508 -3668 0
-11509 4649 3669 0
11509 -4649 0
11509 -3669 0
-11510 4650 3670 0
11510 -4650 0
11510 -3670 0
-11511 4651 3671 0
11511 -4651 0
11511 -3671 0
-11512 4652 3672 0
11512 -4652 0
11512 -3672 0
-11513 4653 3673 0
11513 -4653 0
11513 -3673 0
-11514 4654 3674 0
11514 -4654 0
11514 -3674 0
-11515 4655 3675 0
11515 -4655 0
11515 -3675 0
-11516 4656 3676 0
11516 -4656 0
11516 -3676 0
-11517 4657 3677 0
11517 -4657 0
11517 -3677 0
-11518 4658 3678 0
11518 -4658 0
11518 -3678 0
-11519 4659 3679 0
11519 -4659 0
11519 -3679 0
-11520 4660 3680 0
11520 -4660 0
11520 -3680 0
-11521 4661 3681 0
11521 -4661 0
11521 -3681 0
-11522 4662 3682 0
11522 -4662 0
11522 -3682 0
-11523 4663 3683 0
11523 -4663 0
11523 -3683 0
-11524 4664 3684 0
11524 -4664 0
11524 -3684 0
-11525 4665 3685 0
11525 -4665 0
11525 -3685 0
-11526 4666 3686 0
11526 -4666 0
11526 -3686 0
-11527 4667 3687 0
11527 -4667 0
11527 -3687 0
-11528 4668 3688 0
11528 -4668 0
11528 -3688 0
-11529 4669 3689 0
11529 -4669 0
11529 -3689 0
-11530 4670 3690 0
11530 -4670 0
11530 -3690 0
-11531 4671 3691 0
11531 -4671 0
11531 -3691 0
-11532 4672 3692 0
11532 -4672 0
11532 -3692 0
-11533 4673 3693 0
11533 -4673 0
11533 -3693 0
-11534 4674 3694 0
11534 -4674 0
11534 -3694 0
-11535 4675 3695 0
11535 -4675 0
11535 -3695 0
-11536 4676 3696 0
11536 -4676 0
11536 -3696 0
-11537 4677 3697 0
11537 -4677 0
11537 -3697 0
-11538 4678 3698 0
11538 -4678 0
11538 -3698 0
-11539 4679 3699 0
11539 -4679 0
11539 -3699 0
-11540 4680 3700 0
11540 -4680 0
11540 -3700 0
-11541 4681 3701 0
11541 -4681 0
11541 -3701 0
-11542 4682 3702 0
11542 -4682 0
11542 -3702 0
-11543 4683 3703 0
11543 -4683 0
11543 -3703 0
-11544 4684 3704 0
11544 -4684 0
11544 -3704 0
-11545 4685 3705 0
11545 -4685 0
11545 -3705 0
-11546 4686 3706 0
11546 -4686 0
11546 -3706 0
-11547 4687 3707 0
11547 -4687 0
11547 -3707 0
-11548 4688 3708 0
11548 -4688 0
11548 -3708 0
-11549 4689 3709 0
11549 -4689 0
11549 -3709 0
-11550 4690 3710 0
11550 -4690 0
11550 -3710 0
-11551 4691 3711 0
11551 -4691 0
11551 -3711 0
-11552 4692 3712 0
11552 -4692 0
11552 -3712 0
-11553 4693 3713 0
11553 -4693 0
11553 -3713 0
-11554 4694 3714 0
11554 -4694 0
11554 -3714 0
-11555 4695 3715 0
11555 -4695 0
11555 -3715 0
-11556 4696 3716 0
11556 -4696 0
11556 -3716 0
-11557 4697 3717 0
11557 -4697 0
11557 -3717 0
-11558 4698 3718 0
11558 -4698 0
11558 -3718 0
-11559 4699 3719 0
11559 -4699 0
11559 -3719 0
-11560 4700 3720 0
11560 -4700 0
11560 -3720 0
-11561 4701 3721 0
11561 -4701 0
11561 -3721 0
-11562 4702 3722 0
11562 -4702 0
11562 -3722 0
-11563 4703 3723 0
11563 -4703 0
11563 -3723 0
-11564 4704 3724 0
11564 -4704 0
11564 -3724 0
-11565 4705 3725 0
11565 -4705 0
11565 -3725 0
-11566 4706 3726 0
11566 -4706 0
11566 -3726 0
-11567 4707 3727 0
11567 -4707 0
11567 -3727 0
-11568 4708 3728 0
11568 -4708 0
11568 -3728 0
-11569 4709 3729 0
11569 -4709 0
11569 -3729 0
-11570 4710 3730 0
11570 -4710 0
11570 -3730 0
-11571 4711 3731 0
11571 -4711 0
11571 -3731 0
-11572 4712 3732 0
11572 -4712 0
11572 -3732 0
-11573 4713 3733 0
11573 -4713 0
11573 -3733 0
-11574 4714 3734 0
11574 -4714 0
11574 -3734 0
-11575 4715 3735 0
11575 -4715 0
11575 -3735 0
-11576 4716 3736 0
11576 -4716 0
11576 -3736 0
-11577 4717 3737 0
11577 -4717 0
11577 -3737 0
-11578 4718 3738 0
11578 -4718 0
11578 -3738 0
-11579 4719 3739 0
11579 -4719 0
11579 -3739 0
-11580 4720 3740 0
11580 -4720 0
11580 -3740 0
-11581 4721 3741 0
11581 -4721 0
11581 -3741 0
-11582 4722 3742 0
11582 -4722 0
11582 -3742 0
-11583 4723 3743 0
11583 -4723 0
11583 -3743 0
-11584 4724 3744 0
11584 -4724 0
11584 -3744 0
-11585 4725 3745 0
11585 -4725 0
11585 -3745 0
-11586 4726 3746 0
11586 -4726 0
11586 -3746 0
-11587 4727 3747 0
11587 -4727 0
11587 -3747 0
-11588 4728 3748 0
11588 -4728 0
11588 -3748 0
-11589 4729 3749 0
11589 -4729 0
11589 -3749 0
-11590 4730 3750 0
11590 -4730 0
11590 -3750 0
-11591 4731 3751 0
11591 -4731 0
11591 -3751 0
-11592 4732 3752 0
11592 -4732 0
11592 -3752 0
-11593 4733 3753 0
11593 -4733 0
11593 -3753 0
-11594 4734 3754 0
11594 -4734 0
11594 -3754 0
-11595 4735 3755 0
11595 -4735 0
11595 -3755 0
-11596 4736 3756 0
11596 -4736 0
11596 -3756 0
-11597 4737 3757 0
11597 -4737 0
11597 -3757 0
-11598 4738 3758 0
11598 -4738 0
11598 -3758 0
-11599 4739 3759 0
11599 -4739 0
11599 -3759 0
-11600 4740 3760 0
11600 -4740 0
11600 -3760 0
-11601 4741 3761 0
11601 -4741 0
11601 -3761 0
-11602 4742 3762 0
11602 -4742 0
11602 -3762 0
-11603 4743 3763 0
11603 -4743 0
11603 -3763 0
-11604 4744 3764 0
11604 -4744 0
11604 -3764 0
-11605 4745 3765 0
11605 -4745 0
11605 -3765 0
-11606 4746 3766 0
11606 -4746 0
11606 -3766 0
-11607 4747 3767 0
11607 -4747 0
11607 -3767 0
-11608 4748 3768 0
11608 -4748 0
11608 -3768 0
-11609 4749 3769 0
11609 -4749 0
11609 -3769 0
-11610 4750 3770 0
11610 -4750 0
11610 -3770 0
-11611 4751 3771 0
11611 -4751 0
11611 -3771 0
-11612 4752 3772 0
11612 -4752 0
11612 -3772 0
-11613 4753 3773 0
11613 -4753 0
11613 -3773 0
-11614 4754 3774 0
11614 -4754 0
11614 -3774 0
-11615 4755 3775 0
11615 -4755 0
11615 -3775 0
-11616 4756 3776 0
11616 -4756 0
11616 -3776 0
-11617 4757 3777 0
11617 -4757 0
11617 -3777 0
-11618 4758 3778 0
11618 -4758 0
11618 -3778 0
-11619 4759 3779 0
11619 -4759 0
11619 -3779 0
-11620 4760 3780 0
11620 -4760 0
11620 -3780 0
11761 11901 12041 12181 12321 12461 12601 0
-11761 10781 0
-11901 10921 0
-12041 11061 0
-12181 11201 0
-12321 11341 0
-12461 11481 0
-12601 11621 0
11762 11902 12042 12182 12322 12462 12602 0
-11762 10782 0
-11902 10922 0
-12042 11062 0
-12182 11202 0
-12322 11342 0
-12462 11482 0
-12602 11622 0
11763 11903 12043 12183 12323 12463 12603 0
-11763 10783 0
-11903 10923 0
-12043 11063 0
-12183 11203 0
-12323 11343 0
-12463 11483 0
-12603 11623 0
11764 11904 12044 12184 12324 12464 12604 0
-11764 10784 0
-11904 10924 0
-12044 11064 0
-12184 11204 0
-12324 11344 0
-12464 11484 0
-12604 11624 0
11765 11905 12045 12185 12325 12465 12605 0
-11765 10785 0
-11905 10925 0
-12045 11065 0
-12185 11205 0
-12325 11345 0
-12465 11485 0
-12605 11625 0
11766 11906 12046 12186 12326 12466 12606 0
-11766 10786 0
-11906 10926 0
-12046 11066 0
-12186 11206 0
-12326 11346 0
-12466 11486 0
-12606 11626 0
11767 11907 12047 12187 12327 12467 12607 0
-11767 10787 0
-11907 10927 0
-12047 11067 0
-12187 11207 0
-12327 11347 0
-12467 11487 0
-12607 11627 0
11768 11908 12048 12188 12328 12468 12608 0
-11768 10788 0
-11908 10928 0
-12048 11068 0
-12188 11208 0
-12328 11348 0
-12468 11488 0
-12608 11628 0
11769 11909 12049 12189 12329 12469 12609 0
-11769 10789 0
-11909 10929 0
-12049 11069 0
-12189 11209 0
-12329 11349 0
-12469 11489 0
-12609 11629 0
11770 11910 12050 12190 12330 12470 12610 0
-11770 10790 0
-11910 10930 0
-12050 11070 0
-12190 11210 0
-12330 11350 0
-12470 11490 0
-12610 11630 0
11771 11911 12051 12191 12331 12471 12611 0
-11771 10791 0
-11911 10931 0
-12051 11071 0
-12191 11211 0
-12331 11351 0
-12471 11491 0
-12611 11631 0
11772 11912 12052 12192 12332 12472 12612 0
-11772 10792 0
-11912 10932 0
-12052 11072 0
-12192 11212 0
-12332 11352 0
-12472 11492 0
-12612 11632 0
11773 11913 12053 12193 12333 12473 12613 0
-11773 10793 0
-11913 10933 0
-12053 11073 0
-12193 11213 0
-12333 11353 0
-12473 11493 0
-12613 11633 0
11774 11914 12054 12194 12334 12474 12614 0
-11774 10794 0
-11914 10934 0
-12054 11074 0
-12194 11214 0
-12334 11354 0
-12474 11494 0
-12614 11634 0
11775 11915 12055 12195 12335 12475 12615 0
-11775 10795 0
-11915 10935 0
-12055 11075 0
-12195 11215 0
-12335 11355 0
-12475 11495 0
-12615 11635 0
11776 11916 12056 12196 12336 12476 12616 0
-11776 10796 0
-11916 10936 0
-12056 11076 0
-12196 11216 0
-12336 11356 0
-12476 11496 0
-12616 11636 0
11777 11917 12057 12197 12337 12477 12617 0
-11777 10797 0
-11917 10937 0
-12057 11077 0
-12197 11217 0
-12337 11357 0
-12477 11497 0
-12617 11637 0
11778 11918 12058 12198 12338 12478 12618 0
-11778 10798 0
-11918 10938 0
-12058 11078 0
-12198 11218 0
-12338 11358 0
-12478 11498 0
-12618 11638 0
11779 11919 12059 12199 12339 12479 12619 0
-11779 10799 0
-11919 10939 0
-12059 11079 0
-12199 11219 0
-12339 11359 0
-12479 11499 0
-12619 11639 0
11780 11920 12060 12200 12340 12480 12620 0
-11780 10800 0
-11920 10940 0
-12060 11080 0
-12200 11220 0
-12340 11360 0
-12480 11500 0
-12620 11640 0
11781 11921 12061 12201 12341 12481 12621 0
-11781 10801 0
-11921 10941 0
-12061 11081 0
-12201 11221 0
-12341 11361 0
-12481 11501 0
-12621 11641 0
11782 11922 12062 12202 12342 12482 12622 0
-11782 10802 0
-11922 10942 0
-12062 11082 0
-12202 11222 0
-12342 11362 0
-12482 11502 0
-12622 11642 0
11783 11923 12063 12203 12343 12483 12623 0
-11783 10803 0
-11923 10943 0
-12063 11083 0
-12203 11223 0
-12343 11363 0
-12483 11503 0
-12623 11643 0
11784 11924 12064 12204 12344 12484 12624 0
-11784 10804 0
-11924 10944 0
-12064 11084 0
-12204 11224 0
-12344 11364 0
-12484 11504 0
-12624 11644 0
11785 11925 12065 12205 12345 12485 12625 0
-11785 10805 0
-11925 10945 0
-12065 11085 0
-12205 11225 0
-12345 11365 0
-12485 11505 0
-12625 11645 0
11786 11926 12066 12206 12346 12486 12626 0
-11786 10806 0
-11926 10946 0
-12066 11086 0
-12206 11226 0
-12346 11366 0
-12486 11506 0
-12626 11646 0
11787 11927 12067 12207 12347 12487 12627 0
-11787 10807 0
-11927 10947 0
-12067 11087 0
-12207 11227 0
-12347 11367 0
-12487 11507 0
-12627 11647 0
11788 11928 12068 12208 12348 12488 12628 0
-11788 10808 0
-11928 10948 0
-12068 11088 0
-12208 11228 0
-12348 11368 0
-12488 11508 0
-12628 11648 0
11789 11929 12069 12209 12349 12489 12629 0
-11789 10809 0
-11929 10949 0
-12069 11089 0
-12209 11229 0
-12349 11369 0
-12489 11509 0
-12629 11649 0
11790 11930 12070 12210 12350 12490 12630 0
-11790 10810 0
-11930 10950 0
-12070 11090 0
-12210 11230 0
-12350 11370 0
-12490 11510 0
-12630 11650 0
11791 11931 12071 12211 12351 12491 12631 0
-11791 10811 0
-11931 10951 0
-12071 11091 0
-12211 11231 0
-12351 11371 0
-12491 11511 0
-12631 11651 0
11792 11932 12072 12212 12352 12492 12632 0
-11792 10812 0
-11932 10952 0
-12072 11092 0
-12212 11232 0
-12352 11372 0
-12492 11512 0
-12632 11652 0
11793 11933 12073 12213 12353 12493 12633 0
-11793 10813 0
-11933 10953 0
-12073 11093 0
-12213 11233 0
-12353 11373 0
-12493 11513 0
-12633 11653 0
11794 11934 12074 12214 12354 12494 12634 0
-11794 10814 0
-11934 10954 0
-12074 11094 0
-12214 11234 0
-12354 11374 0
-12494 11514 0
-12634 11654 0
11795 11935 12075 12215 12355 12495 12635 0
-11795 10815 0
-11935 10955 0
-12075 11095 0
-12215 11235 0
-12355 11375 0
-12495 11515 0
-12635 11655 0
11796 11936 12076 12216 12356 12496 12636 0
-11796 10816 0
-11936 10956 0
-12076 11096 0
-12216 11236 0
-12356 11376 0
-12496 11516 0
-12636 11656 0
11797 11937 12077 12217 12357 12497 12637 0
-11797 10817 0
-11937 10957 0
-12077 11097 0
-12217 11237 0
-12357 11377 0
-12497 11517 0
-12637 11657 0
11798 11938 12078 12218 12358 12498 12638 0
-11798 10818 0
-11938 10958 0
-12078 11098 0
-12218 11238 0
-12358 11378 0
-12498 11518 0
-12638 11658 0
11799 11939 12079 12219 12359 12499 12639 0
-11799 10819 0
-11939 10959 0
-12079 11099 0
-12219 11239 0
-12359 11379 0
-12499 11519 0
-12639 11659 0
11800 11940 12080 12220 12360 12500 12640 0
-11800 10820 0
-11940 10960 0
-12080 11100 0
-12220 11240 0
-12360 11380 0
-12500 11520 0
-12640 11660 0
11801 11941 12081 12221 12361 12501 12641 0
-11801 10821 0
-11941 10961 0
-12081 11101 0
-12221 11241 0
-12361 11381 0
-12501 11521 0
-12641 11661 0
11802 11942 12082 12222 12362 12502 12642 0
-11802 10822 0
-11942 10962 0
-12082 11102 0
-12222 11242 0
-12362 11382 0
-12502 11522 0
-12642 11662 0
11803 11943 12083 12223 12363 12503 12643 0
-11803 10823 0
-11943 10963 0
-12083 11103 0
-12223 11243 0
-12363 11383 0
-12503 11523 0
-12643 11663 0
11804 11944 12084 12224 12364 12504 12644 0
-11804 10824 0
-11944 10964 0
-12084 11104 0
-12224 11244 0
-12364 11384 0
-12504 11524 0
-12644 11664 0
11805 11945 12085 12225 12365 12505 12645 0
-11805 10825 0
-11945 10965 0
-12085 11105 0
-12225 11245 0
-12365 11385 0
-12505 11525 0
-12645 11665 0
11806 11946 12086 12226 12366 12506 12646 0
-11806 10826 0
-11946 10966 0
-12086 11106 0
-12226 11246 0
-12366 11386 0
-12506 11526 0
-12646 11666 0
11807 11947 12087 12227 12367 12507 12647 0
-11807 10827 0
-11947 10967 0
-12087 11107 0
-12227 11247 0
-12367 11387 0
-12507 11527 0
-12647 11667 0
11808 11948 12088 12228 12368 12508 12648 0
-11808 10828 0
-11948 10968 0
-12088 11108 0
-12228 11248 0
-12368 11388 0
-12508 11528 0
-12648 11668 0
11809 11949 12089 12229 12369 12509 12649 0
-11809 10829 0
-11949 10969 0
-12089 11109 0
-12229 11249 0
-12369 11389 0
-12509 11529 0
-12649 11669 0
11810 11950 12090 12230 12370 12510 12650 0
-11810 10830 0
-11950 10970 0
-12090 11110 0
-12230 11250 0
-12370 11390 0
-12510 11530 0
-12650 11670 0
11811 11951 12091 12231 12371 12511 12651 0
-11811 10831 0
-11951 10971 0
-12091 11111 0
-12231 11251 0
-12371 11391 0
-12511 11531 0
-12651 11671 0
11812 11952 12092 12232 12372 12512 12652 0
-11812 10832 0
-11952 10972 0
-12092 11112 0
-12232 11252 0
-12372 11392 0
-12512 11532 0
-12652 11672 0
11813 11953 12093 12233 12373 12513 12653 0
-11813 10833 0
-11953 10973 0
-12093 11113 0
-12233 11253 0
-12373 11393 0
-12513 11533 0
-12653 11673 0
11814 11954 12094 12234 12374 12514 12654 0
-11814 10834 0
-11954 10974 0
-12094 11114 0
-12234 11254 0
-12374 11394 0
-12514 11534 0
-12654 11674 0
11815 11955 12095 12235 12375 12515 12655 0
-11815 10835 0
-11955 10975 0
-12095 11115 0
-12235 11255 0
-12375 11395 0
-12515 11535 0
-12655 11675 0
11816 11956 12096 12236 12376 12516 12656 0
-11816 10836 0
-11956 10976 0
-12096 11116 0
-12236 11256 0
-12376 11396 0
-12516 11536 0
-12656 11676 0
11817 11957 12097 12237 12377 12517 12657 0
-11817 10837 0
-11957 10977 0
-12097 11117 0
-12237 11257 0
-12377 11397 0
-12517 11537 0
-12657 11677 0
11818 11958 12098 12238 12378 12518 12658 0
-11818 10838 0
-11958 10978 0
-12098 11118 0
-12238 11258 0
-12378 11398 0
-12518 11538 0
-12658 11678 0
11819 11959 12099 12239 12379 12519 12659 0
-11819 10839 0
-11959 10979 0
-12099 11119 0
-12239 11259 0
-12379 11399 0
-12519 11539 0
-12659 11679 0
11820 11960 12100 12240 12380 12520 12660 0
-11820 10840 0
-11960 10980 0
-12100 11120 0
-12240 11260 0
-12380 11400 0
-12520 11540 0
-12660 11680 0
11821 11961 12101 12241 12381 12521 12661 0
-11821 10841 0
-11961 10981 0
-12101 11121 0
-12241 11261 0
-12381 11401 0
-12521 11541 0
-12661 11681 0
11822 11962 12102 12242 12382 12522 12662 0
-11822 10842 0
-11962 10982 0
-12102 11122 0
-12242 11262 0
-12382 11402 0
-12522 11542 0
-12662 11682 0
11823 11963 12103 12243 12383 12523 12663 0
-11823 10843 0
-11963 10983 0
-12103 11123 0
-12243 11263 0
-12383 11403 0
-12523 11543 0
-12663 11683 0
11824 11964 12104 12244 12384 12524 12664 0
-11824 10844 0
-11964 10984 0
-12104 11124 0
-12244 11264 0
-12384 11404 0
-12524 11544 0
-12664 11684 0
11825 11965 12105 12245 12385 12525 12665 0
-11825 10845 0
-11965 10985 0
-12105 11125 0
-12245 11265 0
-12385 11405 0
-12525 11545 0
-12665 11685 0
11826 11966 12106 12246 12386 12526 12666 0
-11826 10846 0
-11966 10986 0
-12106 11126 0
-12246 11266 0
-12386 11406 0
-12526 11546 0
-12666 11686 0
11827 11967 12107 12247 12387 12527 12667 0
-11827 10847 0
-11967 10987 0
-12107 11127 0
-12247 11267 0
-12387 11407 0
-12527 11547 0
-12667 11687 0
11828 11968 12108 12248 12388 12528 12668 0
-11828 10848 0
-11968 10988 0
-12108 11128 0
-12248 11268 0
-12388 11408 0
-12528 11548 0
-12668 11688 0
11829 11969 12109 12249 12389 12529 12669 0
-11829 10849 0
-11969 10989 0
-12109 11129 0
-12249 11269 0
-12389 11409 0
-12529 11549 0
-12669 11689 0
11830 11970 12110 12250 12390 12530 12670 0
-11830 10850 0
-11970 10990 0
-12110 11130 0
-12250 11270 0
-12390 11410 0
-12530 11550 0
-12670 11690 0
11831 11971 12111 12251 12391 12531 12671 0
-11831 10851 0
-11971 10991 0
-12111 11131 0
-12251 11271 0
-12391 11411 0
-12531 11551 0
-12671 11691 0
11832 11972 12112 12252 12392 12532 12672 0
-11832 10852 0
-11972 10992 0
-12112 11132 0
-12252 11272 0
-12392 11412 0
-12532 11552 0
-12672 11692 0
11833 11973 12113 12253 12393 12533 12673 0
-11833 10853 0
-11973 10993 0
-12113 11133 0
-12253 11273 0
-12393 11413 0
-12533 11553 0
-12673 11693 0
11834 11974 12114 12254 12394 12534 12674 0
-11834 10854 0
-11974 10994 0
-12114 11134 0
-12254 11274 0
-12394 11414 0
-12534 11554 0
-12674 11694 0
11835 11975 12115 12255 12395 12535 12675 0
-11835 10855 0
-11975 10995 0
-12115 11135 0
-12255 11275 0
-12395 11415 0
-12535 11555 0
-12675 11695 0
11836 11976 12116 12256 12396 12536 12676 0
-11836 10856 0
-11976 10996 0
-12116 11136 0
-12256 11276 0
-12396 11416 0
-12536 11556 0
-12676 11696 0
11837 11977 12117 12257 12397 12537 12677 0
-11837 10857 0
-11977 10997 0
-12117 11137 0
-12257 11277 0
-12397 11417 0
-12537 11557 0
-12677 11697 0
11838 11978 12118 12258 12398 12538 12678 0
-11838 10858 0
-11978 10998 0
-12118 11138 0
-12258 11278 0
-12398 11418 0
-12538 11558 0
-12678 11698 0
11839 11979 12119 12259 12399 12539 12679 0
-11839 10859 0
-11979 10999 0
-12119 11139 0
-12259 11279 0
-12399 11419 0
-12539 11559 0
-12679 11699 0
11840 11980 12120 12260 12400 12540 12680 0
-11840 10860 0
-11980 11000 0
-12120 11140 0
-12260 11280 0
-12400 11420 0
-12540 11560 0
-12680 11700 0
11841 11981 12121 12261 12401 12541 12681 0
-11841 10861 0
-11981 11001 0
-12121 11141 0
-12261 11281 0
-12401 11421 0
-12541 11561 0
-12681 11701 0
11842 11982 12122 12262 12402 12542 12682 0
-11842 10862 0
-11982 11002 0
-12122 11142 0
-12262 11282 0
-12402 11422 0
-12542 11562 0
-12682 11702 0
11843 11983 12123 12263 12403 12543 12683 0
-11843 10863 0
-11983 11003 0
-12123 11143 0
-12263 11283 0
-12403 11423 0
-12543 11563 0
-12683 11703 0
11844 11984 12124 12264 12404 12544 12684 0
-11844 10864 0
-11984 11004 0
-12124 11144 0
-12264 11284 0
-12404 11424 0
-12544 11564 0
-12684 11704 0
11845 11985 12125 12265 12405 12545 12685 0
-11845 10865 0
-11985 11005 0
-12125 11145 0
-12265 11285 0
-12405 11425 0
-12545 11565 0
-12685 11705 0
11846 11986 12126 12266 12406 12546 12686 0
-11846 10866 0
-11986 11006 0
-12126 11146 0
-12266 11286 0
-12406 11426 0
-12546 11566 0
-12686 11706 0
11847 11987 12127 12267 12407 12547 12687 0
-11847 10867 0
-11987 11007 0
-12127 11147 0
-12267 11287 0
-12407 11427 0
-12547 11567 0
-12687 11707 0
11848 11988 12128 12268 12408 12548 12688 0
-11848 10868 0
-11988 11008 0
-12128 11148 0
-12268 11288 0
-12408 11428 0
-12548 11568 0
-12688 11708 0
11849 11989 12129 12269 12409 12549 12689 0
-11849 10869 0
-11989 11009 0
-12129 11149 0
-12269 11289 0
-12409 11429 0
-12549 11569 0
-12689 11709 0
11850 11990 12130 12270 12410 12550 12690 0
-11850 10870 0
-11990 11010 0
-12130 11150 0
-12270 11290 0
-12410 11430 0
-12550 11570 0
-12690 11710 0
11851 11991 12131 12271 12411 12551 12691 0
-11851 10871 0
-11991 11011 0
-12131 11151 0
-12271 11291 0
-12411 11431 0
-12551 11571 0
-12691 11711 0
11852 11992 12132 12272 12412 12552 12692 0
-11852 10872 0
-11992 11012 0
-12132 11152 0
-12272 11292 0
-12412 11432 0
-12552 11572 0
-12692 11712 0
11853 11993 12133 12273 12413 12553 12693 0
-11853 10873 0
-11993 11013 0
-12133 11153 0
-12273 11293 0
-12413 11433 0
-12553 11573 0
-12693 11713 0
11854 11994 12134 12274 12414 12554 12694 0
-11854 10874 0
-11994 11014 0
-12134 11154 0
-12274 11294 0
-12414 11434 0
-12554 11574 0
-12694 11714 0
11855 11995 12135 12275 12415 12555 12695 0
-11855 10875 0
-11995 11015 0
-12135 11155 0
-12275 11295 0
-12415 11435 0
-12555 11575 0
-12695 11715 0
11856 11996 12136 12276 12416 12556 12696 0
-11856 10876 0
-11996 11016 0
-12136 11156 0
-12276 11296 0
-12416 11436 0
-12556 11576 0
-12696 11716 0
11857 11997 12137 12277 12417 12557 12697 0
-11857 10877 0
-11997 11017 0
-12137 11157 0
-12277 11297 0
-12417 11437 0
-12557 11577 0
-12697 11717 0
11858 11998 12138 12278 12418 12558 12698 0
-11858 10878 0
-11998 11018 0
-12138 11158 0
-12278 11298 0
-12418 11438 0
-12558 11578 0
-12698 11718 0
11859 11999 12139 12279 12419 12559 12699 0
-11859 10879 0
-11999 11019 0
-12139 11159 0
-12279 11299 0
-12419 11439 0
-12559 11579 0
-12699 11719 0
11860 12000 12140 12280 12420 12560 12700 0
-11860 10880 0
-12000 11020 0
-12140 11160 0
-12280 11300 0
-12420 11440 0
-12560 11580 0
-12700 11720 0
11861 12001 12141 12281 12421 12561 12701 0
-11861 10881 0
-12001 11021 0
-12141 11161 0
-12281 11301 0
-12421 11441 0
-12561 11581 0
-12701 11721 0
11862 12002 12142 12282 12422 12562 12702 0
-11862 10882 0
-12002 11022 0
-12142 11162 0
-12282 11302 0
-12422 11442 0
-12562 11582 0
-12702 11722 0
11863 12003 12143 12283 12423 12563 12703 0
-11863 10883 0
-12003 11023 0
-12143 11163 0
-12283 11303 0
-12423 11443 0
-12563 11583 0
-12703 11723 0
11864 12004 12144 12284 12424 12564 12704 0
-11864 10884 0
-12004 11024 0
-12144 11164 0
-12284 11304 0
-12424 11444 0
-12564 11584 0
-12704 11724 0
11865 12005 12145 12285 12425 12565 12705 0
-11865 10885 0
-12005 11025 0
-12145 11165 0
-12285 11305 0
-12425 11445 0
-12565 11585 0
-12705 11725 0
11866 12006 12146 12286 12426 12566 12706 0
-11866 10886 0
-12006 11026 0
-12146 11166 0
-12286 11306 0
-12426 11446 0
-12566 11586 0
-12706 11726 0
11867 12007 12147 12287 12427 12567 12707 0
-11867 10887 0
-12007 11027 0
-12147 11167 0
-12287 11307 0
-12427 11447 0
-12567 11587 0
-12707 11727 0
11868 12008 12148 12288 12428 12568 12708 0
-11868 10888 0
-12008 11028 0
-12148 11168 0
-12288 11308 0
-12428 11448 0
-12568 11588 0
-12708 11728 0
11869 12009 12149 12289 12429 12569 12709 0
-11869 10889 0
-12009 11029 0
-12149 11169 0
-12289 11309 0
-12429 11449 0
-12569 11589 0
-12709 11729 0
11870 12010 12150 12290 12430 12570 12710 0
-11870 10890 0
-12010 11030 0
-12150 11170 0
-12290 11310 0
-12430 11450 0
-12570 11590 0
-12710 11730 0
11871 12011 12151 12291 12431 12571 12711 0
-11871 10891 0
-12011 11031 0
-12151 11171 0
-12291 11311 0
-12431 11451 0
-12571 11591 0
-12711 11731 0
11872 12012 12152 12292 12432 12572 12712 0
-11872 10892 0
-12012 11032 0
-12152 11172 0
-12292 11312 0
-12432 11452 0
-12572 11592 0
-12712 11732 0
11873 12013 12153 12293 12433 12573 12713 0
-11873 10893 0
-12013 11033 0
-12153 11173 0
-12293 11313 0
-12433 11453 0
-12573 11593 0
-12713 11733 0
11874 12014 12154 12294 12434 12574 12714 0
-11874 10894 0
-12014 11034 0
-12154 11174 0
-12294 11314 0
-12434 11454 0
-12574 11594 0
-12714 11734 0
11875 12015 12155 12295 12435 12575 12715 0
-11875 10895 0
-12015 11035 0
-12155 11175 0
-12295 11315 0
-12435 11455 0
-12575 11595 0
-12715 11735 0
11876 12016 12156 12296 12436 12576 12716 0
-11876 10896 0
-12016 11036 0
-12156 11176 0
-12296 11316 0
-12436 11456 0
-12576 11596 0
-12716 11736 0
11877 12017 12157 12297 12437 12577 12717 0
-11877 10897 0
-12017 11037 0
-12157 11177 0
-12297 11317 0
-12437 11457 0
-12577 11597 0
-12717 11737 0
11878 12018 12158 12298 12438 12578 12718 0
-11878 10898 0
-12018 11038 0
-12158 11178 0
-12298 11318 0
-12438 11458 0
-12578 11598 0
-12718 11738 0
11879 12019 12159 12299 12439 12579 12719 0
-11879 10899 0
-12019 11039 0
-12159 11179 0
-12299 11319 0
-12439 11459 0
-12579 11599 0
-12719 11739 0
11880 12020 12160 12300 12440 12580 12720 0
-11880 10900 0
-12020 11040 0
-12160 11180 0
-12300 11320 0
-12440 11460 0
-12580 11600 0
-12720 11740 0
11881 12021 12161 12301 12441 12581 12721 0
-11881 10901 0
-12021 11041 0
-12161 11181 0
-12301 11321 0
-12441 11461 0
-12581 11601 0
-12721 11741 0
11882 12022 12162 12302 12442 12582 12722 0
-11882 10902 0
-12022 11042 0
-12162 11182 0
-12302 11322 0
-12442 11462 0
-12582 11602 0
-12722 11742 0
11883 12023 12163 12303 12443 12583 12723 0
-11883 10903 0
-12023 11043 0
-12163 11183 0
-12303 11323 0
-12443 11463 0
-12583 11603 0
-12723 11743 0
11884 12024 12164 12304 12444 12584 12724 0
-11884 10904 0
-12024 11044 0
-12164 11184 0
-12304 11324 0
-12444 11464 0
-12584 11604 0
-12724 11744 0
11885 12025 12165 12305 12445 12585 12725 0
-11885 10905 0
-12025 11045 0
-12165 11185 0
-12305 11325 0
-12445 11465 0
-12585 11605 0
-12725 11745 0
11886 12026 12166 12306 12446 12586 12726 0
-11886 10906 0
-12026 11046 0
-12166 11186 0
-12306 11326 0
-12446 11466 0
-12586 11606 0
-12726 11746 0
11887 12027 12167 12307 12447 12587 12727 0
-11887 10907 0
-12027 11047 0
-12167 11187 0
-12307 11327 0
-12447 11467 0
-12587 11607 0
-12727 11747 0
11888 12028 12168 12308 12448 12588 12728 0
-11888 10908 0
-12028 11048 0
-12168 11188 0
-12308 11328 0
-12448 11468 0
-12588 11608 0
-12728 11748 0
11889 12029 12169 12309 12449 12589 12729 0
-11889 10909 0
-12029 11049 0
-12169 11189 0
-12309 11329 0
-12449 11469 0
-12589 11609 0
-12729 11749 0
11890 12030 12170 12310 12450 12590 12730 0
-11890 10910 0
-12030 11050 0
-12170 11190 0
-12310 11330 0
-12450 11470 0
-12590 11610 0
-12730 11750 0
11891 12031 12171 12311 12451 12591 12731 0
-11891 10911 0
-12031 11051 0
-12171 11191 0
-12311 11331 0
-12451 11471 0
-12591 11611 0
-12731 11751 0
11892 12032 12172 12312 12452 12592 12732 0
-11892 10912 0
-12032 11052 0
-12172 11192 0
-12312 11332 0
-12452 11472 0
-12592 11612 0
-12732 11752 0
11893 12033 12173 12313 12453 12593 12733 0
-11893 10913 0
-12033 11053 0
-12173 11193 0
-12313 11333 0
-12453 11473 0
-12593 11613 0
-12733 11753 0
11894 12034 12174 12314 12454 12594 12734 0
-11894 10914 0
-12034 11054 0
-12174 11194 0
-12314 11334 0
-12454 11474 0
-12594 11614 0
-12734 11754 0
11895 12035 12175 12315 12455 12595 12735 0
-11895 10915 0
-12035 11055 0
-12175 11195 0
-12315 11335 0
-12455 11475 0
-12595 11615 0
-12735 11755 0
11896 12036 12176 12316 12456 12596 12736 0
-11896 10916 0
-12036 11056 0
-12176 11196 0
-12316 11336 0
-12456 11476 0
-12596 11616 0
-12736 11756 0
11897 12037 12177 12317 12457 12597 12737 0
-11897 10917 0
-12037 11057 0
-12177 11197 0
-12317 11337 0
-12457 11477 0
-12597 11617 0
-12737 11757 0
11898 12038 12178 12318 12458 12598 12738 0
-11898 10918 0
-12038 11058 0
-12178 11198 0
-12318 11338 0
-12458 11478 0
-12598 11618 0
-12738 11758 0
11899 12039 12179 12319 12459 12599 12739 0
-11899 10919 0
-12039 11059 0
-12179 11199 0
-12319 11339 0
-12459 11479 0
-12599 11619 0
-12739 11759 0
-1 11761 4 0
-2 11761 5 0
-3 11761 6 0
-421 11901 424 0
-422 11901 425 0
-423 11901 426 0
-841 12041 844 0
-842 12041 845 0
-843 12041 846 0
-1261 12181 1264 0
-1262 12181 1265 0
-1263 12181 1266 0
-1681 12321 1684 0
-1682 12321 1685 0
-1683 12321 1686 0
-2101 12461 2104 0
-2102 12461 2105 0
-2103 12461 2106 0
-2521 12601 2524 0
-2522 12601 2525 0
-2523 12601 2526 0
-421 -11901 425 0
-422 -11901 426 0
-423 -11901 424 0
-841 -12041 845 0
-842 -12041 846 0
-843 -12041 844 0
-1261 -12181 1265 0
-1262 -12181 1266 0
-1263 -12181 1264 0
-1681 -12321 1685 0
-1682 -12321 1686 0
-1683 -12321 1684 0
-2101 -12461 2105 0
-2102 -12461 2106 0
-2103 -12461 2104 0
-12601 -2101 2525 0
-12601 -2102 2526 0
-12601 -2103 2524 0
-11761 -1 6 0
-11761 -2 4 0
-11761 -3 5 0
-4 11762 7 0
-5 11762 8 0
-6 11762 9 0
-424 11902 427 0
-425 11902 428 0
-426 11902 429 0
-844 12042 847 0
-845 12042 848 0
-846 12042 849 0
-1264 12182 1267 0
-1265 12182 1268 0
-1266 12182 1269 0
-1684 12322 1687 0
-1685 12322 1688 0
-1686 12322 1689 0
-2104 12462 2107 0
-2105 12462 2108 0
-2106 12462 2109 0
-2524 12602 2527 0
-2525 12602 2528 0
-2526 12602 2529 0
-424 -11902 428 0
-425 -11902 429 0
-426 -11902 427 0
-844 -12042 848 0
-845 -12042 849 0
-846 -12042 847 0
-1264 -12182 1268 0
-1265 -12182 1269 0
-1266 -12182 1267 0
-1684 -12322 1688 0
-1685 -12322 1689 0
-1686 -12322 1687 0
-2104 -12462 2108 0
-2105 -12462 2109 0
-2106 -12462 2107 0
-12602 -2104 2528 0
-12602 -2105 2529 0
-12602 -2106 2527 0
-11762 -4 9 0
-11762 -5 7 0
-11762 -6 8 0
-7 11763 10 0
-8 11763 11 0
-9 11763 12 0
-427 11903 430 0
-428 11903 431 0
-429 11903 432 0
-847 12043 850 0
-848 12043 851 0
-849 12043 852 0
-1267 12183 1270 0
-1268 12183 1271 0
-1269 12183 1272 0
-1687 12323 1690 0
-1688 12323 1691 0
-1689 12323 1692 0
-2107 12463 2110 0
-2108 12463 2111 0
-2109 12463 2112 0
-2527 12603 2530 0
-2528 12603 2531 0
-2529 12603 2532 0
-427 -11903 431 0
-428 -11903 432 0
-429 -11903 430 0
-847 -12043 851 0
-848 -12043 852 0
-849 -12043 850 0
-1267 -12183 1271 0
-1268 -12183 1272 0
-1269 -12183 1270 0
-1687 -12323 1691 0
-1688 -12323 1692 0
-1689 -12323 1690 0
-2107 -12463 2111 0
-2108 -12463 2112 0
-2109 -12463 2110 0
-12603 -2107 2531 0
-12603 -2108 2532 0
-12603 -2109 2530 0
-11763 -7 12 0
-11763 -8 10 0
-11763 -9 11 0
-10 11764 13 0
-11 11764 14 0
-12 11764 15 0
-430 11904 433 0
-431 11904 434 0
-432 11904 435 0
-850 12044 853 0
-851 12044 854 0
-852 12044 855 0
-1270 12184 1273 0
-1271 12184 1274 0
-1272 12184 1275 0
-1690 12324 1693 0
-1691 12324 1694 0
-1692 12324 1695 0
-2110 12464 2113 0
-2111 12464 2114 0
-2112 12464 2115 0
-2530 12604 2533 0
-2531 12604 2534 0
-2532 12604 2535 0
-430 -11904 434 0
-431 -11904 435 0
-432 -11904 433 0
-850 -12044 854 0
-851 -12044 855 0
-852 -12044 853 0
-1270 -12184 1274 0
-1271 -12184 1275 0
-1272 -12184 1273 0
-1690 -12324 1694 0
-1691 -12324 1695 0
-1692 -12324 1693 0
-2110 -12464 2114 0
-2111 -12464 2115 0
-2112 -12464 2113 0
-12604 -2110 2534 0
-12604 -2111 2535 0
-12604 -2112 2533 0
-11764 -10 15 0
-11764 -11 13 0
-11764 -12 14 0
-13 11765 16 0
-14 11765 17 0
-15 11765 18 0
-433 11905 436 0
-434 11905 437 0
-435 11905 438 0
-853 12045 856 0
-854 12045 857 0
-855 12045 858 0
-1273 12185 1276 0
-1274 12185 1277 0
-1275 12185 1278 0
-1693 12325 1696 0
-1694 12325 1697 0
-1695 12325 1698 0
-2113 12465 2116 0
-2114 12465 2117 0
-2115 12465 2118 0
-2533 12605 2536 0
-2534 12605 2537 0
-2535 12605 2538 0
-433 -11905 437 0
-434 -11905 438 0
-435 -11905 436 0
-853 -12045 857 0
-854 -12045 858 0
-855 -12045 856 0
-1273 -12185 1277 0
-1274 -12185 1278 0
-1275 -12185 1276 0
-1693 -12325 1697 0
-1694 -12325 1698 0
-1695 -12325 1696 0
-2113 -12465 2117 0
-2114 -12465 2118 0
-2115 -12465 2116 0
-12605 -2113 2537 0
-12605 -2114 2538 0
-12605 -2115 2536 0
-11765 -13 18 0
-11765 -14 16 0
-11765 -15 17 0
-16 11766 19 0
-17 11766 20 0
-18 11766 21 0
-436 11906 439 0
-437 11906 440 0
-438 11906 441 0
-856 12046 859 0
-857 12046 860 0
-858 12046 861 0
-1276 12186 1279 0
-1277 12186 1280 0
-1278 12186 1281 0
-1696 12326 1699 0
-1697 12326 1700 0
-1698 12326 1701 0
-2116 12466 2119 0
-2117 12466 2120 0
-2118 12466 2121 0
-2536 12606 2539 0
-2537 12606 2540 0
-2538 12606 2541 0
-436 -11906 440 0
-437 -11906 441 0
-438 -11906 439 0
-856 -12046 860 0
-857 -12046 861 0
-858 -12046 859 0
-1276 -12186 1280 0
-1277 -12186 1281 0
-1278 -12186 1279 0
-1696 -12326 1700 0
-1697 -12326 1701 0
-1698 -12326 1699 0
-2116 -12466 2120 0
-2117 -12466 2121 0
-2118 -12466 2119 0
-12606 -2116 2540 0
-12606 -2117 2541 0
-12606 -2118 2539 0
-11766 -16 21 0
-11766 -17 19 0
-11766 -18 20 0
-19 11767 22 0
-20 11767 23 0
-21 11767 24 0
-439 11907 442 0
-440 11907 443 0
-441 11907 444 0
-859 12047 862 0
-860 12047 863 0
-861 12047 864 0
-1279 12187 1282 0
-1280 12187 1283 0
-1281 12187 1284 0
-1699 12327 1702 0
-1700 12327 1703 0
-1701 12327 1704 0
-2119 12467 2122 0
-2120 12467 2123 0
-2121 12467 2124 0
-2539 12607 2542 0
-2540 12607 2543 0
-2541 12607 2544 0
-439 -11907 443 0
-440 -11907 444 0
-441 -11907 442 0
-859 -12047 863 0
-860 -12047 864 0
-861 -12047 862 0
-1279 -12187 1283 0
-1280 -12187 1284 0
-1281 -12187 1282 0
-1699 -12327 1703 0
-1700 -12327 1704 0
-1701 -12327 1702 0
-2119 -12467 2123 0
-2120 -12467 2124 0
-2121 -12467 2122 0
-12607 -2119 2543 0
-12607 -2120 2544 0
-12607 -2121 2542 0
-11767 -19 24 0
-11767 -20 22 0
-11767 -21 23 0
-22 11768 25 0
-23 11768 26 0
-24 11768 27 0
-442 11908 445 0
-443 11908 446 0
-444 11908 447 0
-862 12048 865 0
-863 12048 866 0
-864 12048 867 0
-1282 12188 1285 0
-1283 12188 1286 0
-1284 12188 1287 0
-1702 12328 1705 0
-1703 12328 1706 0
-1704 12328 1707 0
-2122 12468 2125 0
-2123 12468 2126 0
-2124 12468 2127 0
-2542 12608 2545 0
-2543 12608 2546 0
-2544 12608 2547 0
-442 -11908 446 0
-443 -11908 447 0
-444 -11908 445 0
-862 -12048 866 0
-863 -12048 867 0
-864 -12048 865 0
-1282 -12188 1286 0
-1283 -12188 1287 0
-1284 -12188 1285 0
-1702 -12328 1706 0
-1703 -12328 1707 0
-1704 -12328 1705 0
-2122 -12468 2126 0
-2123 -12468 2127 0
-2124 -12468 2125 0
-12608 -2122 2546 0
-12608 -2123 2547 0
-12608 -2124 2545 0
-11768 -22 27 0
-11768 -23 25 0
-11768 -24 26 0
-25 11769 28 0
-26 11769 29 0
-27 11769 30 0
-445 11909 448 0
-446 11909 449 0
-447 11909 450 0
-865 12049 868 0
-866 12049 869 0
-867 12049 870 0
-1285 12189 1288 0
-1286 12189 1289 0
-1287 12189 1290 0
-1705 12329 1708 0
-1706 12329 1709 0
-1707 12329 1710 0
-2125 12469 2128 0
-2126 12469 2129 0
-2127 12469 2130 0
-2545 12609 2548 0
-2546 12609 2549 0
-2547 12609 2550 0
-445 -11909 449 0
-446 -11909 450 0
-447 -11909 448 0
-865 -12049 869 0
-866 -12049 870 0
-867 -12049 868 0
-1285 -12189 1289 0
-1286 -12189 1290 0
-1287 -12189 1288 0
-1705 -12329 1709 0
-1706 -12329 1710 0
-1707 -12329 1708 0
-2125 -12469 2129 0
-2126 -12469 2130 0
-2127 -12469 2128 0
-12609 -2125 2549 0
-12609 -2126 2550 0
-12609 -2127 2548 0
-11769 -25 30 0
-11769 -26 28 0
-11769 -27 29 0
-28 11770 31 0
-29 11770 32 0
-30 11770 33 0
-448 11910 451 0
-449 11910 452 0
-450 11910 453 0
-868 12050 871 0
-869 12050 872 0
-870 12050 873 0
-1288 12190 1291 0
-1289 12190 1292 0
-1290 12190 1293 0
-1708 12330 1711 0
-1709 12330 1712 0
-1710 12330 1713 0
-2128 12470 2131 0
-2129 12470 2132 0
-2130 12470 2133 0
-2548 12610 2551 0
-2549 12610 2552 0
-2550 12610 2553 0
-448 -11910 452 0
-449 -11910 453 0
-450 -11910 451 0
-868 -12050 872 0
-869 -12050 873 0
-870 -12050 871 0
-1288 -12190 1292 0
-1289 -12190 1293 0
-1290 -12190 1291 0
-1708 -12330 1712 0
-1709 -12330 1713 0
-1710 -12330 1711 0
-2128 -12470 2132 0
-2129 -12470 2133 0
-2130 -12470 2131 0
-12610 -2128 2552 0
-12610 -2129 2553 0
-12610 -2130 2551 0
-11770 -28 33 0
-11770 -29 31 0
-11770 -30 32 0
-31 11771 34 0
-32 11771 35 0
-33 11771 36 0
-451 11911 454 0
-452 11911 455 0
-453 11911 456 0
-871 12051 874 0
-872 12051 875 0
-873 12051 876 0
-1291 12191 1294 0
-1292 12191 1295 0
-1293 12191 1296 0
-1711 12331 1714 0
-1712 12331 1715 0
-1713 12331 1716 0
-2131 12471 2134 0
-2132 12471 2135 0
-2133 12471 2136 0
-2551 12611 2554 0
-2552 12611 2555 0
-2553 12611 2556 0
-451 -11911 455 0
-452 -11911 456 0
-453 -11911 454 0
-871 -12051 875 0
-872 -12051 876 0
-873 -12051 874 0
-1291 -12191 1295 0
-1292 -12191 1296 0
-1293 -12191 1294 0
-1711 -12331 1715 0
-1712 -12331 1716 0
-1713 -12331 1714 0
-2131 -12471 2135 0
-2132 -12471 2136 0
-2133 -12471 2134 0
-12611 -2131 2555 0
-12611 -2132 2556 0
-12611 -2133 2554 0
-11771 -31 36 0
-11771 -32 34 0
-11771 -33 35 0
-34 11772 37 0
-35 11772 38 0
-36 11772 39 0
-454 11912 457 0
-455 11912 458 0
-456 11912 459 0
-874 12052 877 0
-875 12052 878 0
-876 12052 879 0
-1294 12192 1297 0
-1295 12192 1298 0
-1296 12192 1299 0
-1714 12332 1717 0
-1715 12332 1718 0
-1716 12332 1719 0
-2134 12472 2137 0
-2135 12472 2138 0
-2136 12472 2139 0
-2554 12612 2557 0
-2555 12612 2558 0
-2556 12612 2559 0
-454 -11912 458 0
-455 -11912 459 0
-456 -11912 457 0
-874 -12052 878 0
-875 -12052 879 0
-876 -12052 877 0
-1294 -12192 1298 0
-1295 -12192 1299 0
-1296 -12192 1297 0
-1714 -12332 1718 0
-1715 -12332 1719 0
-1716 -12332 1717 0
-2134 -12472 2138 0
-2135 -12472 2139 0
-2136 -12472 2137 0
-12612 -2134 2558 0
-12612 -2135 2559 0
-12612 -2136 2557 0
-11772 -34 39 0
-11772 -35 37 0
-11772 -36 38 0
-37 11773 40 0
-38 11773 41 0
-39 11773 42 0
-457 11913 460 0
-458 11913 461 0
-459 11913 462 0
-877 12053 880 0
-878 12053 881 0
-879 12053 882 0
-1297 12193 1300 0
-1298 12193 1301 0
-1299 12193 1302 0
-1717 12333 1720 0
-1718 12333 1721 0
-1719 12333 1722 0
-2137 12473 2140 0
-2138 12473 2141 0
-2139 12473 2142 0
-2557 12613 2560 0
-2558 12613 2561 0
-2559 12613 2562 0
-457 -11913 461 0
-458 -11913 462 0
-459 -11913 460 0
-877 -12053 881 0
-878 -12053 882 0
-879 -12053 880 0
-1297 -12193 1301 0
-1298 -12193 1302 0
-1299 -12193 1300 0
-1717 -12333 1721 0
-1718 -12333 1722 0
-1719 -12333 1720 0
-2137 -12473 2141 0
-2138 -12473 2142 0
-2139 -12473 2140 0
-12613 -2137 2561 0
-12613 -2138 2562 0
-12613 -2139 2560 0
-11773 -37 42 0
-11773 -38 40 0
-11773 -39 41 0
-40 11774 43 0
-41 11774 44 0
-42 11774 45 0
-460 11914 463 0
-461 11914 464 0
-462 11914 465 0
-880 12054 883 0
-881 12054 884 0
-882 12054 885 0
-1300 12194 1303 0
-1301 12194 1304 0
-1302 12194 1305 0
-1720 12334 1723 0
-1721 12334 1724 0
-1722 12334 1725 0
-2140 12474 2143 0
-2141 12474 2144 0
-2142 12474 2145 0
-2560 12614 2563 0
-2561 12614 2564 0
-2562 12614 2565 0
-460 -11914 464 0
-461 -11914 465 0
-462 -11914 463 0
-880 -12054 884 0
-881 -12054 885 0
-882 -12054 883 0
-1300 -12194 1304 0
-1301 -12194 1305 0
-1302 -12194 1303 0
-1720 -12334 1724 0
-1721 -12334 1725 0
-1722 -12334 1723 0
-2140 -12474 2144 0
-2141 -12474 2145 0
-2142 -12474 2143 0
-12614 -2140 2564 0
-12614 -2141 2565 0
-12614 -2142 2563 0
-11774 -40 45 0
-11774 -41 43 0
-11774 -42 44 0
-43 11775 46 0
-44 11775 47 0
-45 11775 48 0
-463 11915 466 0
-464 11915 467 0
-465 11915 468 0
-883 12055 886 0
-884 12055 887 0
-885 12055 888 0
-1303 12195 1306 0
-1304 12195 1307 0
-1305 12195 1308 0
-1723 12335 1726 0
-1724 12335 1727 0
-1725 12335 1728 0
-2143 12475 2146 0
-2144 12475 2147 0
-2145 12475 2148 0
-2563 12615 2566 0
-2564 12615 2567 0
-2565 12615 2568 0
-463 -11915 467 0
-464 -11915 468 0
-465 -11915 466 0
-883 -12055 887 0
-884 -12055 888 0
-885 -12055 886 0
-1303 -12195 1307 0
-1304 -12195 1308 0
-1305 -12195 1306 0
-1723 -12335 1727 0
-1724 -12335 1728 0
-1725 -12335 1726 0
-2143 -12475 2147 0
-2144 -12475 2148 0
-2145 -12475 2146 0
-12615 -2143 2567 0
-12615 -2144 2568 0
-12615 -2145 2566 0
-11775 -43 48 0
-11775 -44 46 0
-11775 -45 47 0
-46 11776 49 0
-47 11776 50 0
-48 11776 51 0
-466 11916 469 0
-467 11916 470 0
-468 11916 471 0
-886 12056 889 0
-887 12056 890 0
-888 12056 891 0
-1306 12196 1309 0
-1307 12196 1310 0
-1308 12196 1311 0
-1726 12336 1729 0
-1727 12336 1730 0
-1728 12336 1731 0
-2146 12476 2149 0
-2147 12476 2150 0
-2148 12476 2151 0
-2566 12616 2569 0
-2567 12616 2570 0
-2568 12616 2571 0
-466 -11916 470 0
-467 -11916 471 0
-468 -11916 469 0
-886 -12056 890 0
-887 -12056 891 0
-888 -12056 889 0
-1306 -12196 1310 0
-1307 -12196 1311 0
-1308 -12196 1309 0
-1726 -12336 1730 0
-1727 -12336 1731 0
-1728 -12336 1729 0
-2146 -12476 2150 0
-2147 -12476 2151 0
-2148 -12476 2149 0
-12616 -2146 2570 0
-12616 -2147 2571 0
-12616 -2148 2569 0
-11776 -46 51 0
-11776 -47 49 0
-11776 -48 50 0
-49 11777 52 0
-50 11777 53 0
-51 11777 54 0
-469 11917 472 0
-470 11917 473 0
-471 11917 474 0
-889 12057 892 0
-890 12057 893 0
-891 12057 894 0
-1309 12197 1312 0
-1310 12197 1313 0
-1311 12197 1314 0
-1729 12337 1732 0
-1730 12337 1733 0
-1731 12337 1734 0
-2149 12477 2152 0
-2150 12477 2153 0
-2151 12477 2154 0
-2569 12617 2572 0
-2570 12617 2573 0
-2571 12617 2574 0
-469 -11917 473 0
-470 -11917 474 0
-471 -11917 472 0
-889 -12057 893 0
-890 -12057 894 0
-891 -12057 892 0
-1309 -12197 1313 0
-1310 -12197 1314 0
-1311 -12197 1312 0
-1729 -12337 1733 0
-1730 -12337 1734 0
-1731 -12337 1732 0
-2149 -12477 2153 0
-2150 -12477 2154 0
-2151 -12477 2152 0
-12617 -2149 2573 0
-12617 -2150 2574 0
-12617 -2151 2572 0
-11777 -49 54 0
-11777 -50 52 0
-11777 -51 53 0
-52 11778 55 0
-53 11778 56 0
-54 11778 57 0
-472 11918 475 0
-473 11918 476 0
-474 11918 477 0
-892 12058 895 0
-893 12058 896 0
-894 12058 897 0
-1312 12198 1315 0
-1313 12198 1316 0
-1314 12198 1317 0
-1732 12338 1735 0
-1733 12338 1736 0
-1734 12338 1737 0
-2152 12478 2155 0
-2153 12478 2156 0
-2154 12478 2157 0
-2572 12618 2575 0
-2573 12618 2576 0
-2574 12618 2577 0
-472 -11918 476 0
-473 -11918 477 0
-474 -11918 475 0
-892 -12058 896 0
-893 -12058 897 0
-894 -12058 895 0
-1312 -12198 1316 0
-1313 -12198 1317 0
-1314 -12198 1315 0
-1732 -12338 1736 0
-1733 -12338 1737 0
-1734 -12338 1735 0
-2152 -12478 2156 0
-2153 -12478 2157 0
-2154 -12478 2155 0
-12618 -2152 2576 0
-12618 -2153 2577 0
-12618 -2154 2575 0
-11778 -52 57 0
-11778 -53 55 0
-11778 -54 56 0
-55 11779 58 0
-56 11779 59 0
-57 11779 60 0
-475 11919 478 0
-476 11919 479 0
-477 11919 480 0
-895 12059 898 0
-896 12059 899 0
-897 12059 900 0
-1315 12199 1318 0
-1316 12199 1319 0
-1317 12199 1320 0
-1735 12339 1738 0
-1736 12339 1739 0
-1737 12339 1740 0
-2155 12479 2158 0
-2156 12479 2159 0
-2157 12479 2160 0
-2575 12619 2578 0
-2576 12619 2579 0
-2577 12619 2580 0
-475 -11919 479 0
-476 -11919 480 0
-477 -11919 478 0
-895 -12059 899 0
-896 -12059 900 0
-897 -12059 898 0
-1315 -12199 1319 0
-1316 -12199 1320 0
-1317 -12199 1318 0
-1735 -12339 1739 0
-1736 -12339 1740 0
-1737 -12339 1738 0
-2155 -12479 2159 0
-2156 -12479 2160 0
-2157 -12479 2158 0
-12619 -2155 2579 0
-12619 -2156 2580 0
-12619 -2157 2578 0
-11779 -55 60 0
-11779 -56 58 0
-11779 -57 59 0
-58 11780 61 0
-59 11780 62 0
-60 11780 63 0
-478 11920 481 0
-479 11920 482 0
-480 11920 483 0
-898 12060 901 0
-899 12060 902 0
-900 12060 903 0
-1318 12200 1321 0
-1319 12200 1322 0
-1320 12200 1323 0
-1738 12340 1741 0
-1739 12340 1742 0
-1740 12340 1743 0
-2158 12480 2161 0
-2159 12480 2162 0
-2160 12480 2163 0
-2578 12620 2581 0
-2579 12620 2582 0
-2580 12620 2583 0
-478 -11920 482 0
-479 -11920 483 0
-480 -11920 481 0
-898 -12060 902 0
-899 -12060 903 0
-900 -12060 901 0
-1318 -12200 1322 0
-1319 -12200 1323 0
-1320 -12200 1321 0
-1738 -12340 1742 0
-1739 -12340 1743 0
-1740 -12340 1741 0
-2158 -12480 2162 0
-2159 -12480 2163 0
-2160 -12480 2161 0
-12620 -2158 2582 0
-12620 -2159 2583 0
-12620 -2160 2581 0
-11780 -58 63 0
-11780 -59 61 0
-11780 -60 62 0
-61 11781 64 0
-62 11781 65 0
-63 11781 66 0
-481 11921 484 0
-482 11921 485 0
-483 11921 486 0
-901 12061 904 0
-902 12061 905 0
-903 12061 906 0
-1321 12201 1324 0
-1322 12201 1325 0
-1323 12201 1326 0
-1741 12341 1744 0
-1742 12341 1745 0
-1743 12341 1746 0
-2161 12481 2164 0
-2162 12481 2165 0
-2163 12481 2166 0
-2581 12621 2584 0
-2582 12621 2585 0
-2583 12621 2586 0
-481 -11921 485 0
-482 -11921 486 0
-483 -11921 484 0
-901 -12061 905 0
-902 -12061 906 0
-903 -12061 904 0
-1321 -12201 1325 0
-1322 -12201 1326 0
-1323 -12201 1324 0
-1741 -12341 1745 0
-1742 -12341 1746 0
-1743 -12341 1744 0
-2161 -12481 2165 0
-2162 -12481 2166 0
-2163 -12481 2164 0
-12621 -2161 2585 0
-12621 -2162 2586 0
-12621 -2163 2584 0
-11781 -61 66 0
-11781 -62 64 0
-11781 -63 65 0
-64 11782 67 0
-65 11782 68 0
-66 11782 69 0
-484 11922 487 0
-485 11922 488 0
-486 11922 489 0
-904 12062 907 0
-905 12062 908 0
-906 12062 909 0
-1324 12202 1327 0
-1325 12202 1328 0
-1326 12202 1329 0
-1744 12342 1747 0
-1745 12342 1748 0
-1746 12342 1749 0
-2164 12482 2167 0
-2165 12482 2168 0
-2166 12482 2169 0
-2584 12622 2587 0
-2585 12622 2588 0
-2586 12622 2589 0
-484 -11922 488 0
-485 -11922 489 0
-486 -11922 487 0
-904 -12062 908 0
-905 -12062 909 0
-906 -12062 907 0
-1324 -12202 1328 0
-1325 -12202 1329 0
-1326 -12202 1327 0
-1744 -12342 1748 0
-1745 -12342 1749 0
-1746 -12342 1747 0
-2164 -12482 2168 0
-2165 -12482 2169 0
-2166 -12482 2167 0
-12622 -2164 2588 0
-12622 -2165 2589 0
-12622 -2166 2587 0
-11782 -64 69 0
-11782 -65 67 0
-11782 -66 68 0
-67 11783 70 0
-68 11783 71 0
-69 11783 72 0
-487 11923 490 0
-488 11923 491 0
-489 11923 492 0
-907 12063 910 0
-908 12063 911 0
-909 12063 912 0
-1327 12203 1330 0
-1328 12203 1331 0
-1329 12203 1332 0
-1747 12343 1750 0
-1748 12343 1751 0
-1749 12343 1752 0
-2167 12483 2170 0
-2168 12483 2171 0
-2169 12483 2172 0
-2587 12623 2590 0
-2588 12623 2591 0
-2589 12623 2592 0
-487 -11923 491 0
-488 -11923 492 0
-489 -11923 490 0
-907 -12063 911 0
-908 -12063 912 0
-909 -12063 910 0
-1327 -12203 1331 0
-1328 -12203 1332 0
-1329 -12203 1330 0
-1747 -12343 1751 0
-1748 -12343 1752 0
-1749 -12343 1750 0
-2167 -12483 2171 0
-2168 -12483 2172 0
-2169 -12483 2170 0
-12623 -2167 2591 0
-12623 -2168 2592 0
-12623 -2169 2590 0
-11783 -67 72 0
-11783 -68 70 0
-11783 -69 71 0
-70 11784 73 0
-71 11784 74 0
-72 11784 75 0
-490 11924 493 0
-491 11924 494 0
-492 11924 495 0
-910 12064 913 0
-911 12064 914 0
-912 12064 915 0
-1330 12204 1333 0
-1331 12204 1334 0
-1332 12204 1335 0
-1750 12344 1753 0
-1751 12344 1754 0
-1752 12344 1755 0
-2170 12484 2173 0
-2171 12484 2174 0
-2172 12484 2175 0
-2590 12624 2593 0
-2591 12624 2594 0
-2592 12624 2595 0
-490 -11924 494 0
-491 -11924 495 0
-492 -11924 493 0
-910 -12064 914 0
-911 -12064 915 0
-912 -12064 913 0
-1330 -12204 1334 0
-1331 -12204 1335 0
-1332 -12204 1333 0
-1750 -12344 1754 0
-1751 -12344 1755 0
-1752 -12344 1753 0
-2170 -12484 2174 0
-2171 -12484 2175 0
-2172 -12484 2173 0
-12624 -2170 2594 0
-12624 -2171 2595 0
-12624 -2172 2593 0
-11784 -70 75 0
-11784 -71 73 0
-11784 -72 74 0
-73 11785 76 0
-74 11785 77 0
-75 11785 78 0
-493 11925 496 0
-494 11925 497 0
-495 11925 498 0
-913 12065 916 0
-914 12065 917 0
-915 12065 918 0
-1333 12205 1336 0
-1334 12205 1337 0
-1335 12205 1338 0
-1753 12345 1756 0
-1754 12345 1757 0
-1755 12345 1758 0
-2173 12485 2176 0
-2174 12485 2177 0
-2175 12485 2178 0
-2593 12625 2596 0
-2594 12625 2597 0
-2595 12625 2598 0
-493 -11925 497 0
-494 -11925 498 0
-495 -11925 496 0
-913 -12065 917 0
-914 -12065 918 0
-915 -12065 916 0
-1333 -12205 1337 0
-1334 -12205 1338 0
-1335 -12205 1336 0
-1753 -12345 1757 0
-1754 -12345 1758 0
-1755 -12345 1756 0
-2173 -12485 2177 0
-2174 -12485 2178 0
-2175 -12485 2176 0
-12625 -2173 2597 0
-12625 -2174 2598 0
-12625 -2175 2596 0
-11785 -73 78 0
-11785 -74 76 0
-11785 -75 77 0
-76 11786 79 0
-77 11786 80 0
-78 11786 81 0
-496 11926 499 0
-497 11926 500 0
-498 11926 501 0
-916 12066 919 0
-917 12066 920 0
-918 12066 921 0
-1336 12206 1339 0
-1337 12206 1340 0
-1338 12206 1341 0
-1756 12346 1759 0
-1757 12346 1760 0
-1758 12346 1761 0
-2176 12486 2179 0
-2177 12486 2180 0
-2178 12486 2181 0
-2596 12626 2599 0
-2597 12626 2600 0
-2598 12626 2601 0
-496 -11926 500 0
-497 -11926 501 0
-498 -11926 499 0
-916 -12066 920 0
-917 -12066 921 0
-918 -12066 919 0
-1336 -12206 1340 0
-1337 -12206 1341 0
-1338 -12206 1339 0
-1756 -12346 1760 0
-1757 -12346 1761 0
-1758 -12346 1759 0
-2176 -12486 2180 0
-2177 -12486 2181 0
-2178 -12486 2179 0
-12626 -2176 2600 0
-12626 -2177 2601 0
-12626 -2178 2599 0
-11786 -76 81 0
-11786 -77 79 0
-11786 -78 80 0
-79 11787 82 0
-80 11787 83 0
-81 11787 84 0
-499 11927 502 0
-500 11927 503 0
-501 11927 504 0
-919 12067 922 0
-920 12067 923 0
-921 12067 924 0
-1339 12207 1342 0
-1340 12207 1343 0
-1341 12207 1344 0
-1759 12347 1762 0
-1760 12347 1763 0
-1761 12347 1764 0
-2179 12487 2182 0
-2180 12487 2183 0
-2181 12487 2184 0
-2599 12627 2602 0
-2600 12627 2603 0
-2601 12627 2604 0
-499 -11927 503 0
-500 -11927 504 0
-501 -11927 502 0
-919 -12067 923 0
-920 -12067 924 0
-921 -12067 922 0
-1339 -12207 1343 0
-1340 -12207 1344 0
-1341 -12207 1342 0
-1759 -12347 1763 0
-1760 -12347 1764 0
-1761 -12347 1762 0
-2179 -12487 2183 0
-2180 -12487 2184 0
-2181 -12487 2182 0
-12627 -2179 2603 0
-12627 -2180 2604 0
-12627 -2181 2602 0
-11787 -79 84 0
-11787 -80 82 0
-11787 -81 83 0
-82 11788 85 0
-83 11788 86 0
-84 11788 87 0
-502 11928 505 0
-503 11928 506 0
-504 11928 507 0
-922 12068 925 0
-923 12068 926 0
-924 12068 927 0
-1342 12208 1345 0
-1343 12208 1346 0
-1344 12208 1347 0
-1762 12348 1765 0
-1763 12348 1766 0
-1764 12348 1767 0
-2182 12488 2185 0
-2183 12488 2186 0
-2184 12488 2187 0
-2602 12628 2605 0
-2603 12628 2606 0
-2604 12628 2607 0
-502 -11928 506 0
-503 -11928 507 0
-504 -11928 505 0
-922 -12068 926 0
-923 -12068 927 0
-924 -12068 925 0
-1342 -12208 1346 0
-1343 -12208 1347 0
-1344 -12208 1345 0
-1762 -12348 1766 0
-1763 -12348 1767 0
-1764 -12348 1765 0
-2182 -12488 2186 0
-2183 -12488 2187 0
-2184 -12488 2185 0
-12628 -2182 2606 0
-12628 -2183 2607 0
-12628 -2184 2605 0
-11788 -82 87 0
-11788 -83 85 0
-11788 -84 86 0
-85 11789 88 0
-86 11789 89 0
-87 11789 90 0
-505 11929 508 0
-506 11929 509 0
-507 11929 510 0
-925 12069 928 0
-926 12069 929 0
-927 12069 930 0
-1345 12209 1348 0
-1346 12209 1349 0
-1347 12209 1350 0
-1765 12349 1768 0
-1766 12349 1769 0
-1767 12349 1770 0
-2185 12489 2188 0
-2186 12489 2189 0
-2187 12489 2190 0
-2605 12629 2608 0
-2606 12629 2609 0
-2607 12629 2610 0
-505 -11929 509 0
-506 -11929 510 0
-507 -11929 508 0
-925 -12069 929 0
-926 -12069 930 0
-927 -12069 928 0
-1345 -12209 1349 0
-1346 -12209 1350 0
-1347 -12209 1348 0
-1765 -12349 1769 0
-1766 -12349 1770 0
-1767 -12349 1768 0
-2185 -12489 2189 0
-2186 -12489 2190 0
-2187 -12489 2188 0
-12629 -2185 2609 0
-12629 -2186 2610 0
-12629 -2187 2608 0
-11789 -85 90 0
-11789 -86 88 0
-11789 -87 89 0
-88 11790 91 0
-89 11790 92 0
-90 11790 93 0
-508 11930 511 0
-509 11930 512 0
-510 11930 513 0
-928 12070 931 0
-929 12070 932 0
-930 12070 933 0
-1348 12210 1351 0
-1349 12210 1352 0
-1350 12210 1353 0
-1768 12350 1771 0
-1769 12350 1772 0
-1770 12350 1773 0
-2188 12490 2191 0
-2189 12490 2192 0
-2190 12490 2193 0
-2608 12630 2611 0
-2609 12630 2612 0
-2610 12630 2613 0
-508 -11930 512 0
-509 -11930 513 0
-510 -11930 511 0
-928 -12070 932 0
-929 -12070 933 0
-930 -12070 931 0
-1348 -12210 1352 0
-1349 -12210 1353 0
-1350 -12210 1351 0
-1768 -12350 1772 0
-1769 -12350 1773 0
-1770 -12350 1771 0
-2188 -12490 2192 0
-2189 -12490 2193 0
-2190 -12490 2191 0
-12630 -2188 2612 0
-12630 -2189 2613 0
-12630 -2190 2611 0
-11790 -88 93 0
-11790 -89 91 0
-11790 -90 92 0
-91 11791 94 0
-92 11791 95 0
-93 11791 96 0
-511 11931 514 0
-512 11931 515 0
-513 11931 516 0
-931 12071 934 0
-932 12071 935 0
-933 12071 936 0
-1351 12211 1354 0
-1352 12211 1355 0
-1353 12211 1356 0
-1771 12351 1774 0
-1772 12351 1775 0
-1773 12351 1776 0
-2191 12491 2194 0
-2192 12491 2195 0
-2193 12491 2196 0
-2611 12631 2614 0
-2612 12631 2615 0
-2613 12631 2616 0
-511 -11931 515 0
-512 -11931 516 0
-513 -11931 514 0
-931 -12071 935 0
-932 -12071 936 0
-933 -12071 934 0
-1351 -12211 1355 0
-1352 -12211 1356 0
-1353 -12211 1354 0
-1771 -12351 1775 0
-1772 -12351 1776 0
-1773 -12351 1774 0
-2191 -12491 2195 0
-2192 -12491 2196 0
-2193 -12491 2194 0
-12631 -2191 2615 0
-12631 -2192 2616 0
-12631 -2193 2614 0
-11791 -91 96 0
-11791 -92 94 0
-11791 -93 95 0
-94 11792 97 0
-95 11792 98 0
-96 11792 99 0
-514 11932 517 0
-515 11932 518 0
-516 11932 519 0
-934 12072 937 0
-935 12072 938 0
-936 12072 939 0
-1354 12212 1357 0
-1355 12212 1358 0
-1356 12212 1359 0
-1774 12352 1777 0
-1775 12352 1778 0
-1776 12352 1779 0
-2194 12492 2197 0
-2195 12492 2198 0
-2196 12492 2199 0
-2614 12632 2617 0
-2615 12632 2618 0
-2616 12632 2619 0
-514 -11932 518 0
-515 -11932 519 0
-516 -11932 517 0
-934 -12072 938 0
-935 -12072 939 0
-936 -12072 937 0
-1354 -12212 1358 0
-1355 -12212 1359 0
-1356 -12212 1357 0
-1774 -12352 1778 0
-1775 -12352 1779 0
-1776 -12352 1777 0
-2194 -12492 2198 0
-2195 -12492 2199 0
-2196 -12492 2197 0
-12632 -2194 2618 0
-12632 -2195 2619 0
-12632 -2196 2617 0
-11792 -94 99 0
-11792 -95 97 0
-11792 -96 98 0
-97 11793 100 0
-98 11793 101 0
-99 11793 102 0
-517 11933 520 0
-518 11933 521 0
-519 11933 522 0
-937 12073 940 0
-938 12073 941 0
-939 12073 942 0
-1357 12213 1360 0
-1358 12213 1361 0
-1359 12213 1362 0
-1777 12353 1780 0
-1778 12353 1781 0
-1779 12353 1782 0
-2197 12493 2200 0
-2198 12493 2201 0
-2199 12493 2202 0
-2617 12633 2620 0
-2618 12633 2621 0
-2619 12633 2622 0
-517 -11933 521 0
-518 -11933 522 0
-519 -11933 520 0
-937 -12073 941 0
-938 -12073 942 0
-939 -12073 940 0
-1357 -12213 1361 0
-1358 -12213 1362 0
-1359 -12213 1360 0
-1777 -12353 1781 0
-1778 -12353 1782 0
-1779 -12353 1780 0
-2197 -12493 2201 0
-2198 -12493 2202 0
-2199 -12493 2200 0
-12633 -2197 2621 0
-12633 -2198 2622 0
-12633 -2199 2620 0
-11793 -97 102 0
-11793 -98 100 0
-11793 -99 101 0
-100 11794 103 0
-101 11794 104 0
-102 11794 105 0
-520 11934 523 0
-521 11934 524 0
-522 11934 525 0
-940 12074 943 0
-941 12074 944 0
-942 12074 945 0
-1360 12214 1363 0
-1361 12214 1364 0
-1362 12214 1365 0
-1780 12354 1783 0
-1781 12354 1784 0
-1782 12354 1785 0
-2200 12494 2203 0
-2201 12494 2204 0
-2202 12494 2205 0
-2620 12634 2623 0
-2621 12634 2624 0
-2622 12634 2625 0
-520 -11934 524 0
-521 -11934 525 0
-522 -11934 523 0
-940 -12074 944 0
-941 -12074 945 0
-942 -12074 943 0
-1360 -12214 1364 0
-1361 -12214 1365 0
-1362 -12214 1363 0
-1780 -12354 1784 0
-1781 -12354 1785 0
-1782 -12354 1783 0
-2200 -12494 2204 0
-2201 -12494 2205 0
-2202 -12494 2203 0
-12634 -2200 2624 0
-12634 -2201 2625 0
-12634 -2202 2623 0
-11794 -100 105 0
-11794 -101 103 0
-11794 -102 104 0
-103 11795 106 0
-104 11795 107 0
-105 11795 108 0
-523 11935 526 0
-524 11935 527 0
-525 11935 528 0
-943 12075 946 0
-944 12075 947 0
-945 12075 948 0
-1363 12215 1366 0
-1364 12215 1367 0
-1365 12215 1368 0
-1783 12355 1786 0
-1784 12355 1787 0
-1785 12355 1788 0
-2203 12495 2206 0
-2204 12495 2207 0
-2205 12495 2208 0
-2623 12635 2626 0
-2624 12635 2627 0
-2625 12635 2628 0
-523 -11935 527 0
-524 -11935 528 0
-525 -11935 526 0
-943 -12075 947 0
-944 -12075 948 0
-945 -12075 946 0
-1363 -12215 1367 0
-1364 -12215 1368 0
-1365 -12215 1366 0
-1783 -12355 1787 0
-1784 -12355 1788 0
-1785 -12355 1786 0
-2203 -12495 2207 0
-2204 -12495 2208 0
-2205 -12495 2206 0
-12635 -2203 2627 0
-12635 -2204 2628 0
-12635 -2205 2626 0
-11795 -103 108 0
-11795 -104 106 0
-11795 -105 107 0
-106 11796 109 0
-107 11796 110 0
-108 11796 111 0
-526 11936 529 0
-527 11936 530 0
-528 11936 531 0
-946 12076 949 0
-947 12076 950 0
-948 12076 951 0
-1366 12216 1369 0
-1367 12216 1370 0
-1368 12216 1371 0
-1786 12356 1789 0
-1787 12356 1790 0
-1788 12356 1791 0
-2206 12496 2209 0
-2207 12496 2210 0
-2208 12496 2211 0
-2626 12636 2629 0
-2627 12636 2630 0
-2628 12636 2631 0
-526 -11936 530 0
-527 -11936 531 0
-528 -11936 529 0
-946 -12076 950 0
-947 -12076 951 0
-948 -12076 949 0
-1366 -12216 1370 0
-1367 -12216 1371 0
-1368 -12216 1369 0
-1786 -12356 1790 0
-1787 -12356 1791 0
-1788 -12356 1789 0
-2206 -12496 2210 0
-2207 -12496 2211 0
-2208 -12496 2209 0
-12636 -2206 2630 0
-12636 -2207 2631 0
-12636 -2208 2629 0
-11796 -106 111 0
-11796 -107 109 0
-11796 -108 110 0
-109 11797 112 0
-110 11797 113 0
-111 11797 114 0
-529 11937 532 0
-530 11937 533 0
-531 11937 534 0
-949 12077 952 0
-950 12077 953 0
-951 12077 954 0
-1369 12217 1372 0
-1370 12217 1373 0
-1371 12217 1374 0
-1789 12357 1792 0
-1790 12357 1793 0
-1791 12357 1794 0
-2209 12497 2212 0
-2210 12497 2213 0
-2211 12497 2214 0
-2629 12637 2632 0
-2630 12637 2633 0
-2631 12637 2634 0
-529 -11937 533 0
-530 -11937 534 0
-531 -11937 532 0
-949 -12077 953 0
-950 -12077 954 0
-951 -12077 952 0
-1369 -12217 1373 0
-1370 -12217 1374 0
-1371 -12217 1372 0
-1789 -12357 1793 0
-1790 -12357 1794 0
-1791 -12357 1792 0
-2209 -12497 2213 0
-2210 -12497 2214 0
-2211 -12497 2212 0
-12637 -2209 2633 0
-12637 -2210 2634 0
-12637 -2211 2632 0
-11797 -109 114 0
-11797 -110 112 0
-11797 -111 113 0
-112 11798 115 0
-113 11798 116 0
-114 11798 117 0
-532 11938 535 0
-533 11938 536 0
-534 11938 537 0
-952 12078 955 0
-953 12078 956 0
-954 12078 957 0
-1372 12218 1375 0
-1373 12218 1376 0
-1374 12218 1377 0
-1792 12358 1795 0
-1793 12358 1796 0
-1794 12358 1797 0
-2212 12498 2215 0
-2213 12498 2216 0
-2214 12498 2217 0
-2632 12638 2635 0
-2633 12638 2636 0
-2634 12638 2637 0
-532 -11938 536 0
-533 -11938 537 0
-534 -11938 535 0
-952 -12078 956 0
-953 -12078 957 0
-954 -12078 955 0
-1372 -12218 1376 0
-1373 -12218 1377 0
-1374 -12218 1375 0
-1792 -12358 1796 0
-1793 -12358 1797 0
-1794 -12358 1795 0
-2212 -12498 2216 0
-2213 -12498 2217 0
-2214 -12498 2215 0
-12638 -2212 2636 0
-12638 -2213 2637 0
-12638 -2214 2635 0
-11798 -112 117 0
-11798 -113 115 0
-11798 -114 116 0
-115 11799 118 0
-116 11799 119 0
-117 11799 120 0
-535 11939 538 0
-536 11939 539 0
-537 11939 540 0
-955 12079 958 0
-956 12079 959 0
-957 12079 960 0
-1375 12219 1378 0
-1376 12219 1379 0
-1377 12219 1380 0
-1795 12359 1798 0
-1796 12359 1799 0
-1797 12359 1800 0
-2215 12499 2218 0
-2216 12499 2219 0
-2217 12499 2220 0
-2635 12639 2638 0
-2636 12639 2639 0
-2637 12639 2640 0
-535 -11939 539 0
-536 -11939 540 0
-537 -11939 538 0
-955 -12079 959 0
-956 -12079 960 0
-957 -12079 958 0
-1375 -12219 1379 0
-1376 -12219 1380 0
-1377 -12219 1378 0
-1795 -12359 1799 0
-1796 -12359 1800 0
-1797 -12359 1798 0
-2215 -12499 2219 0
-2216 -12499 2220 0
-2217 -12499 2218 0
-12639 -2215 2639 0
-12639 -2216 2640 0
-12639 -2217 2638 0
-11799 -115 120 0
-11799 -116 118 0
-11799 -117 119 0
-118 11800 121 0
-119 11800 122 0
-120 11800 123 0
-538 11940 541 0
-539 11940 542 0
-540 11940 543 0
-958 12080 961 0
-959 12080 962 0
-960 12080 963 0
-1378 12220 1381 0
-1379 12220 1382 0
-1380 12220 1383 0
-1798 12360 1801 0
-1799 12360 1802 0
-1800 12360 1803 0
-2218 12500 2221 0
-2219 12500 2222 0
-2220 12500 2223 0
-2638 12640 2641 0
-2639 12640 2642 0
-2640 12640 2643 0
-538 -11940 542 0
-539 -11940 543 0
-540 -11940 541 0
-958 -12080 962 0
-959 -12080 963 0
-960 -12080 961 0
-1378 -12220 1382 0
-1379 -12220 1383 0
-1380 -12220 1381 0
-1798 -12360 1802 0
-1799 -12360 1803 0
-1800 -12360 1801 0
-2218 -12500 2222 0
-2219 -12500 2223 0
-2220 -12500 2221 0
-12640 -2218 2642 0
-12640 -2219 2643 0
-12640 -2220 2641 0
-11800 -118 123 0
-11800 -119 121 0
-11800 -120 122 0
-121 11801 124 0
-122 11801 125 0
-123 11801 126 0
-541 11941 544 0
-542 11941 545 0
-543 11941 546 0
-961 12081 964 0
-962 12081 965 0
-963 12081 966 0
-1381 12221 1384 0
-1382 12221 1385 0
-1383 12221 1386 0
-1801 12361 1804 0
-1802 12361 1805 0
-1803 12361 1806 0
-2221 12501 2224 0
-2222 12501 2225 0
-2223 12501 2226 0
-2641 12641 2644 0
-2642 12641 2645 0
-2643 12641 2646 0
-541 -11941 545 0
-542 -11941 546 0
-543 -11941 544 0
-961 -12081 965 0
-962 -12081 966 0
-963 -12081 964 0
-1381 -12221 1385 0
-1382 -12221 1386 0
-1383 -12221 1384 0
-1801 -12361 1805 0
-1802 -12361 1806 0
-1803 -12361 1804 0
-2221 -12501 2225 0
-2222 -12501 2226 0
-2223 -12501 2224 0
-12641 -2221 2645 0
-12641 -2222 2646 0
-12641 -2223 2644 0
-11801 -121 126 0
-11801 -122 124 0
-11801 -123 125 0
-124 11802 127 0
-125 11802 128 0
-126 11802 129 0
-544 11942 547 0
-545 11942 548 0
-546 11942 549 0
-964 12082 967 0
-965 12082 968 0
-966 12082 969 0
-1384 12222 1387 0
-1385 12222 1388 0
-1386 12222 1389 0
-1804 12362 1807 0
-1805 12362 1808 0
-1806 12362 1809 0
-2224 12502 2227 0
-2225 12502 2228 0
-2226 12502 2229 0
-2644 12642 2647 0
-2645 12642 2648 0
-2646 12642 2649 0
-544 -11942 548 0
-545 -11942 549 0
-546 -11942 547 0
-964 -12082 968 0
-965 -12082 969 0
-966 -12082 967 0
-1384 -12222 1388 0
-1385 -12222 1389 0
-1386 -12222 1387 0
-1804 -12362 1808 0
-1805 -12362 1809 0
-1806 -12362 1807 0
-2224 -12502 2228 0
-2225 -12502 2229 0
-2226 -12502 2227 0
-12642 -2224 2648 0
-12642 -2225 2649 0
-12642 -2226 2647 0
-11802 -124 129 0
-11802 -125 127 0
-11802 -126 128 0
-127 11803 130 0
-128 11803 131 0
-129 11803 132 0
-547 11943 550 0
-548 11943 551 0
-549 11943 552 0
-967 12083 970 0
-968 12083 971 0
-969 12083 972 0
-1387 12223 1390 0
-1388 12223 1391 0
-1389 12223 1392 0
-1807 12363 1810 0
-1808 12363 1811 0
-1809 12363 1812 0
-2227 12503 2230 0
-2228 12503 2231 0
-2229 12503 2232 0
-2647 12643 2650 0
-2648 12643 2651 0
-2649 12643 2652 0
-547 -11943 551 0
-548 -11943 552 0
-549 -11943 550 0
-967 -12083 971 0
-968 -12083 972 0
-969 -12083 970 0
-1387 -12223 1391 0
-1388 -12223 1392 0
-1389 -12223 1390 0
-1807 -12363 1811 0
-1808 -12363 1812 0
-1809 -12363 1810 0
-2227 -12503 2231 0
-2228 -12503 2232 0
-2229 -12503 2230 0
-12643 -2227 2651 0
-12643 -2228 2652 0
-12643 -2229 2650 0
-11803 -127 132 0
-11803 -128 130 0
-11803 -129 131 0
-130 11804 133 0
-131 11804 134 0
-132 11804 135 0
-550 11944 553 0
-551 11944 554 0
-552 11944 555 0
-970 12084 973 0
-971 12084 974 0
-972 12084 975 0
-1390 12224 1393 0
-1391 12224 1394 0
-1392 12224 1395 0
-1810 12364 1813 0
-1811 12364 1814 0
-1812 12364 1815 0
-2230 12504 2233 0
-2231 12504 2234 0
-2232 12504 2235 0
-2650 12644 2653 0
-2651 12644 2654 0
-2652 12644 2655 0
-550 -11944 554 0
-551 -11944 555 0
-552 -11944 553 0
-970 -12084 974 0
-971 -12084 975 0
-972 -12084 973 0
-1390 -12224 1394 0
-1391 -12224 1395 0
-1392 -12224 1393 0
-1810 -12364 1814 0
-1811 -12364 1815 0
-1812 -12364 1813 0
-2230 -12504 2234 0
-2231 -12504 2235 0
-2232 -12504 2233 0
-12644 -2230 2654 0
-12644 -2231 2655 0
-12644 -2232 2653 0
-11804 -130 135 0
-11804 -131 133 0
-11804 -132 134 0
-133 11805 136 0
-134 11805 137 0
-135 11805 138 0
-553 11945 556 0
-554 11945 557 0
-555 11945 558 0
-973 12085 976 0
-974 12085 977 0
-975 12085 978 0
-1393 12225 1396 0
-1394 12225 1397 0
-1395 12225 1398 0
-1813 12365 1816 0
-1814 12365 1817 0
-1815 12365 1818 0
-2233 12505 2236 0
-2234 12505 2237 0
-2235 12505 2238 0
-2653 12645 2656 0
-2654 12645 2657 0
-2655 12645 2658 0
-553 -11945 557 0
-554 -11945 558 0
-555 -11945 556 0
-973 -12085 977 0
-974 -12085 978 0
-975 -12085 976 0
-1393 -12225 1397 0
-1394 -12225 1398 0
-1395 -12225 1396 0
-1813 -12365 1817 0
-1814 -12365 1818 0
-1815 -12365 1816 0
-2233 -12505 2237 0
-2234 -12505 2238 0
-2235 -12505 2236 0
-12645 -2233 2657 0
-12645 -2234 2658 0
-12645 -2235 2656 0
-11805 -133 138 0
-11805 -134 136 0
-11805 -135 137 0
-136 11806 139 0
-137 11806 140 0
-138 11806 141 0
-556 11946 559 0
-557 11946 560 0
-558 11946 561 0
-976 12086 979 0
-977 12086 980 0
-978 12086 981 0
-1396 12226 1399 0
-1397 12226 1400 0
-1398 12226 1401 0
-1816 12366 1819 0
-1817 12366 1820 0
-1818 12366 1821 0
-2236 12506 2239 0
-2237 12506 2240 0
-2238 12506 2241 0
-2656 12646 2659 0
-2657 12646 2660 0
-2658 12646 2661 0
-556 -11946 560 0
-557 -11946 561 0
-558 -11946 559 0
-976 -12086 980 0
-977 -12086 981 0
-978 -12086 979 0
-1396 -12226 1400 0
-1397 -12226 1401 0
-1398 -12226 1399 0
-1816 -12366 1820 0
-1817 -12366 1821 0
-1818 -12366 1819 0
-2236 -12506 2240 0
-2237 -12506 2241 0
-2238 -12506 2239 0
-12646 -2236 2660 0
-12646 -2237 2661 0
-12646 -2238 2659 0
-11806 -136 141 0
-11806 -137 139 0
-11806 -138 140 0
-139 11807 142 0
-140 11807 143 0
-141 11807 144 0
-559 11947 562 0
-560 11947 563 0
-561 11947 564 0
-979 12087 982 0
-980 12087 983 0
-981 12087 984 0
-1399 12227 1402 0
-1400 12227 1403 0
-1401 12227 1404 0
-1819 12367 1822 0
-1820 12367 1823 0
-1821 12367 1824 0
-2239 12507 2242 0
-2240 12507 2243 0
-2241 12507 2244 0
-2659 12647 2662 0
-2660 12647 2663 0
-2661 12647 2664 0
-559 -11947 563 0
-560 -11947 564 0
-561 -11947 562 0
-979 -12087 983 0
-980 -12087 984 0
-981 -12087 982 0
-1399 -12227 1403 0
-1400 -12227 1404 0
-1401 -12227 1402 0
-1819 -12367 1823 0
-1820 -12367 1824 0
-1821 -12367 1822 0
-2239 -12507 2243 0
-2240 -12507 2244 0
-2241 -12507 2242 0
-12647 -2239 2663 0
-12647 -2240 2664 0
-12647 -2241 2662 0
-11807 -139 144 0
-11807 -140 142 0
-11807 -141 143 0
-142 11808 145 0
-143 11808 146 0
-144 11808 147 0
-562 11948 565 0
-563 11948 566 0
-564 11948 567 0
-982 12088 985 0
-983 12088 986 0
-984 12088 987 0
-1402 12228 1405 0
-1403 12228 1406 0
-1404 12228 1407 0
-1822 12368 1825 0
-1823 12368 1826 0
-1824 12368 1827 0
-2242 12508 2245 0
-2243 12508 2246 0
-2244 12508 2247 0
-2662 12648 2665 0
-2663 12648 2666 0
-2664 12648 2667 0
-562 -11948 566 0
-563 -11948 567 0
-564 -11948 565 0
-982 -12088 986 0
-983 -12088 987 0
-984 -12088 985 0
-1402 -12228 1406 0
-1403 -12228 1407 0
-1404 -12228 1405 0
-1822 -12368 1826 0
-1823 -12368 1827 0
-1824 -12368 1825 0
-2242 -12508 2246 0
-2243 -12508 2247 0
-2244 -12508 2245 0
-12648 -2242 2666 0
-12648 -2243 2667 0
-12648 -2244 2665 0
-11808 -142 147 0
-11808 -143 145 0
-11808 -144 146 0
-145 11809 148 0
-146 11809 149 0
-147 11809 150 0
-565 11949 568 0
-566 11949 569 0
-567 11949 570 0
-985 12089 988 0
-986 12089 989 0
-987 12089 990 0
-1405 12229 1408 0
-1406 12229 1409 0
-1407 12229 1410 0
-1825 12369 1828 0
-1826 12369 1829 0
-1827 12369 1830 0
-2245 12509 2248 0
-2246 12509 2249 0
-2247 12509 2250 0
-2665 12649 2668 0
-2666 12649 2669 0
-2667 12649 2670 0
-565 -11949 569 0
-566 -11949 570 0
-567 -11949 568 0
-985 -12089 989 0
-986 -12089 990 0
-987 -12089 988 0
-1405 -12229 1409 0
-1406 -12229 1410 0
-1407 -12229 1408 0
-1825 -12369 1829 0
-1826 -12369 1830 0
-1827 -12369 1828 0
-2245 -12509 2249 0
-2246 -12509 2250 0
-2247 -12509 2248 0
-12649 -2245 2669 0
-12649 -2246 2670 0
-12649 -2247 2668 0
-11809 -145 150 0
-11809 -146 148 0
-11809 -147 149 0
-148 11810 151 0
-149 11810 152 0
-150 11810 153 0
-568 11950 571 0
-569 11950 572 0
-570 11950 573 0
-988 12090 991 0
-989 12090 992 0
-990 12090 993 0
-1408 12230 1411 0
-1409 12230 1412 0
-1410 12230 1413 0
-1828 12370 1831 0
-1829 12370 1832 0
-1830 12370 1833 0
-2248 12510 2251 0
-2249 12510 2252 0
-2250 12510 2253 0
-2668 12650 2671 0
-2669 12650 2672 0
-2670 12650 2673 0
-568 -11950 572 0
-569 -11950 573 0
-570 -11950 571 0
-988 -12090 992 0
-989 -12090 993 0
-990 -12090 991 0
-1408 -12230 1412 0
-1409 -12230 1413 0
-1410 -12230 1411 0
-1828 -12370 1832 0
-1829 -12370 1833 0
-1830 -12370 1831 0
-2248 -12510 2252 0
-2249 -12510 2253 0
-2250 -12510 2251 0
-12650 -2248 2672 0
-12650 -2249 2673 0
-12650 -2250 2671 0
-11810 -148 153 0
-11810 -149 151 0
-11810 -150 152 0
-151 11811 154 0
-152 11811 155 0
-153 11811 156 0
-571 11951 574 0
-572 11951 575 0
-573 11951 576 0
-991 12091 994 0
-992 12091 995 0
-993 12091 996 0
-1411 12231 1414 0
-1412 12231 1415 0
-1413 12231 1416 0
-1831 12371 1834 0
-1832 12371 1835 0
-1833 12371 1836 0
-2251 12511 2254 0
-2252 12511 2255 0
-2253 12511 2256 0
-2671 12651 2674 0
-2672 12651 2675 0
-2673 12651 2676 0
-571 -11951 575 0
-572 -11951 576 0
-573 -11951 574 0
-991 -12091 995 0
-992 -12091 996 0
-993 -12091 994 0
-1411 -12231 1415 0
-1412 -12231 1416 0
-1413 -12231 1414 0
-1831 -12371 1835 0
-1832 -12371 1836 0
-1833 -12371 1834 0
-2251 -12511 2255 0
-2252 -12511 2256 0
-2253 -12511 2254 0
-12651 -2251 2675 0
-12651 -2252 2676 0
-12651 -2253 2674 0
-11811 -151 156 0
-11811 -152 154 0
-11811 -153 155 0
-154 11812 157 0
-155 11812 158 0
-156 11812 159 0
-574 11952 577 0
-575 11952 578 0
-576 11952 579 0
-994 12092 997 0
-995 12092 998 0
-996 12092 999 0
-1414 12232 1417 0
-1415 12232 1418 0
-1416 12232 1419 0
-1834 12372 1837 0
-1835 12372 1838 0
-1836 12372 1839 0
-2254 12512 2257 0
-2255 12512 2258 0
-2256 12512 2259 0
-2674 12652 2677 0
-2675 12652 2678 0
-2676 12652 2679 0
-574 -11952 578 0
-575 -11952 579 0
-576 -11952 577 0
-994 -12092 998 0
-995 -12092 999 0
-996 -12092 997 0
-1414 -12232 1418 0
-1415 -12232 1419 0
-1416 -12232 1417 0
-1834 -12372 1838 0
-1835 -12372 1839 0
-1836 -12372 1837 0
-2254 -12512 2258 0
-2255 -12512 2259 0
-2256 -12512 2257 0
-12652 -2254 2678 0
-12652 -2255 2679 0
-12652 -2256 2677 0
-11812 -154 159 0
-11812 -155 157 0
-11812 -156 158 0
-157 11813 160 0
-158 11813 161 0
-159 11813 162 0
-577 11953 580 0
-578 11953 581 0
-579 11953 582 0
-997 12093 1000 0
-998 12093 1001 0
-999 12093 1002 0
-1417 12233 1420 0
-1418 12233 1421 0
-1419 12233 1422 0
-1837 12373 1840 0
-1838 12373 1841 0
-1839 12373 1842 0
-2257 12513 2260 0
-2258 12513 2261 0
-2259 12513 2262 0
-2677 12653 2680 0
-2678 12653 2681 0
-2679 12653 2682 0
-577 -11953 581 0
-578 -11953 582 0
-579 -11953 580 0
-997 -12093 1001 0
-998 -12093 1002 0
-999 -12093 1000 0
-1417 -12233 1421 0
-1418 -12233 1422 0
-1419 -12233 1420 0
-1837 -12373 1841 0
-1838 -12373 1842 0
-1839 -12373 1840 0
-2257 -12513 2261 0
-2258 -12513 2262 0
-2259 -12513 2260 0
-12653 -2257 2681 0
-12653 -2258 2682 0
-12653 -2259 2680 0
-11813 -157 162 0
-11813 -158 160 0
-11813 -159 161 0
-160 11814 163 0
-161 11814 164 0
-162 11814 165 0
-580 11954 583 0
-581 11954 584 0
-582 11954 585 0
-1000 12094 1003 0
-1001 12094 1004 0
-1002 12094 1005 0
-1420 12234 1423 0
-1421 12234 1424 0
-1422 12234 1425 0
-1840 12374 1843 0
-1841 12374 1844 0
-1842 12374 1845 0
-2260 12514 2263 0
-2261 12514 2264 0
-2262 12514 2265 0
-2680 12654 2683 0
-2681 12654 2684 0
-2682 12654 2685 0
-580 -11954 584 0
-581 -11954 585 0
-582 -11954 583 0
-1000 -12094 1004 0
-1001 -12094 1005 0
-1002 -12094 1003 0
-1420 -12234 1424 0
-1421 -12234 1425 0
-1422 -12234 1423 0
-1840 -12374 1844 0
-1841 -12374 1845 0
-1842 -12374 1843 0
-2260 -12514 2264 0
-2261 -12514 2265 0
-2262 -12514 2263 0
-12654 -2260 2684 0
-12654 -2261 2685 0
-12654 -2262 2683 0
-11814 -160 165 0
-11814 -161 163 0
-11814 -162 164 0
-163 11815 166 0
-164 11815 167 0
-165 11815 168 0
-583 11955 586 0
-584 11955 587 0
-585 11955 588 0
-1003 12095 1006 0
-1004 12095 1007 0
-1005 12095 1008 0
-1423 12235 1426 0
-1424 12235 1427 0
-1425 12235 1428 0
-1843 12375 1846 0
-1844 12375 1847 0
-1845 12375 1848 0
-2263 12515 2266 0
-2264 12515 2267 0
-2265 12515 2268 0
-2683 12655 2686 0
-2684 12655 2687 0
-2685 12655 2688 0
-583 -11955 587 0
-584 -11955 588 0
-585 -11955 586 0
-1003 -12095 1007 0
-1004 -12095 1008 0
-1005 -12095 1006 0
-1423 -12235 1427 0
-1424 -12235 1428 0
-1425 -12235 1426 0
-1843 -12375 1847 0
-1844 -12375 1848 0
-1845 -12375 1846 0
-2263 -12515 2267 0
-2264 -12515 2268 0
-2265 -12515 2266 0
-12655 -2263 2687 0
-12655 -2264 2688 0
-12655 -2265 2686 0
-11815 -163 168 0
-11815 -164 166 0
-11815 -165 167 0
-166 11816 169 0
-167 11816 170 0
-168 11816 171 0
-586 11956 589 0
-587 11956 590 0
-588 11956 591 0
-1006 12096 1009 0
-1007 12096 1010 0
-1008 12096 1011 0
-1426 12236 1429 0
-1427 12236 1430 0
-1428 12236 1431 0
-1846 12376 1849 0
-1847 12376 1850 0
-1848 12376 1851 0
-2266 12516 2269 0
-2267 12516 2270 0
-2268 12516 2271 0
-2686 12656 2689 0
-2687 12656 2690 0
-2688 12656 2691 0
-586 -11956 590 0
-587 -11956 591 0
-588 -11956 589 0
-1006 -12096 1010 0
-1007 -12096 1011 0
-1008 -12096 1009 0
-1426 -12236 1430 0
-1427 -12236 1431 0
-1428 -12236 1429 0
-1846 -12376 1850 0
-1847 -12376 1851 0
-1848 -12376 1849 0
-2266 -12516 2270 0
-2267 -12516 2271 0
-2268 -12516 2269 0
-12656 -2266 2690 0
-12656 -2267 2691 0
-12656 -2268 2689 0
-11816 -166 171 0
-11816 -167 169 0
-11816 -168 170 0
-169 11817 172 0
-170 11817 173 0
-171 11817 174 0
-589 11957 592 0
-590 11957 593 0
-591 11957 594 0
-1009 12097 1012 0
-1010 12097 1013 0
-1011 12097 1014 0
-1429 12237 1432 0
-1430 12237 1433 0
-1431 12237 1434 0
-1849 12377 1852 0
-1850 12377 1853 0
-1851 12377 1854 0
-2269 12517 2272 0
-2270 12517 2273 0
-2271 12517 2274 0
-2689 12657 2692 0
-2690 12657 2693 0
-2691 12657 2694 0
-589 -11957 593 0
-590 -11957 594 0
-591 -11957 592 0
-1009 -12097 1013 0
-1010 -12097 1014 0
-1011 -12097 1012 0
-1429 -12237 1433 0
-1430 -12237 1434 0
-1431 -12237 1432 0
-1849 -12377 1853 0
-1850 -12377 1854 0
-1851 -12377 1852 0
-2269 -12517 2273 0
-2270 -12517 2274 0
-2271 -12517 2272 0
-12657 -2269 2693 0
-12657 -2270 2694 0
-12657 -2271 2692 0
-11817 -169 174 0
-11817 -170 172 0
-11817 -171 173 0
-172 11818 175 0
-173 11818 176 0
-174 11818 177 0
-592 11958 595 0
-593 11958 596 0
-594 11958 597 0
-1012 12098 1015 0
-1013 12098 1016 0
-1014 12098 1017 0
-1432 12238 1435 0
-1433 12238 1436 0
-1434 12238 1437 0
-1852 12378 1855 0
-1853 12378 1856 0
-1854 12378 1857 0
-2272 12518 2275 0
-2273 12518 2276 0
-2274 12518 2277 0
-2692 12658 2695 0
-2693 12658 2696 0
-2694 12658 2697 0
-592 -11958 596 0
-593 -11958 597 0
-594 -11958 595 0
-1012 -12098 1016 0
-1013 -12098 1017 0
-1014 -12098 1015 0
-1432 -12238 1436 0
-1433 -12238 1437 0
-1434 -12238 1435 0
-1852 -12378 1856 0
-1853 -12378 1857 0
-1854 -12378 1855 0
-2272 -12518 2276 0
-2273 -12518 2277 0
-2274 -12518 2275 0
-12658 -2272 2696 0
-12658 -2273 2697 0
-12658 -2274 2695 0
-11818 -172 177 0
-11818 -173 175 0
-11818 -174 176 0
-175 11819 178 0
-176 11819 179 0
-177 11819 180 0
-595 11959 598 0
-596 11959 599 0
-597 11959 600 0
-1015 12099 1018 0
-1016 12099 1019 0
-1017 12099 1020 0
-1435 12239 1438 0
-1436 12239 1439 0
-1437 12239 1440 0
-1855 12379 1858 0
-1856 12379 1859 0
-1857 12379 1860 0
-2275 12519 2278 0
-2276 12519 2279 0
-2277 12519 2280 0
-2695 12659 2698 0
-2696 12659 2699 0
-2697 12659 2700 0
-595 -11959 599 0
-596 -11959 600 0
-597 -11959 598 0
-1015 -12099 1019 0
-1016 -12099 1020 0
-1017 -12099 1018 0
-1435 -12239 1439 0
-1436 -12239 1440 0
-1437 -12239 1438 0
-1855 -12379 1859 0
-1856 -12379 1860 0
-1857 -12379 1858 0
-2275 -12519 2279 0
-2276 -12519 2280 0
-2277 -12519 2278 0
-12659 -2275 2699 0
-12659 -2276 2700 0
-12659 -2277 2698 0
-11819 -175 180 0
-11819 -176 178 0
-11819 -177 179 0
-178 11820 181 0
-179 11820 182 0
-180 11820 183 0
-598 11960 601 0
-599 11960 602 0
-600 11960 603 0
-1018 12100 1021 0
-1019 12100 1022 0
-1020 12100 1023 0
-1438 12240 1441 0
-1439 12240 1442 0
-1440 12240 1443 0
-1858 12380 1861 0
-1859 12380 1862 0
-1860 12380 1863 0
-2278 12520 2281 0
-2279 12520 2282 0
-2280 12520 2283 0
-2698 12660 2701 0
-2699 12660 2702 0
-2700 12660 2703 0
-598 -11960 602 0
-599 -11960 603 0
-600 -11960 601 0
-1018 -12100 1022 0
-1019 -12100 1023 0
-1020 -12100 1021 0
-1438 -12240 1442 0
-1439 -12240 1443 0
-1440 -12240 1441 0
-1858 -12380 1862 0
-1859 -12380 1863 0
-1860 -12380 1861 0
-2278 -12520 2282 0
-2279 -12520 2283 0
-2280 -12520 2281 0
-12660 -2278 2702 0
-12660 -2279 2703 0
-12660 -2280 2701 0
-11820 -178 183 0
-11820 -179 181 0
-11820 -180 182 0
-181 11821 184 0
-182 11821 185 0
-183 11821 186 0
-601 11961 604 0
-602 11961 605 0
-603 11961 606 0
-1021 12101 1024 0
-1022 12101 1025 0
-1023 12101 1026 0
-1441 12241 1444 0
-1442 12241 1445 0
-1443 12241 1446 0
-1861 12381 1864 0
-1862 12381 1865 0
-1863 12381 1866 0
-2281 12521 2284 0
-2282 12521 2285 0
-2283 12521 2286 0
-2701 12661 2704 0
-2702 12661 2705 0
-2703 12661 2706 0
-601 -11961 605 0
-602 -11961 606 0
-603 -11961 604 0
-1021 -12101 1025 0
-1022 -12101 1026 0
-1023 -12101 1024 0
-1441 -12241 1445 0
-1442 -12241 1446 0
-1443 -12241 1444 0
-1861 -12381 1865 0
-1862 -12381 1866 0
-1863 -12381 1864 0
-2281 -12521 2285 0
-2282 -12521 2286 0
-2283 -12521 2284 0
-12661 -2281 2705 0
-12661 -2282 2706 0
-12661 -2283 2704 0
-11821 -181 186 0
-11821 -182 184 0
-11821 -183 185 0
-184 11822 187 0
-185 11822 188 0
-186 11822 189 0
-604 11962 607 0
-605 11962 608 0
-606 11962 609 0
-1024 12102 1027 0
-1025 12102 1028 0
-1026 12102 1029 0
-1444 12242 1447 0
-1445 12242 1448 0
-1446 12242 1449 0
-1864 12382 1867 0
-1865 12382 1868 0
-1866 12382 1869 0
-2284 12522 2287 0
-2285 12522 2288 0
-2286 12522 2289 0
-2704 12662 2707 0
-2705 12662 2708 0
-2706 12662 2709 0
-604 -11962 608 0
-605 -11962 609 0
-606 -11962 607 0
-1024 -12102 1028 0
-1025 -12102 1029 0
-1026 -12102 1027 0
-1444 -12242 1448 0
-1445 -12242 1449 0
-1446 -12242 1447 0
-1864 -12382 1868 0
-1865 -12382 1869 0
-1866 -12382 1867 0
-2284 -12522 2288 0
-2285 -12522 2289 0
-2286 -12522 2287 0
-12662 -2284 2708 0
-12662 -2285 2709 0
-12662 -2286 2707 0
-11822 -184 189 0
-11822 -185 187 0
-11822 -186 188 0
-187 11823 190 0
-188 11823 191 0
-189 11823 192 0
-607 11963 610 0
-608 11963 611 0
-609 11963 612 0
-1027 12103 1030 0
-1028 12103 1031 0
-1029 12103 1032 0
-1447 12243 1450 0
-1448 12243 1451 0
-1449 12243 1452 0
-1867 12383 1870 0
-1868 12383 1871 0
-1869 12383 1872 0
-2287 12523 2290 0
-2288 12523 2291 0
-2289 12523 2292 0
-2707 12663 2710 0
-2708 12663 2711 0
-2709 12663 2712 0
-607 -11963 611 0
-608 -11963 612 0
-609 -11963 610 0
-1027 -12103 1031 0
-1028 -12103 1032 0
-1029 -12103 1030 0
-1447 -12243 1451 0
-1448 -12243 1452 0
-1449 -12243 1450 0
-1867 -12383 1871 0
-1868 -12383 1872 0
-1869 -12383 1870 0
-2287 -12523 2291 0
-2288 -12523 2292 0
-2289 -12523 2290 0
-12663 -2287 2711 0
-12663 -2288 2712 0
-12663 -2289 2710 0
-11823 -187 192 0
-11823 -188 190 0
-11823 -189 191 0
-190 11824 193 0
-191 11824 194 0
-192 11824 195 0
-610 11964 613 0
-611 11964 614 0
-612 11964 615 0
-1030 12104 1033 0
-1031 12104 1034 0
-1032 12104 1035 0
-1450 12244 1453 0
-1451 12244 1454 0
-1452 12244 1455 0
-1870 12384 1873 0
-1871 12384 1874 0
-1872 12384 1875 0
-2290 12524 2293 0
-2291 12524 2294 0
-2292 12524 2295 0
-2710 12664 2713 0
-2711 12664 2714 0
-2712 12664 2715 0
-610 -11964 614 0
-611 -11964 615 0
-612 -11964 613 0
-1030 -12104 1034 0
-1031 -12104 1035 0
-1032 -12104 1033 0
-1450 -12244 1454 0
-1451 -12244 1455 0
-1452 -12244 1453 0
-1870 -12384 1874 0
-1871 -12384 1875 0
-1872 -12384 1873 0
-2290 -12524 2294 0
-2291 -12524 2295 0
-2292 -12524 2293 0
-12664 -2290 2714 0
-12664 -2291 2715 0
-12664 -2292 2713 0
-11824 -190 195 0
-11824 -191 193 0
-11824 -192 194 0
-193 11825 196 0
-194 11825 197 0
-195 11825 198 0
-613 11965 616 0
-614 11965 617 0
-615 11965 618 0
-1033 12105 1036 0
-1034 12105 1037 0
-1035 12105 1038 0
-1453 12245 1456 0
-1454 12245 1457 0
-1455 12245 1458 0
-1873 12385 1876 0
-1874 12385 1877 0
-1875 12385 1878 0
-2293 12525 2296 0
-2294 12525 2297 0
-2295 12525 2298 0
-2713 12665 2716 0
-2714 12665 2717 0
-2715 12665 2718 0
-613 -11965 617 0
-614 -11965 618 0
-615 -11965 616 0
-1033 -12105 1037 0
-1034 -12105 1038 0
-1035 -12105 1036 0
-1453 -12245 1457 0
-1454 -12245 1458 0
-1455 -12245 1456 0
-1873 -12385 1877 0
-1874 -12385 1878 0
-1875 -12385 1876 0
-2293 -12525 2297 0
-2294 -12525 2298 0
-2295 -12525 2296 0
-12665 -2293 2717 0
-12665 -2294 2718 0
-12665 -2295 2716 0
-11825 -193 198 0
-11825 -194 196 0
-11825 -195 197 0
-196 11826 199 0
-197 11826 200 0
-198 11826 201 0
-616 11966 619 0
-617 11966 620 0
-618 11966 621 0
-1036 12106 1039 0
-1037 12106 1040 0
-1038 12106 1041 0
-1456 12246 1459 0
-1457 12246 1460 0
-1458 12246 1461 0
-1876 12386 1879 0
-1877 12386 1880 0
-1878 12386 1881 0
-2296 12526 2299 0
-2297 12526 2300 0
-2298 12526 2301 0
-2716 12666 2719 0
-2717 12666 2720 0
-2718 12666 2721 0
-616 -11966 620 0
-617 -11966 621 0
-618 -11966 619 0
-1036 -12106 1040 0
-1037 -12106 1041 0
-1038 -12106 1039 0
-1456 -12246 1460 0
-1457 -12246 1461 0
-1458 -12246 1459 0
-1876 -12386 1880 0
-1877 -12386 1881 0
-1878 -12386 1879 0
-2296 -12526 2300 0
-2297 -12526 2301 0
-2298 -12526 2299 0
-12666 -2296 2720 0
-12666 -2297 2721 0
-12666 -2298 2719 0
-11826 -196 201 0
-11826 -197 199 0
-11826 -198 200 0
-199 11827 202 0
-200 11827 203 0
-201 11827 204 0
-619 11967 622 0
-620 11967 623 0
-621 11967 624 0
-1039 12107 1042 0
-1040 12107 1043 0
-1041 12107 1044 0
-1459 12247 1462 0
-1460 12247 1463 0
-1461 12247 1464 0
-1879 12387 1882 0
-1880 12387 1883 0
-1881 12387 1884 0
-2299 12527 2302 0
-2300 12527 2303 0
-2301 12527 2304 0
-2719 12667 2722 0
-2720 12667 2723 0
-2721 12667 2724 0
-619 -11967 623 0
-620 -11967 624 0
-621 -11967 622 0
-1039 -12107 1043 0
-1040 -12107 1044 0
-1041 -12107 1042 0
-1459 -12247 1463 0
-1460 -12247 1464 0
-1461 -12247 1462 0
-1879 -12387 1883 0
-1880 -12387 1884 0
-1881 -12387 1882 0
-2299 -12527 2303 0
-2300 -12527 2304 0
-2301 -12527 2302 0
-12667 -2299 2723 0
-12667 -2300 2724 0
-12667 -2301 2722 0
-11827 -199 204 0
-11827 -200 202 0
-11827 -201 203 0
-202 11828 205 0
-203 11828 206 0
-204 11828 207 0
-622 11968 625 0
-623 11968 626 0
-624 11968 627 0
-1042 12108 1045 0
-1043 12108 1046 0
-1044 12108 1047 0
-1462 12248 1465 0
-1463 12248 1466 0
-1464 12248 1467 0
-1882 12388 1885 0
-1883 12388 1886 0
-1884 12388 1887 0
-2302 12528 2305 0
-2303 12528 2306 0
-2304 12528 2307 0
-2722 12668 2725 0
-2723 12668 2726 0
-2724 12668 2727 0
-622 -11968 626 0
-623 -11968 627 0
-624 -11968 625 0
-1042 -12108 1046 0
-1043 -12108 1047 0
-1044 -12108 1045 0
-1462 -12248 1466 0
-1463 -12248 1467 0
-1464 -12248 1465 0
-1882 -12388 1886 0
-1883 -12388 1887 0
-1884 -12388 1885 0
-2302 -12528 2306 0
-2303 -12528 2307 0
-2304 -12528 2305 0
-12668 -2302 2726 0
-12668 -2303 2727 0
-12668 -2304 2725 0
-11828 -202 207 0
-11828 -203 205 0
-11828 -204 206 0
-205 11829 208 0
-206 11829 209 0
-207 11829 210 0
-625 11969 628 0
-626 11969 629 0
-627 11969 630 0
-1045 12109 1048 0
-1046 12109 1049 0
-1047 12109 1050 0
-1465 12249 1468 0
-1466 12249 1469 0
-1467 12249 1470 0
-1885 12389 1888 0
-1886 12389 1889 0
-1887 12389 1890 0
-2305 12529 2308 0
-2306 12529 2309 0
-2307 12529 2310 0
-2725 12669 2728 0
-2726 12669 2729 0
-2727 12669 2730 0
-625 -11969 629 0
-626 -11969 630 0
-627 -11969 628 0
-1045 -12109 1049 0
-1046 -12109 1050 0
-1047 -12109 1048 0
-1465 -12249 1469 0
-1466 -12249 1470 0
-1467 -12249 1468 0
-1885 -12389 1889 0
-1886 -12389 1890 0
-1887 -12389 1888 0
-2305 -12529 2309 0
-2306 -12529 2310 0
-2307 -12529 2308 0
-12669 -2305 2729 0
-12669 -2306 2730 0
-12669 -2307 2728 0
-11829 -205 210 0
-11829 -206 208 0
-11829 -207 209 0
-208 11830 211 0
-209 11830 212 0
-210 11830 213 0
-628 11970 631 0
-629 11970 632 0
-630 11970 633 0
-1048 12110 1051 0
-1049 12110 1052 0
-1050 12110 1053 0
-1468 12250 1471 0
-1469 12250 1472 0
-1470 12250 1473 0
-1888 12390 1891 0
-1889 12390 1892 0
-1890 12390 1893 0
-2308 12530 2311 0
-2309 12530 2312 0
-2310 12530 2313 0
-2728 12670 2731 0
-2729 12670 2732 0
-2730 12670 2733 0
-628 -11970 632 0
-629 -11970 633 0
-630 -11970 631 0
-1048 -12110 1052 0
-1049 -12110 1053 0
-1050 -12110 1051 0
-1468 -12250 1472 0
-1469 -12250 1473 0
-1470 -12250 1471 0
-1888 -12390 1892 0
-1889 -12390 1893 0
-1890 -12390 1891 0
-2308 -12530 2312 0
-2309 -12530 2313 0
-2310 -12530 2311 0
-12670 -2308 2732 0
-12670 -2309 2733 0
-12670 -2310 2731 0
-11830 -208 213 0
-11830 -209 211 0
-11830 -210 212 0
-211 11831 214 0
-212 11831 215 0
-213 11831 216 0
-631 11971 634 0
-632 11971 635 0
-633 11971 636 0
-1051 12111 1054 0
-1052 12111 1055 0
-1053 12111 1056 0
-1471 12251 1474 0
-1472 12251 1475 0
-1473 12251 1476 0
-1891 12391 1894 0
-1892 12391 1895 0
-1893 12391 1896 0
-2311 12531 2314 0
-2312 12531 2315 0
-2313 12531 2316 0
-2731 12671 2734 0
-2732 12671 2735 0
-2733 12671 2736 0
-631 -11971 635 0
-632 -11971 636 0
-633 -11971 634 0
-1051 -12111 1055 0
-1052 -12111 1056 0
-1053 -12111 1054 0
-1471 -12251 1475 0
-1472 -12251 1476 0
-1473 -12251 1474 0
-1891 -12391 1895 0
-1892 -12391 1896 0
-1893 -12391 1894 0
-2311 -12531 2315 0
-2312 -12531 2316 0
-2313 -12531 2314 0
-12671 -2311 2735 0
-12671 -2312 2736 0
-12671 -2313 2734 0
-11831 -211 216 0
-11831 -212 214 0
-11831 -213 215 0
-214 11832 217 0
-215 11832 218 0
-216 11832 219 0
-634 11972 637 0
-635 11972 638 0
-636 11972 639 0
-1054 12112 1057 0
-1055 12112 1058 0
-1056 12112 1059 0
-1474 12252 1477 0
-1475 12252 1478 0
-1476 12252 1479 0
-1894 12392 1897 0
-1895 12392 1898 0
-1896 12392 1899 0
-2314 12532 2317 0
-2315 12532 2318 0
-2316 12532 2319 0
-2734 12672 2737 0
-2735 12672 2738 0
-2736 12672 2739 0
-634 -11972 638 0
-635 -11972 639 0
-636 -11972 637 0
-1054 -12112 1058 0
-1055 -12112 1059 0
-1056 -12112 1057 0
-1474 -12252 1478 0
-1475 -12252 1479 0
-1476 -12252 1477 0
-1894 -12392 1898 0
-1895 -12392 1899 0
-1896 -12392 1897 0
-2314 -12532 2318 0
-2315 -12532 2319 0
-2316 -12532 2317 0
-12672 -2314 2738 0
-12672 -2315 2739 0
-12672 -2316 2737 0
-11832 -214 219 0
-11832 -215 217 0
-11832 -216 218 0
-217 11833 220 0
-218 11833 221 0
-219 11833 222 0
-637 11973 640 0
-638 11973 641 0
-639 11973 642 0
-1057 12113 1060 0
-1058 12113 1061 0
-1059 12113 1062 0
-1477 12253 1480 0
-1478 12253 1481 0
-1479 12253 1482 0
-1897 12393 1900 0
-1898 12393 1901 0
-1899 12393 1902 0
-2317 12533 2320 0
-2318 12533 2321 0
-2319 12533 2322 0
-2737 12673 2740 0
-2738 12673 2741 0
-2739 12673 2742 0
-637 -11973 641 0
-638 -11973 642 0
-639 -11973 640 0
-1057 -12113 1061 0
-1058 -12113 1062 0
-1059 -12113 1060 0
-1477 -12253 1481 0
-1478 -12253 1482 0
-1479 -12253 1480 0
-1897 -12393 1901 0
-1898 -12393 1902 0
-1899 -12393 1900 0
-2317 -12533 2321 0
-2318 -12533 2322 0
-2319 -12533 2320 0
-12673 -2317 2741 0
-12673 -2318 2742 0
-12673 -2319 2740 0
-11833 -217 222 0
-11833 -218 220 0
-11833 -219 221 0
-220 11834 223 0
-221 11834 224 0
-222 11834 225 0
-640 11974 643 0
-641 11974 644 0
-642 11974 645 0
-1060 12114 1063 0
-1061 12114 1064 0
-1062 12114 1065 0
-1480 12254 1483 0
-1481 12254 1484 0
-1482 12254 1485 0
-1900 12394 1903 0
-1901 12394 1904 0
-1902 12394 1905 0
-2320 12534 2323 0
-2321 12534 2324 0
-2322 12534 2325 0
-2740 12674 2743 0
-2741 12674 2744 0
-2742 12674 2745 0
-640 -11974 644 0
-641 -11974 645 0
-642 -11974 643 0
-1060 -12114 1064 0
-1061 -12114 1065 0
-1062 -12114 1063 0
-1480 -12254 1484 0
-1481 -12254 1485 0
-1482 -12254 1483 0
-1900 -12394 1904 0
-1901 -12394 1905 0
-1902 -12394 1903 0
-2320 -12534 2324 0
-2321 -12534 2325 0
-2322 -12534 2323 0
-12674 -2320 2744 0
-12674 -2321 2745 0
-12674 -2322 2743 0
-11834 -220 225 0
-11834 -221 223 0
-11834 -222 224 0
-223 11835 226 0
-224 11835 227 0
-225 11835 228 0
-643 11975 646 0
-644 11975 647 0
-645 11975 648 0
-1063 12115 1066 0
-1064 12115 1067 0
-1065 12115 1068 0
-1483 12255 1486 0
-1484 12255 1487 0
-1485 12255 1488 0
-1903 12395 1906 0
-1904 12395 1907 0
-1905 12395 1908 0
-2323 12535 2326 0
-2324 12535 2327 0
-2325 12535 2328 0
-2743 12675 2746 0
-2744 12675 2747 0
-2745 12675 2748 0
-643 -11975 647 0
-644 -11975 648 0
-645 -11975 646 0
-1063 -12115 1067 0
-1064 -12115 1068 0
-1065 -12115 1066 0
-1483 -12255 1487 0
-1484 -12255 1488 0
-1485 -12255 1486 0
-1903 -12395 1907 0
-1904 -12395 1908 0
-1905 -12395 1906 0
-2323 -12535 2327 0
-2324 -12535 2328 0
-2325 -12535 2326 0
-12675 -2323 2747 0
-12675 -2324 2748 0
-12675 -2325 2746 0
-11835 -223 228 0
-11835 -224 226 0
-11835 -225 227 0
-226 11836 229 0
-227 11836 230 0
-228 11836 231 0
-646 11976 649 0
-647 11976 650 0
-648 11976 651 0
-1066 12116 1069 0
-1067 12116 1070 0
-1068 12116 1071 0
-1486 12256 1489 0
-1487 12256 1490 0
-1488 12256 1491 0
-1906 12396 1909 0
-1907 12396 1910 0
-1908 12396 1911 0
-2326 12536 2329 0
-2327 12536 2330 0
-2328 12536 2331 0
-2746 12676 2749 0
-2747 12676 2750 0
-2748 12676 2751 0
-646 -11976 650 0
-647 -11976 651 0
-648 -11976 649 0
-1066 -12116 1070 0
-1067 -12116 1071 0
-1068 -12116 1069 0
-1486 -12256 1490 0
-1487 -12256 1491 0
-1488 -12256 1489 0
-1906 -12396 1910 0
-1907 -12396 1911 0
-1908 -12396 1909 0
-2326 -12536 2330 0
-2327 -12536 2331 0
-2328 -12536 2329 0
-12676 -2326 2750 0
-12676 -2327 2751 0
-12676 -2328 2749 0
-11836 -226 231 0
-11836 -227 229 0
-11836 -228 230 0
-229 11837 232 0
-230 11837 233 0
-231 11837 234 0
-649 11977 652 0
-650 11977 653 0
-651 11977 654 0
-1069 12117 1072 0
-1070 12117 1073 0
-1071 12117 1074 0
-1489 12257 1492 0
-1490 12257 1493 0
-1491 12257 1494 0
-1909 12397 1912 0
-1910 12397 1913 0
-1911 12397 1914 0
-2329 12537 2332 0
-2330 12537 2333 0
-2331 12537 2334 0
-2749 12677 2752 0
-2750 12677 2753 0
-2751 12677 2754 0
-649 -11977 653 0
-650 -11977 654 0
-651 -11977 652 0
-1069 -12117 1073 0
-1070 -12117 1074 0
-1071 -12117 1072 0
-1489 -12257 1493 0
-1490 -12257 1494 0
-1491 -12257 1492 0
-1909 -12397 1913 0
-1910 -12397 1914 0
-1911 -12397 1912 0
-2329 -12537 2333 0
-2330 -12537 2334 0
-2331 -12537 2332 0
-12677 -2329 2753 0
-12677 -2330 2754 0
-12677 -2331 2752 0
-11837 -229 234 0
-11837 -230 232 0
-11837 -231 233 0
-232 11838 235 0
-233 11838 236 0
-234 11838 237 0
-652 11978 655 0
-653 11978 656 0
-654 11978 657 0
-1072 12118 1075 0
-1073 12118 1076 0
-1074 12118 1077 0
-1492 12258 1495 0
-1493 12258 1496 0
-1494 12258 1497 0
-1912 12398 1915 0
-1913 12398 1916 0
-1914 12398 1917 0
-2332 12538 2335 0
-2333 12538 2336 0
-2334 12538 2337 0
-2752 12678 2755 0
-2753 12678 2756 0
-2754 12678 2757 0
-652 -11978 656 0
-653 -11978 657 0
-654 -11978 655 0
-1072 -12118 1076 0
-1073 -12118 1077 0
-1074 -12118 1075 0
-1492 -12258 1496 0
-1493 -12258 1497 0
-1494 -12258 1495 0
-1912 -12398 1916 0
-1913 -12398 1917 0
-1914 -12398 1915 0
-2332 -12538 2336 0
-2333 -12538 2337 0
-2334 -12538 2335 0
-12678 -2332 2756 0
-12678 -2333 2757 0
-12678 -2334 2755 0
-11838 -232 237 0
-11838 -233 235 0
-11838 -234 236 0
-235 11839 238 0
-236 11839 239 0
-237 11839 240 0
-655 11979 658 0
-656 11979 659 0
-657 11979 660 0
-1075 12119 1078 0
-1076 12119 1079 0
-1077 12119 1080 0
-1495 12259 1498 0
-1496 12259 1499 0
-1497 12259 1500 0
-1915 12399 1918 0
-1916 12399 1919 0
-1917 12399 1920 0
-2335 12539 2338 0
-2336 12539 2339 0
-2337 12539 2340 0
-2755 12679 2758 0
-2756 12679 2759 0
-2757 12679 2760 0
-655 -11979 659 0
-656 -11979 660 0
-657 -11979 658 0
-1075 -12119 1079 0
-1076 -12119 1080 0
-1077 -12119 1078 0
-1495 -12259 1499 0
-1496 -12259 1500 0
-1497 -12259 1498 0
-1915 -12399 1919 0
-1916 -12399 1920 0
-1917 -12399 1918 0
-2335 -12539 2339 0
-2336 -12539 2340 0
-2337 -12539 2338 0
-12679 -2335 2759 0
-12679 -2336 2760 0
-12679 -2337 2758 0
-11839 -235 240 0
-11839 -236 238 0
-11839 -237 239 0
-238 11840 241 0
-239 11840 242 0
-240 11840 243 0
-658 11980 661 0
-659 11980 662 0
-660 11980 663 0
-1078 12120 1081 0
-1079 12120 1082 0
-1080 12120 1083 0
-1498 12260 1501 0
-1499 12260 1502 0
-1500 12260 1503 0
-1918 12400 1921 0
-1919 12400 1922 0
-1920 12400 1923 0
-2338 12540 2341 0
-2339 12540 2342 0
-2340 12540 2343 0
-2758 12680 2761 0
-2759 12680 2762 0
-2760 12680 2763 0
-658 -11980 662 0
-659 -11980 663 0
-660 -11980 661 0
-1078 -12120 1082 0
-1079 -12120 1083 0
-1080 -12120 1081 0
-1498 -12260 1502 0
-1499 -12260 1503 0
-1500 -12260 1501 0
-1918 -12400 1922 0
-1919 -12400 1923 0
-1920 -12400 1921 0
-2338 -12540 2342 0
-2339 -12540 2343 0
-2340 -12540 2341 0
-12680 -2338 2762 0
-12680 -2339 2763 0
-12680 -2340 2761 0
-11840 -238 243 0
-11840 -239 241 0
-11840 -240 242 0
-241 11841 244 0
-242 11841 245 0
-243 11841 246 0
-661 11981 664 0
-662 11981 665 0
-663 11981 666 0
-1081 12121 1084 0
-1082 12121 1085 0
-1083 12121 1086 0
-1501 12261 1504 0
-1502 12261 1505 0
-1503 12261 1506 0
-1921 12401 1924 0
-1922 12401 1925 0
-1923 12401 1926 0
-2341 12541 2344 0
-2342 12541 2345 0
-2343 12541 2346 0
-2761 12681 2764 0
-2762 12681 2765 0
-2763 12681 2766 0
-661 -11981 665 0
-662 -11981 666 0
-663 -11981 664 0
-1081 -12121 1085 0
-1082 -12121 1086 0
-1083 -12121 1084 0
-1501 -12261 1505 0
-1502 -12261 1506 0
-1503 -12261 1504 0
-1921 -12401 1925 0
-1922 -12401 1926 0
-1923 -12401 1924 0
-2341 -12541 2345 0
-2342 -12541 2346 0
-2343 -12541 2344 0
-12681 -2341 2765 0
-12681 -2342 2766 0
-12681 -2343 2764 0
-11841 -241 246 0
-11841 -242 244 0
-11841 -243 245 0
-244 11842 247 0
-245 11842 248 0
-246 11842 249 0
-664 11982 667 0
-665 11982 668 0
-666 11982 669 0
-1084 12122 1087 0
-1085 12122 1088 0
-1086 12122 1089 0
-1504 12262 1507 0
-1505 12262 1508 0
-1506 12262 1509 0
-1924 12402 1927 0
-1925 12402 1928 0
-1926 12402 1929 0
-2344 12542 2347 0
-2345 12542 2348 0
-2346 12542 2349 0
-2764 12682 2767 0
-2765 12682 2768 0
-2766 12682 2769 0
-664 -11982 668 0
-665 -11982 669 0
-666 -11982 667 0
-1084 -12122 1088 0
-1085 -12122 1089 0
-1086 -12122 1087 0
-1504 -12262 1508 0
-1505 -12262 1509 0
-1506 -12262 1507 0
-1924 -12402 1928 0
-1925 -12402 1929 0
-1926 -12402 1927 0
-2344 -12542 2348 0
-2345 -12542 2349 0
-2346 -12542 2347 0
-12682 -2344 2768 0
-12682 -2345 2769 0
-12682 -2346 2767 0
-11842 -244 249 0
-11842 -245 247 0
-11842 -246 248 0
-247 11843 250 0
-248 11843 251 0
-249 11843 252 0
-667 11983 670 0
-668 11983 671 0
-669 11983 672 0
-1087 12123 1090 0
-1088 12123 1091 0
-1089 12123 1092 0
-1507 12263 1510 0
-1508 12263 1511 0
-1509 12263 1512 0
-1927 12403 1930 0
-1928 12403 1931 0
-1929 12403 1932 0
-2347 12543 2350 0
-2348 12543 2351 0
-2349 12543 2352 0
-2767 12683 2770 0
-2768 12683 2771 0
-2769 12683 2772 0
-667 -11983 671 0
-668 -11983 672 0
-669 -11983 670 0
-1087 -12123 1091 0
-1088 -12123 1092 0
-1089 -12123 1090 0
-1507 -12263 1511 0
-1508 -12263 1512 0
-1509 -12263 1510 0
-1927 -12403 1931 0
-1928 -12403 1932 0
-1929 -12403 1930 0
-2347 -12543 2351 0
-2348 -12543 2352 0
-2349 -12543 2350 0
-12683 -2347 2771 0
-12683 -2348 2772 0
-12683 -2349 2770 0
-11843 -247 252 0
-11843 -248 250 0
-11843 -249 251 0
-250 11844 253 0
-251 11844 254 0
-252 11844 255 0
-670 11984 673 0
-671 11984 674 0
-672 11984 675 0
-1090 12124 1093 0
-1091 12124 1094 0
-1092 12124 1095 0
-1510 12264 1513 0
-1511 12264 1514 0
-1512 12264 1515 0
-1930 12404 1933 0
-1931 12404 1934 0
-1932 12404 1935 0
-2350 12544 2353 0
-2351 12544 2354 0
-2352 12544 2355 0
-2770 12684 2773 0
-2771 12684 2774 0
-2772 12684 2775 0
-670 -11984 674 0
-671 -11984 675 0
-672 -11984 673 0
-1090 -12124 1094 0
-1091 -12124 1095 0
-1092 -12124 1093 0
-1510 -12264 1514 0
-1511 -12264 1515 0
-1512 -12264 1513 0
-1930 -12404 1934 0
-1931 -12404 1935 0
-1932 -12404 1933 0
-2350 -12544 2354 0
-2351 -12544 2355 0
-2352 -12544 2353 0
-12684 -2350 2774 0
-12684 -2351 2775 0
-12684 -2352 2773 0
-11844 -250 255 0
-11844 -251 253 0
-11844 -252 254 0
-253 11845 256 0
-254 11845 257 0
-255 11845 258 0
-673 11985 676 0
-674 11985 677 0
-675 11985 678 0
-1093 12125 1096 0
-1094 12125 1097 0
-1095 12125 1098 0
-1513 12265 1516 0
-1514 12265 1517 0
-1515 12265 1518 0
-1933 12405 1936 0
-1934 12405 1937 0
-1935 12405 1938 0
-2353 12545 2356 0
-2354 12545 2357 0
-2355 12545 2358 0
-2773 12685 2776 0
-2774 12685 2777 0
-2775 12685 2778 0
-673 -11985 677 0
-674 -11985 678 0
-675 -11985 676 0
-1093 -12125 1097 0
-1094 -12125 1098 0
-1095 -12125 1096 0
-1513 -12265 1517 0
-1514 -12265 1518 0
-1515 -12265 1516 0
-1933 -12405 1937 0
-1934 -12405 1938 0
-1935 -12405 1936 0
-2353 -12545 2357 0
-2354 -12545 2358 0
-2355 -12545 2356 0
-12685 -2353 2777 0
-12685 -2354 2778 0
-12685 -2355 2776 0
-11845 -253 258 0
-11845 -254 256 0
-11845 -255 257 0
-256 11846 259 0
-257 11846 260 0
-258 11846 261 0
-676 11986 679 0
-677 11986 680 0
-678 11986 681 0
-1096 12126 1099 0
-1097 12126 1100 0
-1098 12126 1101 0
-1516 12266 1519 0
-1517 12266 1520 0
-1518 12266 1521 0
-1936 12406 1939 0
-1937 12406 1940 0
-1938 12406 1941 0
-2356 12546 2359 0
-2357 12546 2360 0
-2358 12546 2361 0
-2776 12686 2779 0
-2777 12686 2780 0
-2778 12686 2781 0
-676 -11986 680 0
-677 -11986 681 0
-678 -11986 679 0
-1096 -12126 1100 0
-1097 -12126 1101 0
-1098 -12126 1099 0
-1516 -12266 1520 0
-1517 -12266 1521 0
-1518 -12266 1519 0
-1936 -12406 1940 0
-1937 -12406 1941 0
-1938 -12406 1939 0
-2356 -12546 2360 0
-2357 -12546 2361 0
-2358 -12546 2359 0
-12686 -2356 2780 0
-12686 -2357 2781 0
-12686 -2358 2779 0
-11846 -256 261 0
-11846 -257 259 0
-11846 -258 260 0
-259 11847 262 0
-260 11847 263 0
-261 11847 264 0
-679 11987 682 0
-680 11987 683 0
-681 11987 684 0
-1099 12127 1102 0
-1100 12127 1103 0
-1101 12127 1104 0
-1519 12267 1522 0
-1520 12267 1523 0
-1521 12267 1524 0
-1939 12407 1942 0
-1940 12407 1943 0
-1941 12407 1944 0
-2359 12547 2362 0
-2360 12547 2363 0
-2361 12547 2364 0
-2779 12687 2782 0
-2780 12687 2783 0
-2781 12687 2784 0
-679 -11987 683 0
-680 -11987 684 0
-681 -11987 682 0
-1099 -12127 1103 0
-1100 -12127 1104 0
-1101 -12127 1102 0
-1519 -12267 1523 0
-1520 -12267 1524 0
-1521 -12267 1522 0
-1939 -12407 1943 0
-1940 -12407 1944 0
-1941 -12407 1942 0
-2359 -12547 2363 0
-2360 -12547 2364 0
-2361 -12547 2362 0
-12687 -2359 2783 0
-12687 -2360 2784 0
-12687 -2361 2782 0
-11847 -259 264 0
-11847 -260 262 0
-11847 -261 263 0
-262 11848 265 0
-263 11848 266 0
-264 11848 267 0
-682 11988 685 0
-683 11988 686 0
-684 11988 687 0
-1102 12128 1105 0
-1103 12128 1106 0
-1104 12128 1107 0
-1522 12268 1525 0
-1523 12268 1526 0
-1524 12268 1527 0
-1942 12408 1945 0
-1943 12408 1946 0
-1944 12408 1947 0
-2362 12548 2365 0
-2363 12548 2366 0
-2364 12548 2367 0
-2782 12688 2785 0
-2783 12688 2786 0
-2784 12688 2787 0
-682 -11988 686 0
-683 -11988 687 0
-684 -11988 685 0
-1102 -12128 1106 0
-1103 -12128 1107 0
-1104 -12128 1105 0
-1522 -12268 1526 0
-1523 -12268 1527 0
-1524 -12268 1525 0
-1942 -12408 1946 0
-1943 -12408 1947 0
-1944 -12408 1945 0
-2362 -12548 2366 0
-2363 -12548 2367 0
-2364 -12548 2365 0
-12688 -2362 2786 0
-12688 -2363 2787 0
-12688 -2364 2785 0
-11848 -262 267 0
-11848 -263 265 0
-11848 -264 266 0
-265 11849 268 0
-266 11849 269 0
-267 11849 270 0
-685 11989 688 0
-686 11989 689 0
-687 11989 690 0
-1105 12129 1108 0
-1106 12129 1109 0
-1107 12129 1110 0
-1525 12269 1528 0
-1526 12269 1529 0
-1527 12269 1530 0
-1945 12409 1948 0
-1946 12409 1949 0
-1947 12409 1950 0
-2365 12549 2368 0
-2366 12549 2369 0
-2367 12549 2370 0
-2785 12689 2788 0
-2786 12689 2789 0
-2787 12689 2790 0
-685 -11989 689 0
-686 -11989 690 0
-687 -11989 688 0
-1105 -12129 1109 0
-1106 -12129 1110 0
-1107 -12129 1108 0
-1525 -12269 1529 0
-1526 -12269 1530 0
-1527 -12269 1528 0
-1945 -12409 1949 0
-1946 -12409 1950 0
-1947 -12409 1948 0
-2365 -12549 2369 0
-2366 -12549 2370 0
-2367 -12549 2368 0
-12689 -2365 2789 0
-12689 -2366 2790 0
-12689 -2367 2788 0
-11849 -265 270 0
-11849 -266 268 0
-11849 -267 269 0
-268 11850 271 0
-269 11850 272 0
-270 11850 273 0
-688 11990 691 0
-689 11990 692 0
-690 11990 693 0
-1108 12130 1111 0
-1109 12130 1112 0
-1110 12130 1113 0
-1528 12270 1531 0
-1529 12270 1532 0
-1530 12270 1533 0
-1948 12410 1951 0
-1949 12410 1952 0
-1950 12410 1953 0
-2368 12550 2371 0
-2369 12550 2372 0
-2370 12550 2373 0
-2788 12690 2791 0
-2789 12690 2792 0
-2790 12690 2793 0
-688 -11990 692 0
-689 -11990 693 0
-690 -11990 691 0
-1108 -12130 1112 0
-1109 -12130 1113 0
-1110 -12130 1111 0
-1528 -12270 1532 0
-1529 -12270 1533 0
-1530 -12270 1531 0
-1948 -12410 1952 0
-1949 -12410 1953 0
-1950 -12410 1951 0
-2368 -12550 2372 0
-2369 -12550 2373 0
-2370 -12550 2371 0
-12690 -2368 2792 0
-12690 -2369 2793 0
-12690 -2370 2791 0
-11850 -268 273 0
-11850 -269 271 0
-11850 -270 272 0
-271 11851 274 0
-272 11851 275 0
-273 11851 276 0
-691 11991 694 0
-692 11991 695 0
-693 11991 696 0
-1111 12131 1114 0
-1112 12131 1115 0
-1113 12131 1116 0
-1531 12271 1534 0
-1532 12271 1535 0
-1533 12271 1536 0
-1951 12411 1954 0
-1952 12411 1955 0
-1953 12411 1956 0
-2371 12551 2374 0
-2372 12551 2375 0
-2373 12551 2376 0
-2791 12691 2794 0
-2792 12691 2795 0
-2793 12691 2796 0
-691 -11991 695 0
-692 -11991 696 0
-693 -11991 694 0
-1111 -12131 1115 0
-1112 -12131 1116 0
-1113 -12131 1114 0
-1531 -12271 1535 0
-1532 -12271 1536 0
-1533 -12271 1534 0
-1951 -12411 1955 0
-1952 -12411 1956 0
-1953 -12411 1954 0
-2371 -12551 2375 0
-2372 -12551 2376 0
-2373 -12551 2374 0
-12691 -2371 2795 0
-12691 -2372 2796 0
-12691 -2373 2794 0
-11851 -271 276 0
-11851 -272 274 0
-11851 -273 275 0
-274 11852 277 0
-275 11852 278 0
-276 11852 279 0
-694 11992 697 0
-695 11992 698 0
-696 11992 699 0
-1114 12132 1117 0
-1115 12132 1118 0
-1116 12132 1119 0
-1534 12272 1537 0
-1535 12272 1538 0
-1536 12272 1539 0
-1954 12412 1957 0
-1955 12412 1958 0
-1956 12412 1959 0
-2374 12552 2377 0
-2375 12552 2378 0
-2376 12552 2379 0
-2794 12692 2797 0
-2795 12692 2798 0
-2796 12692 2799 0
-694 -11992 698 0
-695 -11992 699 0
-696 -11992 697 0
-1114 -12132 1118 0
-1115 -12132 1119 0
-1116 -12132 1117 0
-1534 -12272 1538 0
-1535 -12272 1539 0
-1536 -12272 1537 0
-1954 -12412 1958 0
-1955 -12412 1959 0
-1956 -12412 1957 0
-2374 -12552 2378 0
-2375 -12552 2379 0
-2376 -12552 2377 0
-12692 -2374 2798 0
-12692 -2375 2799 0
-12692 -2376 2797 0
-11852 -274 279 0
-11852 -275 277 0
-11852 -276 278 0
-277 11853 280 0
-278 11853 281 0
-279 11853 282 0
-697 11993 700 0
-698 11993 701 0
-699 11993 702 0
-1117 12133 1120 0
-1118 12133 1121 0
-1119 12133 1122 0
-1537 12273 1540 0
-1538 12273 1541 0
-1539 12273 1542 0
-1957 12413 1960 0
-1958 12413 1961 0
-1959 12413 1962 0
-2377 12553 2380 0
-2378 12553 2381 0
-2379 12553 2382 0
-2797 12693 2800 0
-2798 12693 2801 0
-2799 12693 2802 0
-697 -11993 701 0
-698 -11993 702 0
-699 -11993 700 0
-1117 -12133 1121 0
-1118 -12133 1122 0
-1119 -12133 1120 0
-1537 -12273 1541 0
-1538 -12273 1542 0
-1539 -12273 1540 0
-1957 -12413 1961 0
-1958 -12413 1962 0
-1959 -12413 1960 0
-2377 -12553 2381 0
-2378 -12553 2382 0
-2379 -12553 2380 0
-12693 -2377 2801 0
-12693 -2378 2802 0
-12693 -2379 2800 0
-11853 -277 282 0
-11853 -278 280 0
-11853 -279 281 0
-280 11854 283 0
-281 11854 284 0
-282 11854 285 0
-700 11994 703 0
-701 11994 704 0
-702 11994 705 0
-1120 12134 1123 0
-1121 12134 1124 0
-1122 12134 1125 0
-1540 12274 1543 0
-1541 12274 1544 0
-1542 12274 1545 0
-1960 12414 1963 0
-1961 12414 1964 0
-1962 12414 1965 0
-2380 12554 2383 0
-2381 12554 2384 0
-2382 12554 2385 0
-2800 12694 2803 0
-2801 12694 2804 0
-2802 12694 2805 0
-700 -11994 704 0
-701 -11994 705 0
-702 -11994 703 0
-1120 -12134 1124 0
-1121 -12134 1125 0
-1122 -12134 1123 0
-1540 -12274 1544 0
-1541 -12274 1545 0
-1542 -12274 1543 0
-1960 -12414 1964 0
-1961 -12414 1965 0
-1962 -12414 1963 0
-2380 -12554 2384 0
-2381 -12554 2385 0
-2382 -12554 2383 0
-12694 -2380 2804 0
-12694 -2381 2805 0
-12694 -2382 2803 0
-11854 -280 285 0
-11854 -281 283 0
-11854 -282 284 0
-283 11855 286 0
-284 11855 287 0
-285 11855 288 0
-703 11995 706 0
-704 11995 707 0
-705 11995 708 0
-1123 12135 1126 0
-1124 12135 1127 0
-1125 12135 1128 0
-1543 12275 1546 0
-1544 12275 1547 0
-1545 12275 1548 0
-1963 12415 1966 0
-1964 12415 1967 0
-1965 12415 1968 0
-2383 12555 2386 0
-2384 12555 2387 0
-2385 12555 2388 0
-2803 12695 2806 0
-2804 12695 2807 0
-2805 12695 2808 0
-703 -11995 707 0
-704 -11995 708 0
-705 -11995 706 0
-1123 -12135 1127 0
-1124 -12135 1128 0
-1125 -12135 1126 0
-1543 -12275 1547 0
-1544 -12275 1548 0
-1545 -12275 1546 0
-1963 -12415 1967 0
-1964 -12415 1968 0
-1965 -12415 1966 0
-2383 -12555 2387 0
-2384 -12555 2388 0
-2385 -12555 2386 0
-12695 -2383 2807 0
-12695 -2384 2808 0
-12695 -2385 2806 0
-11855 -283 288 0
-11855 -284 286 0
-11855 -285 287 0
-286 11856 289 0
-287 11856 290 0
-288 11856 291 0
-706 11996 709 0
-707 11996 710 0
-708 11996 711 0
-1126 12136 1129 0
-1127 12136 1130 0
-1128 12136 1131 0
-1546 12276 1549 0
-1547 12276 1550 0
-1548 12276 1551 0
-1966 12416 1969 0
-1967 12416 1970 0
-1968 12416 1971 0
-2386 12556 2389 0
-2387 12556 2390 0
-2388 12556 2391 0
-2806 12696 2809 0
-2807 12696 2810 0
-2808 12696 2811 0
-706 -11996 710 0
-707 -11996 711 0
-708 -11996 709 0
-1126 -12136 1130 0
-1127 -12136 1131 0
-1128 -12136 1129 0
-1546 -12276 1550 0
-1547 -12276 1551 0
-1548 -12276 1549 0
-1966 -12416 1970 0
-1967 -12416 1971 0
-1968 -12416 1969 0
-2386 -12556 2390 0
-2387 -12556 2391 0
-2388 -12556 2389 0
-12696 -2386 2810 0
-12696 -2387 2811 0
-12696 -2388 2809 0
-11856 -286 291 0
-11856 -287 289 0
-11856 -288 290 0
-289 11857 292 0
-290 11857 293 0
-291 11857 294 0
-709 11997 712 0
-710 11997 713 0
-711 11997 714 0
-1129 12137 1132 0
-1130 12137 1133 0
-1131 12137 1134 0
-1549 12277 1552 0
-1550 12277 1553 0
-1551 12277 1554 0
-1969 12417 1972 0
-1970 12417 1973 0
-1971 12417 1974 0
-2389 12557 2392 0
-2390 12557 2393 0
-2391 12557 2394 0
-2809 12697 2812 0
-2810 12697 2813 0
-2811 12697 2814 0
-709 -11997 713 0
-710 -11997 714 0
-711 -11997 712 0
-1129 -12137 1133 0
-1130 -12137 1134 0
-1131 -12137 1132 0
-1549 -12277 1553 0
-1550 -12277 1554 0
-1551 -12277 1552 0
-1969 -12417 1973 0
-1970 -12417 1974 0
-1971 -12417 1972 0
-2389 -12557 2393 0
-2390 -12557 2394 0
-2391 -12557 2392 0
-12697 -2389 2813 0
-12697 -2390 2814 0
-12697 -2391 2812 0
-11857 -289 294 0
-11857 -290 292 0
-11857 -291 293 0
-292 11858 295 0
-293 11858 296 0
-294 11858 297 0
-712 11998 715 0
-713 11998 716 0
-714 11998 717 0
-1132 12138 1135 0
-1133 12138 1136 0
-1134 12138 1137 0
-1552 12278 1555 0
-1553 12278 1556 0
-1554 12278 1557 0
-1972 12418 1975 0
-1973 12418 1976 0
-1974 12418 1977 0
-2392 12558 2395 0
-2393 12558 2396 0
-2394 12558 2397 0
-2812 12698 2815 0
-2813 12698 2816 0
-2814 12698 2817 0
-712 -11998 716 0
-713 -11998 717 0
-714 -11998 715 0
-1132 -12138 1136 0
-1133 -12138 1137 0
-1134 -12138 1135 0
-1552 -12278 1556 0
-1553 -12278 1557 0
-1554 -12278 1555 0
-1972 -12418 1976 0
-1973 -12418 1977 0
-1974 -12418 1975 0
-2392 -12558 2396 0
-2393 -12558 2397 0
-2394 -12558 2395 0
-12698 -2392 2816 0
-12698 -2393 2817 0
-12698 -2394 2815 0
-11858 -292 297 0
-11858 -293 295 0
-11858 -294 296 0
-295 11859 298 0
-296 11859 299 0
-297 11859 300 0
-715 11999 718 0
-716 11999 719 0
-717 11999 720 0
-1135 12139 1138 0
-1136 12139 1139 0
-1137 12139 1140 0
-1555 12279 1558 0
-1556 12279 1559 0
-1557 12279 1560 0
-1975 12419 1978 0
-1976 12419 1979 0
-1977 12419 1980 0
-2395 12559 2398 0
-2396 12559 2399 0
-2397 12559 2400 0
-2815 12699 2818 0
-2816 12699 2819 0
-2817 12699 2820 0
-715 -11999 719 0
-716 -11999 720 0
-717 -11999 718 0
-1135 -12139 1139 0
-1136 -12139 1140 0
-1137 -12139 1138 0
-1555 -12279 1559 0
-1556 -12279 1560 0
-1557 -12279 1558 0
-1975 -12419 1979 0
-1976 -12419 1980 0
-1977 -12419 1978 0
-2395 -12559 2399 0
-2396 -12559 2400 0
-2397 -12559 2398 0
-12699 -2395 2819 0
-12699 -2396 2820 0
-12699 -2397 2818 0
-11859 -295 300 0
-11859 -296 298 0
-11859 -297 299 0
-298 11860 301 0
-299 11860 302 0
-300 11860 303 0
-718 12000 721 0
-719 12000 722 0
-720 12000 723 0
-1138 12140 1141 0
-1139 12140 1142 0
-1140 12140 1143 0
-1558 12280 1561 0
-1559 12280 1562 0
-1560 12280 1563 0
-1978 12420 1981 0
-1979 12420 1982 0
-1980 12420 1983 0
-2398 12560 2401 0
-2399 12560 2402 0
-2400 12560 2403 0
-2818 12700 2821 0
-2819 12700 2822 0
-2820 12700 2823 0
-718 -12000 722 0
-719 -12000 723 0
-720 -12000 721 0
-1138 -12140 1142 0
-1139 -12140 1143 0
-1140 -12140 1141 0
-1558 -12280 1562 0
-1559 -12280 1563 0
-1560 -12280 1561 0
-1978 -12420 1982 0
-1979 -12420 1983 0
-1980 -12420 1981 0
-2398 -12560 2402 0
-2399 -12560 2403 0
-2400 -12560 2401 0
-12700 -2398 2822 0
-12700 -2399 2823 0
-12700 -2400 2821 0
-11860 -298 303 0
-11860 -299 301 0
-11860 -300 302 0
-301 11861 304 0
-302 11861 305 0
-303 11861 306 0
-721 12001 724 0
-722 12001 725 0
-723 12001 726 0
-1141 12141 1144 0
-1142 12141 1145 0
-1143 12141 1146 0
-1561 12281 1564 0
-1562 12281 1565 0
-1563 12281 1566 0
-1981 12421 1984 0
-1982 12421 1985 0
-1983 12421 1986 0
-2401 12561 2404 0
-2402 12561 2405 0
-2403 12561 2406 0
-2821 12701 2824 0
-2822 12701 2825 0
-2823 12701 2826 0
-721 -12001 725 0
-722 -12001 726 0
-723 -12001 724 0
-1141 -12141 1145 0
-1142 -12141 1146 0
-1143 -12141 1144 0
-1561 -12281 1565 0
-1562 -12281 1566 0
-1563 -12281 1564 0
-1981 -12421 1985 0
-1982 -12421 1986 0
-1983 -12421 1984 0
-2401 -12561 2405 0
-2402 -12561 2406 0
-2403 -12561 2404 0
-12701 -2401 2825 0
-12701 -2402 2826 0
-12701 -2403 2824 0
-11861 -301 306 0
-11861 -302 304 0
-11861 -303 305 0
-304 11862 307 0
-305 11862 308 0
-306 11862 309 0
-724 12002 727 0
-725 12002 728 0
-726 12002 729 0
-1144 12142 1147 0
-1145 12142 1148 0
-1146 12142 1149 0
-1564 12282 1567 0
-1565 12282 1568 0
-1566 12282 1569 0
-1984 12422 1987 0
-1985 12422 1988 0
-1986 12422 1989 0
-2404 12562 2407 0
-2405 12562 2408 0
-2406 12562 2409 0
-2824 12702 2827 0
-2825 12702 2828 0
-2826 12702 2829 0
-724 -12002 728 0
-725 -12002 729 0
-726 -12002 727 0
-1144 -12142 1148 0
-1145 -12142 1149 0
-1146 -12142 1147 0
-1564 -12282 1568 0
-1565 -12282 1569 0
-1566 -12282 1567 0
-1984 -12422 1988 0
-1985 -12422 1989 0
-1986 -12422 1987 0
-2404 -12562 2408 0
-2405 -12562 2409 0
-2406 -12562 2407 0
-12702 -2404 2828 0
-12702 -2405 2829 0
-12702 -2406 2827 0
-11862 -304 309 0
-11862 -305 307 0
-11862 -306 308 0
-307 11863 310 0
-308 11863 311 0
-309 11863 312 0
-727 12003 730 0
-728 12003 731 0
-729 12003 732 0
-1147 12143 1150 0
-1148 12143 1151 0
-1149 12143 1152 0
-1567 12283 1570 0
-1568 12283 1571 0
-1569 12283 1572 0
-1987 12423 1990 0
-1988 12423 1991 0
-1989 12423 1992 0
-2407 12563 2410 0
-2408 12563 2411 0
-2409 12563 2412 0
-2827 12703 2830 0
-2828 12703 2831 0
-2829 12703 2832 0
-727 -12003 731 0
-728 -12003 732 0
-729 -12003 730 0
-1147 -12143 1151 0
-1148 -12143 1152 0
-1149 -12143 1150 0
-1567 -12283 1571 0
-1568 -12283 1572 0
-1569 -12283 1570 0
-1987 -12423 1991 0
-1988 -12423 1992 0
-1989 -12423 1990 0
-2407 -12563 2411 0
-2408 -12563 2412 0
-2409 -12563 2410 0
-12703 -2407 2831 0
-12703 -2408 2832 0
-12703 -2409 2830 0
-11863 -307 312 0
-11863 -308 310 0
-11863 -309 311 0
-310 11864 313 0
-311 11864 314 0
-312 11864 315 0
-730 12004 733 0
-731 12004 734 0
-732 12004 735 0
-1150 12144 1153 0
-1151 12144 1154 0
-1152 12144 1155 0
-1570 12284 1573 0
-1571 12284 1574 0
-1572 12284 1575 0
-1990 12424 1993 0
-1991 12424 1994 0
-1992 12424 1995 0
-2410 12564 2413 0
-2411 12564 2414 0
-2412 12564 2415 0
-2830 12704 2833 0
-2831 12704 2834 0
-2832 12704 2835 0
-730 -12004 734 0
-731 -12004 735 0
-732 -12004 733 0
-1150 -12144 1154 0
-1151 -12144 1155 0
-1152 -12144 1153 0
-1570 -12284 1574 0
-1571 -12284 1575 0
-1572 -12284 1573 0
-1990 -12424 1994 0
-1991 -12424 1995 0
-1992 -12424 1993 0
-2410 -12564 2414 0
-2411 -12564 2415 0
-2412 -12564 2413 0
-12704 -2410 2834 0
-12704 -2411 2835 0
-12704 -2412 2833 0
-11864 -310 315 0
-11864 -311 313 0
-11864 -312 314 0
-313 11865 316 0
-314 11865 317 0
-315 11865 318 0
-733 12005 736 0
-734 12005 737 0
-735 12005 738 0
-1153 12145 1156 0
-1154 12145 1157 0
-1155 12145 1158 0
-1573 12285 1576 0
-1574 12285 1577 0
-1575 12285 1578 0
-1993 12425 1996 0
-1994 12425 1997 0
-1995 12425 1998 0
-2413 12565 2416 0
-2414 12565 2417 0
-2415 12565 2418 0
-2833 12705 2836 0
-2834 12705 2837 0
-2835 12705 2838 0
-733 -12005 737 0
-734 -12005 738 0
-735 -12005 736 0
-1153 -12145 1157 0
-1154 -12145 1158 0
-1155 -12145 1156 0
-1573 -12285 1577 0
-1574 -12285 1578 0
-1575 -12285 1576 0
-1993 -12425 1997 0
-1994 -12425 1998 0
-1995 -12425 1996 0
-2413 -12565 2417 0
-2414 -12565 2418 0
-2415 -12565 2416 0
-12705 -2413 2837 0
-12705 -2414 2838 0
-12705 -2415 2836 0
-11865 -313 318 0
-11865 -314 316 0
-11865 -315 317 0
-316 11866 319 0
-317 11866 320 0
-318 11866 321 0
-736 12006 739 0
-737 12006 740 0
-738 12006 741 0
-1156 12146 1159 0
-1157 12146 1160 0
-1158 12146 1161 0
-1576 12286 1579 0
-1577 12286 1580 0
-1578 12286 1581 0
-1996 12426 1999 0
-1997 12426 2000 0
-1998 12426 2001 0
-2416 12566 2419 0
-2417 12566 2420 0
-2418 12566 2421 0
-2836 12706 2839 0
-2837 12706 2840 0
-2838 12706 2841 0
-736 -12006 740 0
-737 -12006 741 0
-738 -12006 739 0
-1156 -12146 1160 0
-1157 -12146 1161 0
-1158 -12146 1159 0
-1576 -12286 1580 0
-1577 -12286 1581 0
-1578 -12286 1579 0
-1996 -12426 2000 0
-1997 -12426 2001 0
-1998 -12426 1999 0
-2416 -12566 2420 0
-2417 -12566 2421 0
-2418 -12566 2419 0
-12706 -2416 2840 0
-12706 -2417 2841 0
-12706 -2418 2839 0
-11866 -316 321 0
-11866 -317 319 0
-11866 -318 320 0
-319 11867 322 0
-320 11867 323 0
-321 11867 324 0
-739 12007 742 0
-740 12007 743 0
-741 12007 744 0
-1159 12147 1162 0
-1160 12147 1163 0
-1161 12147 1164 0
-1579 12287 1582 0
-1580 12287 1583 0
-1581 12287 1584 0
-1999 12427 2002 0
-2000 12427 2003 0
-2001 12427 2004 0
-2419 12567 2422 0
-2420 12567 2423 0
-2421 12567 2424 0
-2839 12707 2842 0
-2840 12707 2843 0
-2841 12707 2844 0
-739 -12007 743 0
-740 -12007 744 0
-741 -12007 742 0
-1159 -12147 1163 0
-1160 -12147 1164 0
-1161 -12147 1162 0
-1579 -12287 1583 0
-1580 -12287 1584 0
-1581 -12287 1582 0
-1999 -12427 2003 0
-2000 -12427 2004 0
-2001 -12427 2002 0
-2419 -12567 2423 0
-2420 -12567 2424 0
-2421 -12567 2422 0
-12707 -2419 2843 0
-12707 -2420 2844 0
-12707 -2421 2842 0
-11867 -319 324 0
-11867 -320 322 0
-11867 -321 323 0
-322 11868 325 0
-323 11868 326 0
-324 11868 327 0
-742 12008 745 0
-743 12008 746 0
-744 12008 747 0
-1162 12148 1165 0
-1163 12148 1166 0
-1164 12148 1167 0
-1582 12288 1585 0
-1583 12288 1586 0
-1584 12288 1587 0
-2002 12428 2005 0
-2003 12428 2006 0
-2004 12428 2007 0
-2422 12568 2425 0
-2423 12568 2426 0
-2424 12568 2427 0
-2842 12708 2845 0
-2843 12708 2846 0
-2844 12708 2847 0
-742 -12008 746 0
-743 -12008 747 0
-744 -12008 745 0
-1162 -12148 1166 0
-1163 -12148 1167 0
-1164 -12148 1165 0
-1582 -12288 1586 0
-1583 -12288 1587 0
-1584 -12288 1585 0
-2002 -12428 2006 0
-2003 -12428 2007 0
-2004 -12428 2005 0
-2422 -12568 2426 0
-2423 -12568 2427 0
-2424 -12568 2425 0
-12708 -2422 2846 0
-12708 -2423 2847 0
-12708 -2424 2845 0
-11868 -322 327 0
-11868 -323 325 0
-11868 -324 326 0
-325 11869 328 0
-326 11869 329 0
-327 11869 330 0
-745 12009 748 0
-746 12009 749 0
-747 12009 750 0
-1165 12149 1168 0
-1166 12149 1169 0
-1167 12149 1170 0
-1585 12289 1588 0
-1586 12289 1589 0
-1587 12289 1590 0
-2005 12429 2008 0
-2006 12429 2009 0
-2007 12429 2010 0
-2425 12569 2428 0
-2426 12569 2429 0
-2427 12569 2430 0
-2845 12709 2848 0
-2846 12709 2849 0
-2847 12709 2850 0
-745 -12009 749 0
-746 -12009 750 0
-747 -12009 748 0
-1165 -12149 1169 0
-1166 -12149 1170 0
-1167 -12149 1168 0
-1585 -12289 1589 0
-1586 -12289 1590 0
-1587 -12289 1588 0
-2005 -12429 2009 0
-2006 -12429 2010 0
-2007 -12429 2008 0
-2425 -12569 2429 0
-2426 -12569 2430 0
-2427 -12569 2428 0
-12709 -2425 2849 0
-12709 -2426 2850 0
-12709 -2427 2848 0
-11869 -325 330 0
-11869 -326 328 0
-11869 -327 329 0
-328 11870 331 0
-329 11870 332 0
-330 11870 333 0
-748 12010 751 0
-749 12010 752 0
-750 12010 753 0
-1168 12150 1171 0
-1169 12150 1172 0
-1170 12150 1173 0
-1588 12290 1591 0
-1589 12290 1592 0
-1590 12290 1593 0
-2008 12430 2011 0
-2009 12430 2012 0
-2010 12430 2013 0
-2428 12570 2431 0
-2429 12570 2432 0
-2430 12570 2433 0
-2848 12710 2851 0
-2849 12710 2852 0
-2850 12710 2853 0
-748 -12010 752 0
-749 -12010 753 0
-750 -12010 751 0
-1168 -12150 1172 0
-1169 -12150 1173 0
-1170 -12150 1171 0
-1588 -12290 1592 0
-1589 -12290 1593 0
-1590 -12290 1591 0
-2008 -12430 2012 0
-2009 -12430 2013 0
-2010 -12430 2011 0
-2428 -12570 2432 0
-2429 -12570 2433 0
-2430 -12570 2431 0
-12710 -2428 2852 0
-12710 -2429 2853 0
-12710 -2430 2851 0
-11870 -328 333 0
-11870 -329 331 0
-11870 -330 332 0
-331 11871 334 0
-332 11871 335 0
-333 11871 336 0
-751 12011 754 0
-752 12011 755 0
-753 12011 756 0
-1171 12151 1174 0
-1172 12151 1175 0
-1173 12151 1176 0
-1591 12291 1594 0
-1592 12291 1595 0
-1593 12291 1596 0
-2011 12431 2014 0
-2012 12431 2015 0
-2013 12431 2016 0
-2431 12571 2434 0
-2432 12571 2435 0
-2433 12571 2436 0
-2851 12711 2854 0
-2852 12711 2855 0
-2853 12711 2856 0
-751 -12011 755 0
-752 -12011 756 0
-753 -12011 754 0
-1171 -12151 1175 0
-1172 -12151 1176 0
-1173 -12151 1174 0
-1591 -12291 1595 0
-1592 -12291 1596 0
-1593 -12291 1594 0
-2011 -12431 2015 0
-2012 -12431 2016 0
-2013 -12431 2014 0
-2431 -12571 2435 0
-2432 -12571 2436 0
-2433 -12571 2434 0
-12711 -2431 2855 0
-12711 -2432 2856 0
-12711 -2433 2854 0
-11871 -331 336 0
-11871 -332 334 0
-11871 -333 335 0
-334 11872 337 0
-335 11872 338 0
-336 11872 339 0
-754 12012 757 0
-755 12012 758 0
-756 12012 759 0
-1174 12152 1177 0
-1175 12152 1178 0
-1176 12152 1179 0
-1594 12292 1597 0
-1595 12292 1598 0
-1596 12292 1599 0
-2014 12432 2017 0
-2015 12432 2018 0
-2016 12432 2019 0
-2434 12572 2437 0
-2435 12572 2438 0
-2436 12572 2439 0
-2854 12712 2857 0
-2855 12712 2858 0
-2856 12712 2859 0
-754 -12012 758 0
-755 -12012 759 0
-756 -12012 757 0
-1174 -12152 1178 0
-1175 -12152 1179 0
-1176 -12152 1177 0
-1594 -12292 1598 0
-1595 -12292 1599 0
-1596 -12292 1597 0
-2014 -12432 2018 0
-2015 -12432 2019 0
-2016 -12432 2017 0
-2434 -12572 2438 0
-2435 -12572 2439 0
-2436 -12572 2437 0
-12712 -2434 2858 0
-12712 -2435 2859 0
-12712 -2436 2857 0
-11872 -334 339 0
-11872 -335 337 0
-11872 -336 338 0
-337 11873 340 0
-338 11873 341 0
-339 11873 342 0
-757 12013 760 0
-758 12013 761 0
-759 12013 762 0
-1177 12153 1180 0
-1178 12153 1181 0
-1179 12153 1182 0
-1597 12293 1600 0
-1598 12293 1601 0
-1599 12293 1602 0
-2017 12433 2020 0
-2018 12433 2021 0
-2019 12433 2022 0
-2437 12573 2440 0
-2438 12573 2441 0
-2439 12573 2442 0
-2857 12713 2860 0
-2858 12713 2861 0
-2859 12713 2862 0
-757 -12013 761 0
-758 -12013 762 0
-759 -12013 760 0
-1177 -12153 1181 0
-1178 -12153 1182 0
-1179 -12153 1180 0
-1597 -12293 1601 0
-1598 -12293 1602 0
-1599 -12293 1600 0
-2017 -12433 2021 0
-2018 -12433 2022 0
-2019 -12433 2020 0
-2437 -12573 2441 0
-2438 -12573 2442 0
-2439 -12573 2440 0
-12713 -2437 2861 0
-12713 -2438 2862 0
-12713 -2439 2860 0
-11873 -337 342 0
-11873 -338 340 0
-11873 -339 341 0
-340 11874 343 0
-341 11874 344 0
-342 11874 345 0
-760 12014 763 0
-761 12014 764 0
-762 12014 765 0
-1180 12154 1183 0
-1181 12154 1184 0
-1182 12154 1185 0
-1600 12294 1603 0
-1601 12294 1604 0
-1602 12294 1605 0
-2020 12434 2023 0
-2021 12434 2024 0
-2022 12434 2025 0
-2440 12574 2443 0
-2441 12574 2444 0
-2442 12574 2445 0
-2860 12714 2863 0
-2861 12714 2864 0
-2862 12714 2865 0
-760 -12014 764 0
-761 -12014 765 0
-762 -12014 763 0
-1180 -12154 1184 0
-1181 -12154 1185 0
-1182 -12154 1183 0
-1600 -12294 1604 0
-1601 -12294 1605 0
-1602 -12294 1603 0
-2020 -12434 2024 0
-2021 -12434 2025 0
-2022 -12434 2023 0
-2440 -12574 2444 0
-2441 -12574 2445 0
-2442 -12574 2443 0
-12714 -2440 2864 0
-12714 -2441 2865 0
-12714 -2442 2863 0
-11874 -340 345 0
-11874 -341 343 0
-11874 -342 344 0
-343 11875 346 0
-344 11875 347 0
-345 11875 348 0
-763 12015 766 0
-764 12015 767 0
-765 12015 768 0
-1183 12155 1186 0
-1184 12155 1187 0
-1185 12155 1188 0
-1603 12295 1606 0
-1604 12295 1607 0
-1605 12295 1608 0
-2023 12435 2026 0
-2024 12435 2027 0
-2025 12435 2028 0
-2443 12575 2446 0
-2444 12575 2447 0
-2445 12575 2448 0
-2863 12715 2866 0
-2864 12715 2867 0
-2865 12715 2868 0
-763 -12015 767 0
-764 -12015 768 0
-765 -12015 766 0
-1183 -12155 1187 0
-1184 -12155 1188 0
-1185 -12155 1186 0
-1603 -12295 1607 0
-1604 -12295 1608 0
-1605 -12295 1606 0
-2023 -12435 2027 0
-2024 -12435 2028 0
-2025 -12435 2026 0
-2443 -12575 2447 0
-2444 -12575 2448 0
-2445 -12575 2446 0
-12715 -2443 2867 0
-12715 -2444 2868 0
-12715 -2445 2866 0
-11875 -343 348 0
-11875 -344 346 0
-11875 -345 347 0
-346 11876 349 0
-347 11876 350 0
-348 11876 351 0
-766 12016 769 0
-767 12016 770 0
-768 12016 771 0
-1186 12156 1189 0
-1187 12156 1190 0
-1188 12156 1191 0
-1606 12296 1609 0
-1607 12296 1610 0
-1608 12296 1611 0
-2026 12436 2029 0
-2027 12436 2030 0
-2028 12436 2031 0
-2446 12576 2449 0
-2447 12576 2450 0
-2448 12576 2451 0
-2866 12716 2869 0
-2867 12716 2870 0
-2868 12716 2871 0
-766 -12016 770 0
-767 -12016 771 0
-768 -12016 769 0
-1186 -12156 1190 0
-1187 -12156 1191 0
-1188 -12156 1189 0
-1606 -12296 1610 0
-1607 -12296 1611 0
-1608 -12296 1609 0
-2026 -12436 2030 0
-2027 -12436 2031 0
-2028 -12436 2029 0
-2446 -12576 2450 0
-2447 -12576 2451 0
-2448 -12576 2449 0
-12716 -2446 2870 0
-12716 -2447 2871 0
-12716 -2448 2869 0
-11876 -346 351 0
-11876 -347 349 0
-11876 -348 350 0
-349 11877 352 0
-350 11877 353 0
-351 11877 354 0
-769 12017 772 0
-770 12017 773 0
-771 12017 774 0
-1189 12157 1192 0
-1190 12157 1193 0
-1191 12157 1194 0
-1609 12297 1612 0
-1610 12297 1613 0
-1611 12297 1614 0
-2029 12437 2032 0
-2030 12437 2033 0
-2031 12437 2034 0
-2449 12577 2452 0
-2450 12577 2453 0
-2451 12577 2454 0
-2869 12717 2872 0
-2870 12717 2873 0
-2871 12717 2874 0
-769 -12017 773 0
-770 -12017 774 0
-771 -12017 772 0
-1189 -12157 1193 0
-1190 -12157 1194 0
-1191 -12157 1192 0
-1609 -12297 1613 0
-1610 -12297 1614 0
-1611 -12297 1612 0
-2029 -12437 2033 0
-2030 -12437 2034 0
-2031 -12437 2032 0
-2449 -12577 2453 0
-2450 -12577 2454 0
-2451 -12577 2452 0
-12717 -2449 2873 0
-12717 -2450 2874 0
-12717 -2451 2872 0
-11877 -349 354 0
-11877 -350 352 0
-11877 -351 353 0
-352 11878 355 0
-353 11878 356 0
-354 11878 357 0
-772 12018 775 0
-773 12018 776 0
-774 12018 777 0
-1192 12158 1195 0
-1193 12158 1196 0
-1194 12158 1197 0
-1612 12298 1615 0
-1613 12298 1616 0
-1614 12298 1617 0
-2032 12438 2035 0
-2033 12438 2036 0
-2034 12438 2037 0
-2452 12578 2455 0
-2453 12578 2456 0
-2454 12578 2457 0
-2872 12718 2875 0
-2873 12718 2876 0
-2874 12718 2877 0
-772 -12018 776 0
-773 -12018 777 0
-774 -12018 775 0
-1192 -12158 1196 0
-1193 -12158 1197 0
-1194 -12158 1195 0
-1612 -12298 1616 0
-1613 -12298 1617 0
-1614 -12298 1615 0
-2032 -12438 2036 0
-2033 -12438 2037 0
-2034 -12438 2035 0
-2452 -12578 2456 0
-2453 -12578 2457 0
-2454 -12578 2455 0
-12718 -2452 2876 0
-12718 -2453 2877 0
-12718 -2454 2875 0
-11878 -352 357 0
-11878 -353 355 0
-11878 -354 356 0
-355 11879 358 0
-356 11879 359 0
-357 11879 360 0
-775 12019 778 0
-776 12019 779 0
-777 12019 780 0
-1195 12159 1198 0
-1196 12159 1199 0
-1197 12159 1200 0
-1615 12299 1618 0
-1616 12299 1619 0
-1617 12299 1620 0
-2035 12439 2038 0
-2036 12439 2039 0
-2037 12439 2040 0
-2455 12579 2458 0
-2456 12579 2459 0
-2457 12579 2460 0
-2875 12719 2878 0
-2876 12719 2879 0
-2877 12719 2880 0
-775 -12019 779 0
-776 -12019 780 0
-777 -12019 778 0
-1195 -12159 1199 0
-1196 -12159 1200 0
-1197 -12159 1198 0
-1615 -12299 1619 0
-1616 -12299 1620 0
-1617 -12299 1618 0
-2035 -12439 2039 0
-2036 -12439 2040 0
-2037 -12439 2038 0
-2455 -12579 2459 0
-2456 -12579 2460 0
-2457 -12579 2458 0
-12719 -2455 2879 0
-12719 -2456 2880 0
-12719 -2457 2878 0
-11879 -355 360 0
-11879 -356 358 0
-11879 -357 359 0
-358 11880 361 0
-359 11880 362 0
-360 11880 363 0
-778 12020 781 0
-779 12020 782 0
-780 12020 783 0
-1198 12160 1201 0
-1199 12160 1202 0
-1200 12160 1203 0
-1618 12300 1621 0
-1619 12300 1622 0
-1620 12300 1623 0
-2038 12440 2041 0
-2039 12440 2042 0
-2040 12440 2043 0
-2458 12580 2461 0
-2459 12580 2462 0
-2460 12580 2463 0
-2878 12720 2881 0
-2879 12720 2882 0
-2880 12720 2883 0
-778 -12020 782 0
-779 -12020 783 0
-780 -12020 781 0
-1198 -12160 1202 0
-1199 -12160 1203 0
-1200 -12160 1201 0
-1618 -12300 1622 0
-1619 -12300 1623 0
-1620 -12300 1621 0
-2038 -12440 2042 0
-2039 -12440 2043 0
-2040 -12440 2041 0
-2458 -12580 2462 0
-2459 -12580 2463 0
-2460 -12580 2461 0
-12720 -2458 2882 0
-12720 -2459 2883 0
-12720 -2460 2881 0
-11880 -358 363 0
-11880 -359 361 0
-11880 -360 362 0
-361 11881 364 0
-362 11881 365 0
-363 11881 366 0
-781 12021 784 0
-782 12021 785 0
-783 12021 786 0
-1201 12161 1204 0
-1202 12161 1205 0
-1203 12161 1206 0
-1621 12301 1624 0
-1622 12301 1625 0
-1623 12301 1626 0
-2041 12441 2044 0
-2042 12441 2045 0
-2043 12441 2046 0
-2461 12581 2464 0
-2462 12581 2465 0
-2463 12581 2466 0
-2881 12721 2884 0
-2882 12721 2885 0
-2883 12721 2886 0
-781 -12021 785 0
-782 -12021 786 0
-783 -12021 784 0
-1201 -12161 1205 0
-1202 -12161 1206 0
-1203 -12161 1204 0
-1621 -12301 1625 0
-1622 -12301 1626 0
-1623 -12301 1624 0
-2041 -12441 2045 0
-2042 -12441 2046 0
-2043 -12441 2044 0
-2461 -12581 2465 0
-2462 -12581 2466 0
-2463 -12581 2464 0
-12721 -2461 2885 0
-12721 -2462 2886 0
-12721 -2463 2884 0
-11881 -361 366 0
-11881 -362 364 0
-11881 -363 365 0
-364 11882 367 0
-365 11882 368 0
-366 11882 369 0
-784 12022 787 0
-785 12022 788 0
-786 12022 789 0
-1204 12162 1207 0
-1205 12162 1208 0
-1206 12162 1209 0
-1624 12302 1627 0
-1625 12302 1628 0
-1626 12302 1629 0
-2044 12442 2047 0
-2045 12442 2048 0
-2046 12442 2049 0
-2464 12582 2467 0
-2465 12582 2468 0
-2466 12582 2469 0
-2884 12722 2887 0
-2885 12722 2888 0
-2886 12722 2889 0
-784 -12022 788 0
-785 -12022 789 0
-786 -12022 787 0
-1204 -12162 1208 0
-1205 -12162 1209 0
-1206 -12162 1207 0
-1624 -12302 1628 0
-1625 -12302 1629 0
-1626 -12302 1627 0
-2044 -12442 2048 0
-2045 -12442 2049 0
-2046 -12442 2047 0
-2464 -12582 2468 0
-2465 -12582 2469 0
-2466 -12582 2467 0
-12722 -2464 2888 0
-12722 -2465 2889 0
-12722 -2466 2887 0
-11882 -364 369 0
-11882 -365 367 0
-11882 -366 368 0
-367 11883 370 0
-368 11883 371 0
-369 11883 372 0
-787 12023 790 0
-788 12023 791 0
-789 12023 792 0
-1207 12163 1210 0
-1208 12163 1211 0
-1209 12163 1212 0
-1627 12303 1630 0
-1628 12303 1631 0
-1629 12303 1632 0
-2047 12443 2050 0
-2048 12443 2051 0
-2049 12443 2052 0
-2467 12583 2470 0
-2468 12583 2471 0
-2469 12583 2472 0
-2887 12723 2890 0
-2888 12723 2891 0
-2889 12723 2892 0
-787 -12023 791 0
-788 -12023 792 0
-789 -12023 790 0
-1207 -12163 1211 0
-1208 -12163 1212 0
-1209 -12163 1210 0
-1627 -12303 1631 0
-1628 -12303 1632 0
-1629 -12303 1630 0
-2047 -12443 2051 0
-2048 -12443 2052 0
-2049 -12443 2050 0
-2467 -12583 2471 0
-2468 -12583 2472 0
-2469 -12583 2470 0
-12723 -2467 2891 0
-12723 -2468 2892 0
-12723 -2469 2890 0
-11883 -367 372 0
-11883 -368 370 0
-11883 -369 371 0
-370 11884 373 0
-371 11884 374 0
-372 11884 375 0
-790 12024 793 0
-791 12024 794 0
-792 12024 795 0
-1210 12164 1213 0
-1211 12164 1214 0
-1212 12164 1215 0
-1630 12304 1633 0
-1631 12304 1634 0
-1632 12304 1635 0
-2050 12444 2053 0
-2051 12444 2054 0
-2052 12444 2055 0
-2470 12584 2473 0
-2471 12584 2474 0
-2472 12584 2475 0
-2890 12724 2893 0
-2891 12724 2894 0
-2892 12724 2895 0
-790 -12024 794 0
-791 -12024 795 0
-792 -12024 793 0
-1210 -12164 1214 0
-1211 -12164 1215 0
-1212 -12164 1213 0
-1630 -12304 1634 0
-1631 -12304 1635 0
-1632 -12304 1633 0
-2050 -12444 2054 0
-2051 -12444 2055 0
-2052 -12444 2053 0
-2470 -12584 2474 0
-2471 -12584 2475 0
-2472 -12584 2473 0
-12724 -2470 2894 0
-12724 -2471 2895 0
-12724 -2472 2893 0
-11884 -370 375 0
-11884 -371 373 0
-11884 -372 374 0
-373 11885 376 0
-374 11885 377 0
-375 11885 378 0
-793 12025 796 0
-794 12025 797 0
-795 12025 798 0
-1213 12165 1216 0
-1214 12165 1217 0
-1215 12165 1218 0
-1633 12305 1636 0
-1634 12305 1637 0
-1635 12305 1638 0
-2053 12445 2056 0
-2054 12445 2057 0
-2055 12445 2058 0
-2473 12585 2476 0
-2474 12585 2477 0
-2475 12585 2478 0
-2893 12725 2896 0
-2894 12725 2897 0
-2895 12725 2898 0
-793 -12025 797 0
-794 -12025 798 0
-795 -12025 796 0
-1213 -12165 1217 0
-1214 -12165 1218 0
-1215 -12165 1216 0
-1633 -12305 1637 0
-1634 -12305 1638 0
-1635 -12305 1636 0
-2053 -12445 2057 0
-2054 -12445 2058 0
-2055 -12445 2056 0
-2473 -12585 2477 0
-2474 -12585 2478 0
-2475 -12585 2476 0
-12725 -2473 2897 0
-12725 -2474 2898 0
-12725 -2475 2896 0
-11885 -373 378 0
-11885 -374 376 0
-11885 -375 377 0
-376 11886 379 0
-377 11886 380 0
-378 11886 381 0
-796 12026 799 0
-797 12026 800 0
-798 12026 801 0
-1216 12166 1219 0
-1217 12166 1220 0
-1218 12166 1221 0
-1636 12306 1639 0
-1637 12306 1640 0
-1638 12306 1641 0
-2056 12446 2059 0
-2057 12446 2060 0
-2058 12446 2061 0
-2476 12586 2479 0
-2477 12586 2480 0
-2478 12586 2481 0
-2896 12726 2899 0
-2897 12726 2900 0
-2898 12726 2901 0
-796 -12026 800 0
-797 -12026 801 0
-798 -12026 799 0
-1216 -12166 1220 0
-1217 -12166 1221 0
-1218 -12166 1219 0
-1636 -12306 1640 0
-1637 -12306 1641 0
-1638 -12306 1639 0
-2056 -12446 2060 0
-2057 -12446 2061 0
-2058 -12446 2059 0
-2476 -12586 2480 0
-2477 -12586 2481 0
-2478 -12586 2479 0
-12726 -2476 2900 0
-12726 -2477 2901 0
-12726 -2478 2899 0
-11886 -376 381 0
-11886 -377 379 0
-11886 -378 380 0
-379 11887 382 0
-380 11887 383 0
-381 11887 384 0
-799 12027 802 0
-800 12027 803 0
-801 12027 804 0
-1219 12167 1222 0
-1220 12167 1223 0
-1221 12167 1224 0
-1639 12307 1642 0
-1640 12307 1643 0
-1641 12307 1644 0
-2059 12447 2062 0
-2060 12447 2063 0
-2061 12447 2064 0
-2479 12587 2482 0
-2480 12587 2483 0
-2481 12587 2484 0
-2899 12727 2902 0
-2900 12727 2903 0
-2901 12727 2904 0
-799 -12027 803 0
-800 -12027 804 0
-801 -12027 802 0
-1219 -12167 1223 0
-1220 -12167 1224 0
-1221 -12167 1222 0
-1639 -12307 1643 0
-1640 -12307 1644 0
-1641 -12307 1642 0
-2059 -12447 2063 0
-2060 -12447 2064 0
-2061 -12447 2062 0
-2479 -12587 2483 0
-2480 -12587 2484 0
-2481 -12587 2482 0
-12727 -2479 2903 0
-12727 -2480 2904 0
-12727 -2481 2902 0
-11887 -379 384 0
-11887 -380 382 0
-11887 -381 383 0
-382 11888 385 0
-383 11888 386 0
-384 11888 387 0
-802 12028 805 0
-803 12028 806 0
-804 12028 807 0
-1222 12168 1225 0
-1223 12168 1226 0
-1224 12168 1227 0
-1642 12308 1645 0
-1643 12308 1646 0
-1644 12308 1647 0
-2062 12448 2065 0
-2063 12448 2066 0
-2064 12448 2067 0
-2482 12588 2485 0
-2483 12588 2486 0
-2484 12588 2487 0
-2902 12728 2905 0
-2903 12728 2906 0
-2904 12728 2907 0
-802 -12028 806 0
-803 -12028 807 0
-804 -12028 805 0
-1222 -12168 1226 0
-1223 -12168 1227 0
-1224 -12168 1225 0
-1642 -12308 1646 0
-1643 -12308 1647 0
-1644 -12308 1645 0
-2062 -12448 2066 0
-2063 -12448 2067 0
-2064 -12448 2065 0
-2482 -12588 2486 0
-2483 -12588 2487 0
-2484 -12588 2485 0
-12728 -2482 2906 0
-12728 -2483 2907 0
-12728 -2484 2905 0
-11888 -382 387 0
-11888 -383 385 0
-11888 -384 386 0
-385 11889 388 0
-386 11889 389 0
-387 11889 390 0
-805 12029 808 0
-806 12029 809 0
-807 12029 810 0
-1225 12169 1228 0
-1226 12169 1229 0
-1227 12169 1230 0
-1645 12309 1648 0
-1646 12309 1649 0
-1647 12309 1650 0
-2065 12449 2068 0
-2066 12449 2069 0
-2067 12449 2070 0
-2485 12589 2488 0
-2486 12589 2489 0
-2487 12589 2490 0
-2905 12729 2908 0
-2906 12729 2909 0
-2907 12729 2910 0
-805 -12029 809 0
-806 -12029 810 0
-807 -12029 808 0
-1225 -12169 1229 0
-1226 -12169 1230 0
-1227 -12169 1228 0
-1645 -12309 1649 0
-1646 -12309 1650 0
-1647 -12309 1648 0
-2065 -12449 2069 0
-2066 -12449 2070 0
-2067 -12449 2068 0
-2485 -12589 2489 0
-2486 -12589 2490 0
-2487 -12589 2488 0
-12729 -2485 2909 0
-12729 -2486 2910 0
-12729 -2487 2908 0
-11889 -385 390 0
-11889 -386 388 0
-11889 -387 389 0
-388 11890 391 0
-389 11890 392 0
-390 11890 393 0
-808 12030 811 0
-809 12030 812 0
-810 12030 813 0
-1228 12170 1231 0
-1229 12170 1232 0
-1230 12170 1233 0
-1648 12310 1651 0
-1649 12310 1652 0
-1650 12310 1653 0
-2068 12450 2071 0
-2069 12450 2072 0
-2070 12450 2073 0
-2488 12590 2491 0
-2489 12590 2492 0
-2490 12590 2493 0
-2908 12730 2911 0
-2909 12730 2912 0
-2910 12730 2913 0
-808 -12030 812 0
-809 -12030 813 0
-810 -12030 811 0
-1228 -12170 1232 0
-1229 -12170 1233 0
-1230 -12170 1231 0
-1648 -12310 1652 0
-1649 -12310 1653 0
-1650 -12310 1651 0
-2068 -12450 2072 0
-2069 -12450 2073 0
-2070 -12450 2071 0
-2488 -12590 2492 0
-2489 -12590 2493 0
-2490 -12590 2491 0
-12730 -2488 2912 0
-12730 -2489 2913 0
-12730 -2490 2911 0
-11890 -388 393 0
-11890 -389 391 0
-11890 -390 392 0
-391 11891 394 0
-392 11891 395 0
-393 11891 396 0
-811 12031 814 0
-812 12031 815 0
-813 12031 816 0
-1231 12171 1234 0
-1232 12171 1235 0
-1233 12171 1236 0
-1651 12311 1654 0
-1652 12311 1655 0
-1653 12311 1656 0
-2071 12451 2074 0
-2072 12451 2075 0
-2073 12451 2076 0
-2491 12591 2494 0
-2492 12591 2495 0
-2493 12591 2496 0
-2911 12731 2914 0
-2912 12731 2915 0
-2913 12731 2916 0
-811 -12031 815 0
-812 -12031 816 0
-813 -12031 814 0
-1231 -12171 1235 0
-1232 -12171 1236 0
-1233 -12171 1234 0
-1651 -12311 1655 0
-1652 -12311 1656 0
-1653 -12311 1654 0
-2071 -12451 2075 0
-2072 -12451 2076 0
-2073 -12451 2074 0
-2491 -12591 2495 0
-2492 -12591 2496 0
-2493 -12591 2494 0
-12731 -2491 2915 0
-12731 -2492 2916 0
-12731 -2493 2914 0
-11891 -391 396 0
-11891 -392 394 0
-11891 -393 395 0
-394 11892 397 0
-395 11892 398 0
-396 11892 399 0
-814 12032 817 0
-815 12032 818 0
-816 12032 819 0
-1234 12172 1237 0
-1235 12172 1238 0
-1236 12172 1239 0
-1654 12312 1657 0
-1655 12312 1658 0
-1656 12312 1659 0
-2074 12452 2077 0
-2075 12452 2078 0
-2076 12452 2079 0
-2494 12592 2497 0
-2495 12592 2498 0
-2496 12592 2499 0
-2914 12732 2917 0
-2915 12732 2918 0
-2916 12732 2919 0
-814 -12032 818 0
-815 -12032 819 0
-816 -12032 817 0
-1234 -12172 1238 0
-1235 -12172 1239 0
-1236 -12172 1237 0
-1654 -12312 1658 0
-1655 -12312 1659 0
-1656 -12312 1657 0
-2074 -12452 2078 0
-2075 -12452 2079 0
-2076 -12452 2077 0
-2494 -12592 2498 0
-2495 -12592 2499 0
-2496 -12592 2497 0
-12732 -2494 2918 0
-12732 -2495 2919 0
-12732 -2496 2917 0
-11892 -394 399 0
-11892 -395 397 0
-11892 -396 398 0
-397 11893 400 0
-398 11893 401 0
-399 11893 402 0
-817 12033 820 0
-818 12033 821 0
-819 12033 822 0
-1237 12173 1240 0
-1238 12173 1241 0
-1239 12173 1242 0
-1657 12313 1660 0
-1658 12313 1661 0
-1659 12313 1662 0
-2077 12453 2080 0
-2078 12453 2081 0
-2079 12453 2082 0
-2497 12593 2500 0
-2498 12593 2501 0
-2499 12593 2502 0
-2917 12733 2920 0
-2918 12733 2921 0
-2919 12733 2922 0
-817 -12033 821 0
-818 -12033 822 0
-819 -12033 820 0
-1237 -12173 1241 0
-1238 -12173 1242 0
-1239 -12173 1240 0
-1657 -12313 1661 0
-1658 -12313 1662 0
-1659 -12313 1660 0
-2077 -12453 2081 0
-2078 -12453 2082 0
-2079 -12453 2080 0
-2497 -12593 2501 0
-2498 -12593 2502 0
-2499 -12593 2500 0
-12733 -2497 2921 0
-12733 -2498 2922 0
-12733 -2499 2920 0
-11893 -397 402 0
-11893 -398 400 0
-11893 -399 401 0
-400 11894 403 0
-401 11894 404 0
-402 11894 405 0
-820 12034 823 0
-821 12034 824 0
-822 12034 825 0
-1240 12174 1243 0
-1241 12174 1244 0
-1242 12174 1245 0
-1660 12314 1663 0
-1661 12314 1664 0
-1662 12314 1665 0
-2080 12454 2083 0
-2081 12454 2084 0
-2082 12454 2085 0
-2500 12594 2503 0
-2501 12594 2504 0
-2502 12594 2505 0
-2920 12734 2923 0
-2921 12734 2924 0
-2922 12734 2925 0
-820 -12034 824 0
-821 -12034 825 0
-822 -12034 823 0
-1240 -12174 1244 0
-1241 -12174 1245 0
-1242 -12174 1243 0
-1660 -12314 1664 0
-1661 -12314 1665 0
-1662 -12314 1663 0
-2080 -12454 2084 0
-2081 -12454 2085 0
-2082 -12454 2083 0
-2500 -12594 2504 0
-2501 -12594 2505 0
-2502 -12594 2503 0
-12734 -2500 2924 0
-12734 -2501 2925 0
-12734 -2502 2923 0
-11894 -400 405 0
-11894 -401 403 0
-11894 -402 404 0
-403 11895 406 0
-404 11895 407 0
-405 11895 408 0
-823 12035 826 0
-824 12035 827 0
-825 12035 828 0
-1243 12175 1246 0
-1244 12175 1247 0
-1245 12175 1248 0
-1663 12315 1666 0
-1664 12315 1667 0
-1665 12315 1668 0
-2083 12455 2086 0
-2084 12455 2087 0
-2085 12455 2088 0
-2503 12595 2506 0
-2504 12595 2507 0
-2505 12595 2508 0
-2923 12735 2926 0
-2924 12735 2927 0
-2925 12735 2928 0
-823 -12035 827 0
-824 -12035 828 0
-825 -12035 826 0
-1243 -12175 1247 0
-1244 -12175 1248 0
-1245 -12175 1246 0
-1663 -12315 1667 0
-1664 -12315 1668 0
-1665 -12315 1666 0
-2083 -12455 2087 0
-2084 -12455 2088 0
-2085 -12455 2086 0
-2503 -12595 2507 0
-2504 -12595 2508 0
-2505 -12595 2506 0
-12735 -2503 2927 0
-12735 -2504 2928 0
-12735 -2505 2926 0
-11895 -403 408 0
-11895 -404 406 0
-11895 -405 407 0
-406 11896 409 0
-407 11896 410 0
-408 11896 411 0
-826 12036 829 0
-827 12036 830 0
-828 12036 831 0
-1246 12176 1249 0
-1247 12176 1250 0
-1248 12176 1251 0
-1666 12316 1669 0
-1667 12316 1670 0
-1668 12316 1671 0
-2086 12456 2089 0
-2087 12456 2090 0
-2088 12456 2091 0
-2506 12596 2509 0
-2507 12596 2510 0
-2508 12596 2511 0
-2926 12736 2929 0
-2927 12736 2930 0
-2928 12736 2931 0
-826 -12036 830 0
-827 -12036 831 0
-828 -12036 829 0
-1246 -12176 1250 0
-1247 -12176 1251 0
-1248 -12176 1249 0
-1666 -12316 1670 0
-1667 -12316 1671 0
-1668 -12316 1669 0
-2086 -12456 2090 0
-2087 -12456 2091 0
-2088 -12456 2089 0
-2506 -12596 2510 0
-2507 -12596 2511 0
-2508 -12596 2509 0
-12736 -2506 2930 0
-12736 -2507 2931 0
-12736 -2508 2929 0
-11896 -406 411 0
-11896 -407 409 0
-11896 -408 410 0
-409 11897 412 0
-410 11897 413 0
-411 11897 414 0
-829 12037 832 0
-830 12037 833 0
-831 12037 834 0
-1249 12177 1252 0
-1250 12177 1253 0
-1251 12177 1254 0
-1669 12317 1672 0
-1670 12317 1673 0
-1671 12317 1674 0
-2089 12457 2092 0
-2090 12457 2093 0
-2091 12457 2094 0
-2509 12597 2512 0
-2510 12597 2513 0
-2511 12597 2514 0
-2929 12737 2932 0
-2930 12737 2933 0
-2931 12737 2934 0
-829 -12037 833 0
-830 -12037 834 0
-831 -12037 832 0
-1249 -12177 1253 0
-1250 -12177 1254 0
-1251 -12177 1252 0
-1669 -12317 1673 0
-1670 -12317 1674 0
-1671 -12317 1672 0
-2089 -12457 2093 0
-2090 -12457 2094 0
-2091 -12457 2092 0
-2509 -12597 2513 0
-2510 -12597 2514 0
-2511 -12597 2512 0
-12737 -2509 2933 0
-12737 -2510 2934 0
-12737 -2511 2932 0
-11897 -409 414 0
-11897 -410 412 0
-11897 -411 413 0
-412 11898 415 0
-413 11898 416 0
-414 11898 417 0
-832 12038 835 0
-833 12038 836 0
-834 12038 837 0
-1252 12178 1255 0
-1253 12178 1256 0
-1254 12178 1257 0
-1672 12318 1675 0
-1673 12318 1676 0
-1674 12318 1677 0
-2092 12458 2095 0
-2093 12458 2096 0
-2094 12458 2097 0
-2512 12598 2515 0
-2513 12598 2516 0
-2514 12598 2517 0
-2932 12738 2935 0
-2933 12738 2936 0
-2934 12738 2937 0
-832 -12038 836 0
-833 -12038 837 0
-834 -12038 835 0
-1252 -12178 1256 0
-1253 -12178 1257 0
-1254 -12178 1255 0
-1672 -12318 1676 0
-1673 -12318 1677 0
-1674 -12318 1675 0
-2092 -12458 2096 0
-2093 -12458 2097 0
-2094 -12458 2095 0
-2512 -12598 2516 0
-2513 -12598 2517 0
-2514 -12598 2515 0
-12738 -2512 2936 0
-12738 -2513 2937 0
-12738 -2514 2935 0
-11898 -412 417 0
-11898 -413 415 0
-11898 -414 416 0
-415 11899 418 0
-416 11899 419 0
-417 11899 420 0
-835 12039 838 0
-836 12039 839 0
-837 12039 840 0
-1255 12179 1258 0
-1256 12179 1259 0
-1257 12179 1260 0
-1675 12319 1678 0
-1676 12319 1679 0
-1677 12319 1680 0
-2095 12459 2098 0
-2096 12459 2099 0
-2097 12459 2100 0
-2515 12599 2518 0
-2516 12599 2519 0
-2517 12599 2520 0
-2935 12739 2938 0
-2936 12739 2939 0
-2937 12739 2940 0
-835 -12039 839 0
-836 -12039 840 0
-837 -12039 838 0
-1255 -12179 1259 0
-1256 -12179 1260 0
-1257 -12179 1258 0
-1675 -12319 1679 0
-1676 -12319 1680 0
-1677 -12319 1678 0
-2095 -12459 2099 0
-2096 -12459 2100 0
-2097 -12459 2098 0
-2515 -12599 2519 0
-2516 -12599 2520 0
-2517 -12599 2518 0
-12739 -2515 2939 0
-12739 -2516 2940 0
-12739 -2517 2938 0
-11899 -415 420 0
-11899 -416 418 0
-11899 -417 419 0
-26601 0
10920 26602 0
11060 26602 0
10920 11060 26603 0
11200 26604 0
11340 26604 0
11200 11340 26605 0
-26602 26606 0
-26604 26606 0
-26602 -26604 26607 0
-26603 26608 0
-26605 26608 0
-26603 -26605 26609 0
-26607 26610 0
-26608 26610 0
-26607 -26608 26611 0
11480 26612 0
11620 26612 0
11480 11620 26613 0
11760 26614 0
-26601 26614 0
11760 -26601 26615 0
-26612 26616 0
-26614 26616 0
-26612 -26614 26617 0
-26613 26618 0
-26615 26618 0
-26613 -26615 26619 0
-26617 26620 0
-26618 26620 0
-26617 -26618 26621 0
-26606 26622 0
-26616 26622 0
-26606 -26616 26623 0
-26611 26624 0
-26621 26624 0
-26611 -26621 26625 0
-26623 26626 0
-26624 26626 0
-26623 -26624 26627 0
-26610 26628 0
-26620 26628 0
-26610 -26620 26629 0
-26609 26630 0
-26619 26630 0
-26609 -26619 26631 0
-26629 26632 0
-26630 26632 0
-26629 -26630 26633 0
-26626 26634 0
-26628 26634 0
-26626 -26628 26635 0
-26627 26636 0
-26632 26636 0
-26627 -26632 26637 0
-26625 26638 0
-26633 26638 0
-26625 -26633 26639 0
-26638 0
-11761 -12601 0
-11761 -11901 0
-11901 -11761 0
-11901 -12041 0
-12041 -11901 0
-12041 -12181 0
-12181 -12041 0
-12181 -12321 0
-12321 -12181 0
-12321 -12461 0
-12461 -12321 0
-12461 -12601 0
-12601 -12461 0
-12601 -11761 0
-11762 -12602 0
-11762 -11902 0
-11902 -11762 0
-11902 -12042 0
-12042 -11902 0
-12042 -12182 0
-12182 -12042 0
-12182 -12322 0
-12322 -12182 0
-12322 -12462 0
-12462 -12322 0
-12462 -12602 0
-12602 -12462 0
-12602 -11762 0
-11763 -12603 0
-11763 -11903 0
-11903 -11763 0
-11903 -12043 0
-12043 -11903 0
-12043 -12183 0
-12183 -12043 0
-12183 -12323 0
-12323 -12183 0
-12323 -12463 0
-12463 -12323 0
-12463 -12603 0
-12603 -12463 0
-12603 -11763 0
-11764 -12604 0
-11764 -11904 0
-11904 -11764 0
-11904 -12044 0
-12044 -11904 0
-12044 -12184 0
-12184 -12044 0
-12184 -12324 0
-12324 -12184 0
-12324 -12464 0
-12464 -12324 0
-12464 -12604 0
-12604 -12464 0
-12604 -11764 0
-11765 -12605 0
-11765 -11905 0
-11905 -11765 0
-11905 -12045 0
-12045 -11905 0
-12045 -12185 0
-12185 -12045 0
-12185 -12325 0
-12325 -12185 0
-12325 -12465 0
-12465 -12325 0
-12465 -12605 0
-12605 -12465 0
-12605 -11765 0
-11766 -12606 0
-11766 -11906 0
-11906 -11766 0
-11906 -12046 0
-12046 -11906 0
-12046 -12186 0
-12186 -12046 0
-12186 -12326 0
-12326 -12186 0
-12326 -12466 0
-12466 -12326 0
-12466 -12606 0
-12606 -12466 0
-12606 -11766 0
-11767 -12607 0
-11767 -11907 0
-11907 -11767 0
-11907 -12047 0
-12047 -11907 0
-12047 -12187 0
-12187 -12047 0
-12187 -12327 0
-12327 -12187 0
-12327 -12467 0
-12467 -12327 0
-12467 -12607 0
-12607 -12467 0
-12607 -11767 0
-11768 -12608 0
-11768 -11908 0
-11908 -11768 0
-11908 -12048 0
-12048 -11908 0
-12048 -12188 0
-12188 -12048 0
-12188 -12328 0
-12328 -12188 0
-12328 -12468 0
-12468 -12328 0
-12468 -12608 0
-12608 -12468 0
-12608 -11768 0
-11769 -12609 0
-11769 -11909 0
-11909 -11769 0
-11909 -12049 0
-12049 -11909 0
-12049 -12189 0
-12189 -12049 0
-12189 -12329 0
-12329 -12189 0
-12329 -12469 0
-12469 -12329 0
-12469 -12609 0
-12609 -12469 0
-12609 -11769 0
-11770 -12610 0
-11770 -11910 0
-11910 -11770 0
-11910 -12050 0
-12050 -11910 0
-12050 -12190 0
-12190 -12050 0
-12190 -12330 0
-12330 -12190 0
-12330 -12470 0
-12470 -12330 0
-12470 -12610 0
-12610 -12470 0
-12610 -11770 0
-11771 -12611 0
-11771 -11911 0
-11911 -11771 0
-11911 -12051 0
-12051 -11911 0
-12051 -12191 0
-12191 -12051 0
-12191 -12331 0
-12331 -12191 0
-12331 -12471 0
-12471 -12331 0
-12471 -12611 0
-12611 -12471 0
-12611 -11771 0
-11772 -12612 0
-11772 -11912 0
-11912 -11772 0
-11912 -12052 0
-12052 -11912 0
-12052 -12192 0
-12192 -12052 0
-12192 -12332 0
-12332 -12192 0
-12332 -12472 0
-12472 -12332 0
-12472 -12612 0
-12612 -12472 0
-12612 -11772 0
-11773 -12613 0
-11773 -11913 0
-11913 -11773 0
-11913 -12053 0
-12053 -11913 0
-12053 -12193 0
-12193 -12053 0
-12193 -12333 0
-12333 -12193 0
-12333 -12473 0
-12473 -12333 0
-12473 -12613 0
-12613 -12473 0
-12613 -11773 0
-11774 -12614 0
-11774 -11914 0
-11914 -11774 0
-11914 -12054 0
-12054 -11914 0
-12054 -12194 0
-12194 -12054 0
-12194 -12334 0
-12334 -12194 0
-12334 -12474 0
-12474 -12334 0
-12474 -12614 0
-12614 -12474 0
-12614 -11774 0
-11775 -12615 0
-11775 -11915 0
-11915 -11775 0
-11915 -12055 0
-12055 -11915 0
-12055 -12195 0
-12195 -12055 0
-12195 -12335 0
-12335 -12195 0
-12335 -12475 0
-12475 -12335 0
-12475 -12615 0
-12615 -12475 0
-12615 -11775 0
-11776 -12616 0
-11776 -11916 0
-11916 -11776 0
-11916 -12056 0
-12056 -11916 0
-12056 -12196 0
-12196 -12056 0
-12196 -12336 0
-12336 -12196 0
-12336 -12476 0
-12476 -12336 0
-12476 -12616 0
-12616 -12476 0
-12616 -11776 0
-11777 -12617 0
-11777 -11917 0
-11917 -11777 0
-11917 -12057 0
-12057 -11917 0
-12057 -12197 0
-12197 -12057 0
-12197 -12337 0
-12337 -12197 0
-12337 -12477 0
-12477 -12337 0
-12477 -12617 0
-12617 -12477 0
-12617 -11777 0
-11778 -12618 0
-11778 -11918 0
-11918 -11778 0
-11918 -12058 0
-12058 -11918 0
-12058 -12198 0
-12198 -12058 0
-12198 -12338 0
-12338 -12198 0
-12338 -12478 0
-12478 -12338 0
-12478 -12618 0
-12618 -12478 0
-12618 -11778 0
-11779 -12619 0
-11779 -11919 0
-11919 -11779 0
-11919 -12059 0
-12059 -11919 0
-12059 -12199 0
-12199 -12059 0
-12199 -12339 0
-12339 -12199 0
-12339 -12479 0
-12479 -12339 0
-12479 -12619 0
-12619 -12479 0
-12619 -11779 0
-11780 -12620 0
-11780 -11920 0
-11920 -11780 0
-11920 -12060 0
-12060 -11920 0
-12060 -12200 0
-12200 -12060 0
-12200 -12340 0
-12340 -12200 0
-12340 -12480 0
-12480 -12340 0
-12480 -12620 0
-12620 -12480 0
-12620 -11780 0
-11781 -12621 0
-11781 -11921 0
-11921 -11781 0
-11921 -12061 0
-12061 -11921 0
-12061 -12201 0
-12201 -12061 0
-12201 -12341 0
-12341 -12201 0
-12341 -12481 0
-12481 -12341 0
-12481 -12621 0
-12621 -12481 0
-12621 -11781 0
-11782 -12622 0
-11782 -11922 0
-11922 -11782 0
-11922 -12062 0
-12062 -11922 0
-12062 -12202 0
-12202 -12062 0
-12202 -12342 0
-12342 -12202 0
-12342 -12482 0
-12482 -12342 0
-12482 -12622 0
-12622 -12482 0
-12622 -11782 0
-11783 -12623 0
-11783 -11923 0
-11923 -11783 0
-11923 -12063 0
-12063 -11923 0
-12063 -12203 0
-12203 -12063 0
-12203 -12343 0
-12343 -12203 0
-12343 -12483 0
-12483 -12343 0
-12483 -12623 0
-12623 -12483 0
-12623 -11783 0
-11784 -12624 0
-11784 -11924 0
-11924 -11784 0
-11924 -12064 0
-12064 -11924 0
-12064 -12204 0
-12204 -12064 0
-12204 -12344 0
-12344 -12204 0
-12344 -12484 0
-12484 -12344 0
-12484 -12624 0
-12624 -12484 0
-12624 -11784 0
-11785 -12625 0
-11785 -11925 0
-11925 -11785 0
-11925 -12065 0
-12065 -11925 0
-12065 -12205 0
-12205 -12065 0
-12205 -12345 0
-12345 -12205 0
-12345 -12485 0
-12485 -12345 0
-12485 -12625 0
-12625 -12485 0
-12625 -11785 0
-11786 -12626 0
-11786 -11926 0
-11926 -11786 0
-11926 -12066 0
-12066 -11926 0
-12066 -12206 0
-12206 -12066 0
-12206 -12346 0
-12346 -12206 0
-12346 -12486 0
-12486 -12346 0
-12486 -12626 0
-12626 -12486 0
-12626 -11786 0
-11787 -12627 0
-11787 -11927 0
-11927 -11787 0
-11927 -12067 0
-12067 -11927 0
-12067 -12207 0
-12207 -12067 0
-12207 -12347 0
-12347 -12207 0
-12347 -12487 0
-12487 -12347 0
-12487 -12627 0
-12627 -12487 0
-12627 -11787 0
-11788 -12628 0
-11788 -11928 0
-11928 -11788 0
-11928 -12068 0
-12068 -11928 0
-12068 -12208 0
-12208 -12068 0
-12208 -12348 0
-12348 -12208 0
-12348 -12488 0
-12488 -12348 0
-12488 -12628 0
-12628 -12488 0
-12628 -11788 0
-11789 -12629 0
-11789 -11929 0
-11929 -11789 0
-11929 -12069 0
-12069 -11929 0
-12069 -12209 0
-12209 -12069 0
-12209 -12349 0
-12349 -12209 0
-12349 -12489 0
-12489 -12349 0
-12489 -12629 0
-12629 -12489 0
-12629 -11789 0
-11790 -12630 0
-11790 -11930 0
-11930 -11790 0
-11930 -12070 0
-12070 -11930 0
-12070 -12210 0
-12210 -12070 0
-12210 -12350 0
-12350 -12210 0
-12350 -12490 0
-12490 -12350 0
-12490 -12630 0
-12630 -12490 0
-12630 -11790 0
-11791 -12631 0
-11791 -11931 0
-11931 -11791 0
-11931 -12071 0
-12071 -11931 0
-12071 -12211 0
-12211 -12071 0
-12211 -12351 0
-12351 -12211 0
-12351 -12491 0
-12491 -12351 0
-12491 -12631 0
-12631 -12491 0
-12631 -11791 0
-11792 -12632 0
-11792 -11932 0
-11932 -11792 0
-11932 -12072 0
-12072 -11932 0
-12072 -12212 0
-12212 -12072 0
-12212 -12352 0
-12352 -12212 0
-12352 -12492 0
-12492 -12352 0
-12492 -12632 0
-12632 -12492 0
-12632 -11792 0
-11793 -12633 0
-11793 -11933 0
-11933 -11793 0
-11933 -12073 0
-12073 -11933 0
-12073 -12213 0
-12213 -12073 0
-12213 -12353 0
-12353 -12213 0
-12353 -12493 0
-12493 -12353 0
-12493 -12633 0
-12633 -12493 0
-12633 -11793 0
-11794 -12634 0
-11794 -11934 0
-11934 -11794 0
-11934 -12074 0
-12074 -11934 0
-12074 -12214 0
-12214 -12074 0
-12214 -12354 0
-12354 -12214 0
-12354 -12494 0
-12494 -12354 0
-12494 -12634 0
-12634 -12494 0
-12634 -11794 0
-11795 -12635 0
-11795 -11935 0
-11935 -11795 0
-11935 -12075 0
-12075 -11935 0
-12075 -12215 0
-12215 -12075 0
-12215 -12355 0
-12355 -12215 0
-12355 -12495 0
-12495 -12355 0
-12495 -12635 0
-12635 -12495 0
-12635 -11795 0
-11796 -12636 0
-11796 -11936 0
-11936 -11796 0
-11936 -12076 0
-12076 -11936 0
-12076 -12216 0
-12216 -12076 0
-12216 -12356 0
-12356 -12216 0
-12356 -12496 0
-12496 -12356 0
-12496 -12636 0
-12636 -12496 0
-12636 -11796 0
-11797 -12637 0
-11797 -11937 0
-11937 -11797 0
-11937 -12077 0
-12077 -11937 0
-12077 -12217 0
-12217 -12077 0
-12217 -12357 0
-12357 -12217 0
-12357 -12497 0
-12497 -12357 0
-12497 -12637 0
-12637 -12497 0
-12637 -11797 0
-11798 -12638 0
-11798 -11938 0
-11938 -11798 0
-11938 -12078 0
-12078 -11938 0
-12078 -12218 0
-12218 -12078 0
-12218 -12358 0
-12358 -12218 0
-12358 -12498 0
-12498 -12358 0
-12498 -12638 0
-12638 -12498 0
-12638 -11798 0
-11799 -12639 0
-11799 -11939 0
-11939 -11799 0
-11939 -12079 0
-12079 -11939 0
-12079 -12219 0
-12219 -12079 0
-12219 -12359 0
-12359 -12219 0
-12359 -12499 0
-12499 -12359 0
-12499 -12639 0
-12639 -12499 0
-12639 -11799 0
-11800 -12640 0
-11800 -11940 0
-11940 -11800 0
-11940 -12080 0
-12080 -11940 0
-12080 -12220 0
-12220 -12080 0
-12220 -12360 0
-12360 -12220 0
-12360 -12500 0
-12500 -12360 0
-12500 -12640 0
-12640 -12500 0
-12640 -11800 0
-11801 -12641 0
-11801 -11941 0
-11941 -11801 0
-11941 -12081 0
-12081 -11941 0
-12081 -12221 0
-12221 -12081 0
-12221 -12361 0
-12361 -12221 0
-12361 -12501 0
-12501 -12361 0
-12501 -12641 0
-12641 -12501 0
-12641 -11801 0
-11802 -12642 0
-11802 -11942 0
-11942 -11802 0
-11942 -12082 0
-12082 -11942 0
-12082 -12222 0
-12222 -12082 0
-12222 -12362 0
-12362 -12222 0
-12362 -12502 0
-12502 -12362 0
-12502 -12642 0
-12642 -12502 0
-12642 -11802 0
-11803 -12643 0
-11803 -11943 0
-11943 -11803 0
-11943 -12083 0
-12083 -11943 0
-12083 -12223 0
-12223 -12083 0
-12223 -12363 0
-12363 -12223 0
-12363 -12503 0
-12503 -12363 0
-12503 -12643 0
-12643 -12503 0
-12643 -11803 0
-11804 -12644 0
-11804 -11944 0
-11944 -11804 0
-11944 -12084 0
-12084 -11944 0
-12084 -12224 0
-12224 -12084 0
-12224 -12364 0
-12364 -12224 0
-12364 -12504 0
-12504 -12364 0
-12504 -12644 0
-12644 -12504 0
-12644 -11804 0
-11805 -12645 0
-11805 -11945 0
-11945 -11805 0
-11945 -12085 0
-12085 -11945 0
-12085 -12225 0
-12225 -12085 0
-12225 -12365 0
-12365 -12225 0
-12365 -12505 0
-12505 -12365 0
-12505 -12645 0
-12645 -12505 0
-12645 -11805 0
-11806 -12646 0
-11806 -11946 0
-11946 -11806 0
-11946 -12086 0
-12086 -11946 0
-12086 -12226 0
-12226 -12086 0
-12226 -12366 0
-12366 -12226 0
-12366 -12506 0
-12506 -12366 0
-12506 -12646 0
-12646 -12506 0
-12646 -11806 0
-11807 -12647 0
-11807 -11947 0
-11947 -11807 0
-11947 -12087 0
-12087 -11947 0
-12087 -12227 0
-12227 -12087 0
-12227 -12367 0
-12367 -12227 0
-12367 -12507 0
-12507 -12367 0
-12507 -12647 0
-12647 -12507 0
-12647 -11807 0
-11808 -12648 0
-11808 -11948 0
-11948 -11808 0
-11948 -12088 0
-12088 -11948 0
-12088 -12228 0
-12228 -12088 0
-12228 -12368 0
-12368 -12228 0
-12368 -12508 0
-12508 -12368 0
-12508 -12648 0
-12648 -12508 0
-12648 -11808 0
-11809 -12649 0
-11809 -11949 0
-11949 -11809 0
-11949 -12089 0
-12089 -11949 0
-12089 -12229 0
-12229 -12089 0
-12229 -12369 0
-12369 -12229 0
-12369 -12509 0
-12509 -12369 0
-12509 -12649 0
-12649 -12509 0
-12649 -11809 0
-11810 -12650 0
-11810 -11950 0
-11950 -11810 0
-11950 -12090 0
-12090 -11950 0
-12090 -12230 0
-12230 -12090 0
-12230 -12370 0
-12370 -12230 0
-12370 -12510 0
-12510 -12370 0
-12510 -12650 0
-12650 -12510 0
-12650 -11810 0
-11811 -12651 0
-11811 -11951 0
-11951 -11811 0
-11951 -12091 0
-12091 -11951 0
-12091 -12231 0
-12231 -12091 0
-12231 -12371 0
-12371 -12231 0
-12371 -12511 0
-12511 -12371 0
-12511 -12651 0
-12651 -12511 0
-12651 -11811 0
-11812 -12652 0
-11812 -11952 0
-11952 -11812 0
-11952 -12092 0
-12092 -11952 0
-12092 -12232 0
-12232 -12092 0
-12232 -12372 0
-12372 -12232 0
-12372 -12512 0
-12512 -12372 0
-12512 -12652 0
-12652 -12512 0
-12652 -11812 0
-11813 -12653 0
-11813 -11953 0
-11953 -11813 0
-11953 -12093 0
-12093 -11953 0
-12093 -12233 0
-12233 -12093 0
-12233 -12373 0
-12373 -12233 0
-12373 -12513 0
-12513 -12373 0
-12513 -12653 0
-12653 -12513 0
-12653 -11813 0
-11814 -12654 0
-11814 -11954 0
-11954 -11814 0
-11954 -12094 0
-12094 -11954 0
-12094 -12234 0
-12234 -12094 0
-12234 -12374 0
-12374 -12234 0
-12374 -12514 0
-12514 -12374 0
-12514 -12654 0
-12654 -12514 0
-12654 -11814 0
-11815 -12655 0
-11815 -11955 0
-11955 -11815 0
-11955 -12095 0
-12095 -11955 0
-12095 -12235 0
-12235 -12095 0
-12235 -12375 0
-12375 -12235 0
-12375 -12515 0
-12515 -12375 0
-12515 -12655 0
-12655 -12515 0
-12655 -11815 0
-11816 -12656 0
-11816 -11956 0
-11956 -11816 0
-11956 -12096 0
-12096 -11956 0
-12096 -12236 0
-12236 -12096 0
-12236 -12376 0
-12376 -12236 0
-12376 -12516 0
-12516 -12376 0
-12516 -12656 0
-12656 -12516 0
-12656 -11816 0
-11817 -12657 0
-11817 -11957 0
-11957 -11817 0
-11957 -12097 0
-12097 -11957 0
-12097 -12237 0
-12237 -12097 0
-12237 -12377 0
-12377 -12237 0
-12377 -12517 0
-12517 -12377 0
-12517 -12657 0
-12657 -12517 0
-12657 -11817 0
-11818 -12658 0
-11818 -11958 0
-11958 -11818 0
-11958 -12098 0
-12098 -11958 0
-12098 -12238 0
-12238 -12098 0
-12238 -12378 0
-12378 -12238 0
-12378 -12518 0
-12518 -12378 0
-12518 -12658 0
-12658 -12518 0
-12658 -11818 0
-11819 -12659 0
-11819 -11959 0
-11959 -11819 0
-11959 -12099 0
-12099 -11959 0
-12099 -12239 0
-12239 -12099 0
-12239 -12379 0
-12379 -12239 0
-12379 -12519 0
-12519 -12379 0
-12519 -12659 0
-12659 -12519 0
-12659 -11819 0
-11820 -12660 0
-11820 -11960 0
-11960 -11820 0
-11960 -12100 0
-12100 -11960 0
-12100 -12240 0
-12240 -12100 0
-12240 -12380 0
-12380 -12240 0
-12380 -12520 0
-12520 -12380 0
-12520 -12660 0
-12660 -12520 0
-12660 -11820 0
-11821 -12661 0
-11821 -11961 0
-11961 -11821 0
-11961 -12101 0
-12101 -11961 0
-12101 -12241 0
-12241 -12101 0
-12241 -12381 0
-12381 -12241 0
-12381 -12521 0
-12521 -12381 0
-12521 -12661 0
-12661 -12521 0
-12661 -11821 0
-11822 -12662 0
-11822 -11962 0
-11962 -11822 0
-11962 -12102 0
-12102 -11962 0
-12102 -12242 0
-12242 -12102 0
-12242 -12382 0
-12382 -12242 0
-12382 -12522 0
-12522 -12382 0
-12522 -12662 0
-12662 -12522 0
-12662 -11822 0
-11823 -12663 0
-11823 -11963 0
-11963 -11823 0
-11963 -12103 0
-12103 -11963 0
-12103 -12243 0
-12243 -12103 0
-12243 -12383 0
-12383 -12243 0
-12383 -12523 0
-12523 -12383 0
-12523 -12663 0
-12663 -12523 0
-12663 -11823 0
-11824 -12664 0
-11824 -11964 0
-11964 -11824 0
-11964 -12104 0
-12104 -11964 0
-12104 -12244 0
-12244 -12104 0
-12244 -12384 0
-12384 -12244 0
-12384 -12524 0
-12524 -12384 0
-12524 -12664 0
-12664 -12524 0
-12664 -11824 0
-11825 -12665 0
-11825 -11965 0
-11965 -11825 0
-11965 -12105 0
-12105 -11965 0
-12105 -12245 0
-12245 -12105 0
-12245 -12385 0
-12385 -12245 0
-12385 -12525 0
-12525 -12385 0
-12525 -12665 0
-12665 -12525 0
-12665 -11825 0
-11826 -12666 0
-11826 -11966 0
-11966 -11826 0
-11966 -12106 0
-12106 -11966 0
-12106 -12246 0
-12246 -12106 0
-12246 -12386 0
-12386 -12246 0
-12386 -12526 0
-12526 -12386 0
-12526 -12666 0
-12666 -12526 0
-12666 -11826 0
-11827 -12667 0
-11827 -11967 0
-11967 -11827 0
-11967 -12107 0
-12107 -11967 0
-12107 -12247 0
-12247 -12107 0
-12247 -12387 0
-12387 -12247 0
-12387 -12527 0
-12527 -12387 0
-12527 -12667 0
-12667 -12527 0
-12667 -11827 0
-11828 -12668 0
-11828 -11968 0
-11968 -11828 0
-11968 -12108 0
-12108 -11968 0
-12108 -12248 0
-12248 -12108 0
-12248 -12388 0
-12388 -12248 0
-12388 -12528 0
-12528 -12388 0
-12528 -12668 0
-12668 -12528 0
-12668 -11828 0
-11829 -12669 0
-11829 -11969 0
-11969 -11829 0
-11969 -12109 0
-12109 -11969 0
-12109 -12249 0
-12249 -12109 0
-12249 -12389 0
-12389 -12249 0
-12389 -12529 0
-12529 -12389 0
-12529 -12669 0
-12669 -12529 0
-12669 -11829 0
-11830 -12670 0
-11830 -11970 0
-11970 -11830 0
-11970 -12110 0
-12110 -11970 0
-12110 -12250 0
-12250 -12110 0
-12250 -12390 0
-12390 -12250 0
-12390 -12530 0
-12530 -12390 0
-12530 -12670 0
-12670 -12530 0
-12670 -11830 0
-11831 -12671 0
-11831 -11971 0
-11971 -11831 0
-11971 -12111 0
-12111 -11971 0
-12111 -12251 0
-12251 -12111 0
-12251 -12391 0
-12391 -12251 0
-12391 -12531 0
-12531 -12391 0
-12531 -12671 0
-12671 -12531 0
-12671 -11831 0
-11832 -12672 0
-11832 -11972 0
-11972 -11832 0
-11972 -12112 0
-12112 -11972 0
-12112 -12252 0
-12252 -12112 0
-12252 -12392 0
-12392 -12252 0
-12392 -12532 0
-12532 -12392 0
-12532 -12672 0
-12672 -12532 0
-12672 -11832 0
-11833 -12673 0
-11833 -11973 0
-11973 -11833 0
-11973 -12113 0
-12113 -11973 0
-12113 -12253 0
-12253 -12113 0
-12253 -12393 0
-12393 -12253 0
-12393 -12533 0
-12533 -12393 0
-12533 -12673 0
-12673 -12533 0
-12673 -11833 0
-11834 -12674 0
-11834 -11974 0
-11974 -11834 0
-11974 -12114 0
-12114 -11974 0
-12114 -12254 0
-12254 -12114 0
-12254 -12394 0
-12394 -12254 0
-12394 -12534 0
-12534 -12394 0
-12534 -12674 0
-12674 -12534 0
-12674 -11834 0
-11835 -12675 0
-11835 -11975 0
-11975 -11835 0
-11975 -12115 0
-12115 -11975 0
-12115 -12255 0
-12255 -12115 0
-12255 -12395 0
-12395 -12255 0
-12395 -12535 0
-12535 -12395 0
-12535 -12675 0
-12675 -12535 0
-12675 -11835 0
-11836 -12676 0
-11836 -11976 0
-11976 -11836 0
-11976 -12116 0
-12116 -11976 0
-12116 -12256 0
-12256 -12116 0
-12256 -12396 0
-12396 -12256 0
-12396 -12536 0
-12536 -12396 0
-12536 -12676 0
-12676 -12536 0
-12676 -11836 0
-11837 -12677 0
-11837 -11977 0
-11977 -11837 0
-11977 -12117 0
-12117 -11977 0
-12117 -12257 0
-12257 -12117 0
-12257 -12397 0
-12397 -12257 0
-12397 -12537 0
-12537 -12397 0
-12537 -12677 0
-12677 -12537 0
-12677 -11837 0
-11838 -12678 0
-11838 -11978 0
-11978 -11838 0
-11978 -12118 0
-12118 -11978 0
-12118 -12258 0
-12258 -12118 0
-12258 -12398 0
-12398 -12258 0
-12398 -12538 0
-12538 -12398 0
-12538 -12678 0
-12678 -12538 0
-12678 -11838 0
-11839 -12679 0
-11839 -11979 0
-11979 -11839 0
-11979 -12119 0
-12119 -11979 0
-12119 -12259 0
-12259 -12119 0
-12259 -12399 0
-12399 -12259 0
-12399 -12539 0
-12539 -12399 0
-12539 -12679 0
-12679 -12539 0
-12679 -11839 0
-11840 -12680 0
-11840 -11980 0
-11980 -11840 0
-11980 -12120 0
-12120 -11980 0
-12120 -12260 0
-12260 -12120 0
-12260 -12400 0
-12400 -12260 0
-12400 -12540 0
-12540 -12400 0
-12540 -12680 0
-12680 -12540 0
-12680 -11840 0
-11841 -12681 0
-11841 -11981 0
-11981 -11841 0
-11981 -12121 0
-12121 -11981 0
-12121 -12261 0
-12261 -12121 0
-12261 -12401 0
-12401 -12261 0
-12401 -12541 0
-12541 -12401 0
-12541 -12681 0
-12681 -12541 0
-12681 -11841 0
-11842 -12682 0
-11842 -11982 0
-11982 -11842 0
-11982 -12122 0
-12122 -11982 0
-12122 -12262 0
-12262 -12122 0
-12262 -12402 0
-12402 -12262 0
-12402 -12542 0
-12542 -12402 0
-12542 -12682 0
-12682 -12542 0
-12682 -11842 0
-11843 -12683 0
-11843 -11983 0
-11983 -11843 0
-11983 -12123 0
-12123 -11983 0
-12123 -12263 0
-12263 -12123 0
-12263 -12403 0
-12403 -12263 0
-12403 -12543 0
-12543 -12403 0
-12543 -12683 0
-12683 -12543 0
-12683 -11843 0
-11844 -12684 0
-11844 -11984 0
-11984 -11844 0
-11984 -12124 0
-12124 -11984 0
-12124 -12264 0
-12264 -12124 0
-12264 -12404 0
-12404 -12264 0
-12404 -12544 0
-12544 -12404 0
-12544 -12684 0
-12684 -12544 0
-12684 -11844 0
-11845 -12685 0
-11845 -11985 0
-11985 -11845 0
-11985 -12125 0
-12125 -11985 0
-12125 -12265 0
-12265 -12125 0
-12265 -12405 0
-12405 -12265 0
-12405 -12545 0
-12545 -12405 0
-12545 -12685 0
-12685 -12545 0
-12685 -11845 0
-11846 -12686 0
-11846 -11986 0
-11986 -11846 0
-11986 -12126 0
-12126 -11986 0
-12126 -12266 0
-12266 -12126 0
-12266 -12406 0
-12406 -12266 0
-12406 -12546 0
-12546 -12406 0
-12546 -12686 0
-12686 -12546 0
-12686 -11846 0
-11847 -12687 0
-11847 -11987 0
-11987 -11847 0
-11987 -12127 0
-12127 -11987 0
-12127 -12267 0
-12267 -12127 0
-12267 -12407 0
-12407 -12267 0
-12407 -12547 0
-12547 -12407 0
-12547 -12687 0
-12687 -12547 0
-12687 -11847 0
-11848 -12688 0
-11848 -11988 0
-11988 -11848 0
-11988 -12128 0
-12128 -11988 0
-12128 -12268 0
-12268 -12128 0
-12268 -12408 0
-12408 -12268 0
-12408 -12548 0
-12548 -12408 0
-12548 -12688 0
-12688 -12548 0
-12688 -11848 0
-11849 -12689 0
-11849 -11989 0
-11989 -11849 0
-11989 -12129 0
-12129 -11989 0
-12129 -12269 0
-12269 -12129 0
-12269 -12409 0
-12409 -12269 0
-12409 -12549 0
-12549 -12409 0
-12549 -12689 0
-12689 -12549 0
-12689 -11849 0
-11850 -12690 0
-11850 -11990 0
-11990 -11850 0
-11990 -12130 0
-12130 -11990 0
-12130 -12270 0
-12270 -12130 0
-12270 -12410 0
-12410 -12270 0
-12410 -12550 0
-12550 -12410 0
-12550 -12690 0
-12690 -12550 0
-12690 -11850 0
-11851 -12691 0
-11851 -11991 0
-11991 -11851 0
-11991 -12131 0
-12131 -11991 0
-12131 -12271 0
-12271 -12131 0
-12271 -12411 0
-12411 -12271 0
-12411 -12551 0
-12551 -12411 0
-12551 -12691 0
-12691 -12551 0
-12691 -11851 0
-11852 -12692 0
-11852 -11992 0
-11992 -11852 0
-11992 -12132 0
-12132 -11992 0
-12132 -12272 0
-12272 -12132 0
-12272 -12412 0
-12412 -12272 0
-12412 -12552 0
-12552 -12412 0
-12552 -12692 0
-12692 -12552 0
-12692 -11852 0
-11853 -12693 0
-11853 -11993 0
-11993 -11853 0
-11993 -12133 0
-12133 -11993 0
-12133 -12273 0
-12273 -12133 0
-12273 -12413 0
-12413 -12273 0
-12413 -12553 0
-12553 -12413 0
-12553 -12693 0
-12693 -12553 0
-12693 -11853 0
-11854 -12694 0
-11854 -11994 0
-11994 -11854 0
-11994 -12134 0
-12134 -11994 0
-12134 -12274 0
-12274 -12134 0
-12274 -12414 0
-12414 -12274 0
-12414 -12554 0
-12554 -12414 0
-12554 -12694 0
-12694 -12554 0
-12694 -11854 0
-11855 -12695 0
-11855 -11995 0
-11995 -11855 0
-11995 -12135 0
-12135 -11995 0
-12135 -12275 0
-12275 -12135 0
-12275 -12415 0
-12415 -12275 0
-12415 -12555 0
-12555 -12415 0
-12555 -12695 0
-12695 -12555 0
-12695 -11855 0
-11856 -12696 0
-11856 -11996 0
-11996 -11856 0
-11996 -12136 0
-12136 -11996 0
-12136 -12276 0
-12276 -12136 0
-12276 -12416 0
-12416 -12276 0
-12416 -12556 0
-12556 -12416 0
-12556 -12696 0
-12696 -12556 0
-12696 -11856 0
-11857 -12697 0
-11857 -11997 0
-11997 -11857 0
-11997 -12137 0
-12137 -11997 0
-12137 -12277 0
-12277 -12137 0
-12277 -12417 0
-12417 -12277 0
-12417 -12557 0
-12557 -12417 0
-12557 -12697 0
-12697 -12557 0
-12697 -11857 0
-11858 -12698 0
-11858 -11998 0
-11998 -11858 0
-11998 -12138 0
-12138 -11998 0
-12138 -12278 0
-12278 -12138 0
-12278 -12418 0
-12418 -12278 0
-12418 -12558 0
-12558 -12418 0
-12558 -12698 0
-12698 -12558 0
-12698 -11858 0
-11859 -12699 0
-11859 -11999 0
-11999 -11859 0
-11999 -12139 0
-12139 -11999 0
-12139 -12279 0
-12279 -12139 0
-12279 -12419 0
-12419 -12279 0
-12419 -12559 0
-12559 -12419 0
-12559 -12699 0
-12699 -12559 0
-12699 -11859 0
-11860 -12700 0
-11860 -12000 0
-12000 -11860 0
-12000 -12140 0
-12140 -12000 0
-12140 -12280 0
-12280 -12140 0
-12280 -12420 0
-12420 -12280 0
-12420 -12560 0
-12560 -12420 0
-12560 -12700 0
-12700 -12560 0
-12700 -11860 0
-11861 -12701 0
-11861 -12001 0
-12001 -11861 0
-12001 -12141 0
-12141 -12001 0
-12141 -12281 0
-12281 -12141 0
-12281 -12421 0
-12421 -12281 0
-12421 -12561 0
-12561 -12421 0
-12561 -12701 0
-12701 -12561 0
-12701 -11861 0
-11862 -12702 0
-11862 -12002 0
-12002 -11862 0
-12002 -12142 0
-12142 -12002 0
-12142 -12282 0
-12282 -12142 0
-12282 -12422 0
-12422 -12282 0
-12422 -12562 0
-12562 -12422 0
-12562 -12702 0
-12702 -12562 0
-12702 -11862 0
-11863 -12703 0
-11863 -12003 0
-12003 -11863 0
-12003 -12143 0
-12143 -12003 0
-12143 -12283 0
-12283 -12143 0
-12283 -12423 0
-12423 -12283 0
-12423 -12563 0
-12563 -12423 0
-12563 -12703 0
-12703 -12563 0
-12703 -11863 0
-11864 -12704 0
-11864 -12004 0
-12004 -11864 0
-12004 -12144 0
-12144 -12004 0
-12144 -12284 0
-12284 -12144 0
-12284 -12424 0
-12424 -12284 0
-12424 -12564 0
-12564 -12424 0
-12564 -12704 0
-12704 -12564 0
-12704 -11864 0
-11865 -12705 0
-11865 -12005 0
-12005 -11865 0
-12005 -12145 0
-12145 -12005 0
-12145 -12285 0
-12285 -12145 0
-12285 -12425 0
-12425 -12285 0
-12425 -12565 0
-12565 -12425 0
-12565 -12705 0
-12705 -12565 0
-12705 -11865 0
-11866 -12706 0
-11866 -12006 0
-12006 -11866 0
-12006 -12146 0
-12146 -12006 0
-12146 -12286 0
-12286 -12146 0
-12286 -12426 0
-12426 -12286 0
-12426 -12566 0
-12566 -12426 0
-12566 -12706 0
-12706 -12566 0
-12706 -11866 0
-11867 -12707 0
-11867 -12007 0
-12007 -11867 0
-12007 -12147 0
-12147 -12007 0
-12147 -12287 0
-12287 -12147 0
-12287 -12427 0
-12427 -12287 0
-12427 -12567 0
-12567 -12427 0
-12567 -12707 0
-12707 -12567 0
-12707 -11867 0
-11868 -12708 0
-11868 -12008 0
-12008 -11868 0
-12008 -12148 0
-12148 -12008 0
-12148 -12288 0
-12288 -12148 0
-12288 -12428 0
-12428 -12288 0
-12428 -12568 0
-12568 -12428 0
-12568 -12708 0
-12708 -12568 0
-12708 -11868 0
-11869 -12709 0
-11869 -12009 0
-12009 -11869 0
-12009 -12149 0
-12149 -12009 0
-12149 -12289 0
-12289 -12149 0
-12289 -12429 0
-12429 -12289 0
-12429 -12569 0
-12569 -12429 0
-12569 -12709 0
-12709 -12569 0
-12709 -11869 0
-11870 -12710 0
-11870 -12010 0
-12010 -11870 0
-12010 -12150 0
-12150 -12010 0
-12150 -12290 0
-12290 -12150 0
-12290 -12430 0
-12430 -12290 0
-12430 -12570 0
-12570 -12430 0
-12570 -12710 0
-12710 -12570 0
-12710 -11870 0
-11871 -12711 0
-11871 -12011 0
-12011 -11871 0
-12011 -12151 0
-12151 -12011 0
-12151 -12291 0
-12291 -12151 0
-12291 -12431 0
-12431 -12291 0
-12431 -12571 0
-12571 -12431 0
-12571 -12711 0
-12711 -12571 0
-12711 -11871 0
-11872 -12712 0
-11872 -12012 0
-12012 -11872 0
-12012 -12152 0
-12152 -12012 0
-12152 -12292 0
-12292 -12152 0
-12292 -12432 0
-12432 -12292 0
-12432 -12572 0
-12572 -12432 0
-12572 -12712 0
-12712 -12572 0
-12712 -11872 0
-11873 -12713 0
-11873 -12013 0
-12013 -11873 0
-12013 -12153 0
-12153 -12013 0
-12153 -12293 0
-12293 -12153 0
-12293 -12433 0
-12433 -12293 0
-12433 -12573 0
-12573 -12433 0
-12573 -12713 0
-12713 -12573 0
-12713 -11873 0
-11874 -12714 0
-11874 -12014 0
-12014 -11874 0
-12014 -12154 0
-12154 -12014 0
-12154 -12294 0
-12294 -12154 0
-12294 -12434 0
-12434 -12294 0
-12434 -12574 0
-12574 -12434 0
-12574 -12714 0
-12714 -12574 0
-12714 -11874 0
-11875 -12715 0
-11875 -12015 0
-12015 -11875 0
-12015 -12155 0
-12155 -12015 0
-12155 -12295 0
-12295 -12155 0
-12295 -12435 0
-12435 -12295 0
-12435 -12575 0
-12575 -12435 0
-12575 -12715 0
-12715 -12575 0
-12715 -11875 0
-11876 -12716 0
-11876 -12016 0
-12016 -11876 0
-12016 -12156 0
-12156 -12016 0
-12156 -12296 0
-12296 -12156 0
-12296 -12436 0
-12436 -12296 0
-12436 -12576 0
-12576 -12436 0
-12576 -12716 0
-12716 -12576 0
-12716 -11876 0
-11877 -12717 0
-11877 -12017 0
-12017 -11877 0
-12017 -12157 0
-12157 -12017 0
-12157 -12297 0
-12297 -12157 0
-12297 -12437 0
-12437 -12297 0
-12437 -12577 0
-12577 -12437 0
-12577 -12717 0
-12717 -12577 0
-12717 -11877 0
-11878 -12718 0
-11878 -12018 0
-12018 -11878 0
-12018 -12158 0
-12158 -12018 0
-12158 -12298 0
-12298 -12158 0
-12298 -12438 0
-12438 -12298 0
-12438 -12578 0
-12578 -12438 0
-12578 -12718 0
-12718 -12578 0
-12718 -11878 0
-11879 -12719 0
-11879 -12019 0
-12019 -11879 0
-12019 -12159 0
-12159 -12019 0
-12159 -12299 0
-12299 -12159 0
-12299 -12439 0
-12439 -12299 0
-12439 -12579 0
-12579 -12439 0
-12579 -12719 0
-12719 -12579 0
-12719 -11879 0
-11880 -12720 0
-11880 -12020 0
-12020 -11880 0
-12020 -12160 0
-12160 -12020 0
-12160 -12300 0
-12300 -12160 0
-12300 -12440 0
-12440 -12300 0
-12440 -12580 0
-12580 -12440 0
-12580 -12720 0
-12720 -12580 0
-12720 -11880 0
-11881 -12721 0
-11881 -12021 0
-12021 -11881 0
-12021 -12161 0
-12161 -12021 0
-12161 -12301 0
-12301 -12161 0
-12301 -12441 0
-12441 -12301 0
-12441 -12581 0
-12581 -12441 0
-12581 -12721 0
-12721 -12581 0
-12721 -11881 0
-11882 -12722 0
-11882 -12022 0
-12022 -11882 0
-12022 -12162 0
-12162 -12022 0
-12162 -12302 0
-12302 -12162 0
-12302 -12442 0
-12442 -12302 0
-12442 -12582 0
-12582 -12442 0
-12582 -12722 0
-12722 -12582 0
-12722 -11882 0
-11883 -12723 0
-11883 -12023 0
-12023 -11883 0
-12023 -12163 0
-12163 -12023 0
-12163 -12303 0
-12303 -12163 0
-12303 -12443 0
-12443 -12303 0
-12443 -12583 0
-12583 -12443 0
-12583 -12723 0
-12723 -12583 0
-12723 -11883 0
-11884 -12724 0
-11884 -12024 0
-12024 -11884 0
-12024 -12164 0
-12164 -12024 0
-12164 -12304 0
-12304 -12164 0
-12304 -12444 0
-12444 -12304 0
-12444 -12584 0
-12584 -12444 0
-12584 -12724 0
-12724 -12584 0
-12724 -11884 0
-11885 -12725 0
-11885 -12025 0
-12025 -11885 0
-12025 -12165 0
-12165 -12025 0
-12165 -12305 0
-12305 -12165 0
-12305 -12445 0
-12445 -12305 0
-12445 -12585 0
-12585 -12445 0
-12585 -12725 0
-12725 -12585 0
-12725 -11885 0
-11886 -12726 0
-11886 -12026 0
-12026 -11886 0
-12026 -12166 0
-12166 -12026 0
-12166 -12306 0
-12306 -12166 0
-12306 -12446 0
-12446 -12306 0
-12446 -12586 0
-12586 -12446 0
-12586 -12726 0
-12726 -12586 0
-12726 -11886 0
-11887 -12727 0
-11887 -12027 0
-12027 -11887 0
-12027 -12167 0
-12167 -12027 0
-12167 -12307 0
-12307 -12167 0
-12307 -12447 0
-12447 -12307 0
-12447 -12587 0
-12587 -12447 0
-12587 -12727 0
-12727 -12587 0
-12727 -11887 0
-11888 -12728 0
-11888 -12028 0
-12028 -11888 0
-12028 -12168 0
-12168 -12028 0
-12168 -12308 0
-12308 -12168 0
-12308 -12448 0
-12448 -12308 0
-12448 -12588 0
-12588 -12448 0
-12588 -12728 0
-12728 -12588 0
-12728 -11888 0
-11889 -12729 0
-11889 -12029 0
-12029 -11889 0
-12029 -12169 0
-12169 -12029 0
-12169 -12309 0
-12309 -12169 0
-12309 -12449 0
-12449 -12309 0
-12449 -12589 0
-12589 -12449 0
-12589 -12729 0
-12729 -12589 0
-12729 -11889 0
-11890 -12730 0
-11890 -12030 0
-12030 -11890 0
-12030 -12170 0
-12170 -12030 0
-12170 -12310 0
-12310 -12170 0
-12310 -12450 0
-12450 -12310 0
-12450 -12590 0
-12590 -12450 0
-12590 -12730 0
-12730 -12590 0
-12730 -11890 0
-11891 -12731 0
-11891 -12031 0
-12031 -11891 0
-12031 -12171 0
-12171 -12031 0
-12171 -12311 0
-12311 -12171 0
-12311 -12451 0
-12451 -12311 0
-12451 -12591 0
-12591 -12451 0
-12591 -12731 0
-12731 -12591 0
-12731 -11891 0
-11892 -12732 0
-11892 -12032 0
-12032 -11892 0
-12032 -12172 0
-12172 -12032 0
-12172 -12312 0
-12312 -12172 0
-12312 -12452 0
-12452 -12312 0
-12452 -12592 0
-12592 -12452 0
-12592 -12732 0
-12732 -12592 0
-12732 -11892 0
-11893 -12733 0
-11893 -12033 0
-12033 -11893 0
-12033 -12173 0
-12173 -12033 0
-12173 -12313 0
-12313 -12173 0
-12313 -12453 0
-12453 -12313 0
-12453 -12593 0
-12593 -12453 0
-12593 -12733 0
-12733 -12593 0
-12733 -11893 0
-11894 -12734 0
-11894 -12034 0
-12034 -11894 0
-12034 -12174 0
-12174 -12034 0
-12174 -12314 0
-12314 -12174 0
-12314 -12454 0
-12454 -12314 0
-12454 -12594 0
-12594 -12454 0
-12594 -12734 0
-12734 -12594 0
-12734 -11894 0
-11895 -12735 0
-11895 -12035 0
-12035 -11895 0
-12035 -12175 0
-12175 -12035 0
-12175 -12315 0
-12315 -12175 0
-12315 -12455 0
-12455 -12315 0
-12455 -12595 0
-12595 -12455 0
-12595 -12735 0
-12735 -12595 0
-12735 -11895 0
-11896 -12736 0
-11896 -12036 0
-12036 -11896 0
-12036 -12176 0
-12176 -12036 0
-12176 -12316 0
-12316 -12176 0
-12316 -12456 0
-12456 -12316 0
-12456 -12596 0
-12596 -12456 0
-12596 -12736 0
-12736 -12596 0
-12736 -11896 0
-11897 -12737 0
-11897 -12037 0
-12037 -11897 0
-12037 -12177 0
-12177 -12037 0
-12177 -12317 0
-12317 -12177 0
-12317 -12457 0
-12457 -12317 0
-12457 -12597 0
-12597 -12457 0
-12597 -12737 0
-12737 -12597 0
-12737 -11897 0
-11898 -12738 0
-11898 -12038 0
-12038 -11898 0
-12038 -12178 0
-12178 -12038 0
-12178 -12318 0
-12318 -12178 0
-12318 -12458 0
-12458 -12318 0
-12458 -12598 0
-12598 -12458 0
-12598 -12738 0
-12738 -12598 0
-12738 -11898 0
-11899 -12739 0
-11899 -12039 0
-12039 -11899 0
-12039 -12179 0
-12179 -12039 0
-12179 -12319 0
-12319 -12179 0
-12319 -12459 0
-12459 -12319 0
-12459 -12599 0
-12599 -12459 0
-12599 -12739 0
-12739 -12599 0
-12739 -11899 0
