p cnf 5840 17074
3521 -1 2 0
3521 1 -2 0
3521 -321 322 0
3521 321 -322 0
3601 -81 82 0
3601 81 -82 0
3601 -401 402 0
3601 401 -402 0
3681 -161 162 0
3681 161 -162 0
3681 -481 482 0
3681 481 -482 0
3761 -241 242 0
3761 241 -242 0
3761 -561 562 0
3761 561 -562 0
-1 -2561 -2 0
1 -2561 2 0
-2641 -402 0
-81 -2641 82 0
81 -2641 -82 0
-2961 402 0
-2721 -482 0
-161 -2721 162 0
161 -2721 -162 0
-3041 482 0
-81 -2961 -82 0
81 -2961 82 0
-161 -3041 -162 0
161 -3041 162 0
-241 -3121 -242 0
241 -3121 242 0
3522 -2 3 0
3522 2 -3 0
3522 -322 323 0
3522 322 -323 0
3602 -82 83 0
3602 82 -83 0
3602 -402 403 0
3602 402 -403 0
3682 -162 163 0
3682 162 -163 0
3682 -482 483 0
3682 482 -483 0
3762 -242 243 0
3762 242 -243 0
3762 -562 563 0
3762 562 -563 0
-2 -2562 -3 0
2 -2562 3 0
-2642 -403 0
-82 -2642 83 0
82 -2642 -83 0
-2962 403 0
-2722 -483 0
-162 -2722 163 0
162 -2722 -163 0
-3042 483 0
-82 -2962 -83 0
82 -2962 83 0
-162 -3042 -163 0
162 -3042 163 0
-242 -3122 -243 0
242 -3122 243 0
3523 -3 4 0
3523 3 -4 0
3523 -323 324 0
3523 323 -324 0
3603 -83 84 0
3603 83 -84 0
3603 -403 404 0
3603 403 -404 0
3683 -163 164 0
3683 163 -164 0
3683 -483 484 0
3683 483 -484 0
3763 -243 244 0
3763 243 -244 0
3763 -563 564 0
3763 563 -564 0
-3 -2563 -4 0
3 -2563 4 0
-2643 -404 0
-83 -2643 84 0
83 -2643 -84 0
-2963 404 0
-2723 -484 0
-163 -2723 164 0
163 -2723 -164 0
-3043 484 0
-83 -2963 -84 0
83 -2963 84 0
-163 -3043 -164 0
163 -3043 164 0
-243 -3123 -244 0
243 -3123 244 0
3524 -4 5 0
3524 4 -5 0
3524 -324 325 0
3524 324 -325 0
3604 -84 85 0
3604 84 -85 0
3604 -404 405 0
3604 404 -405 0
3684 -164 165 0
3684 164 -165 0
3684 -484 485 0
3684 484 -485 0
3764 -244 245 0
3764 244 -245 0
3764 -564 565 0
3764 564 -565 0
-4 -2564 -5 0
4 -2564 5 0
-2644 -405 0
-84 -2644 85 0
84 -2644 -85 0
-2964 405 0
-2724 -485 0
-164 -2724 165 0
164 -2724 -165 0
-3044 485 0
-84 -2964 -85 0
84 -2964 85 0
-164 -3044 -165 0
164 -3044 165 0
-244 -3124 -245 0
244 -3124 245 0
3525 -5 6 0
3525 5 -6 0
3525 -325 326 0
3525 325 -326 0
3605 -85 86 0
3605 85 -86 0
3605 -405 406 0
3605 405 -406 0
3685 -165 166 0
3685 165 -166 0
3685 -485 486 0
3685 485 -486 0
3765 -245 246 0
3765 245 -246 0
3765 -565 566 0
3765 565 -566 0
-5 -2565 -6 0
5 -2565 6 0
-2645 -406 0
-85 -2645 86 0
85 -2645 -86 0
-2965 406 0
-2725 -486 0
-165 -2725 166 0
165 -2725 -166 0
-3045 486 0
-85 -2965 -86 0
85 -2965 86 0
-165 -3045 -166 0
165 -3045 166 0
-245 -3125 -246 0
245 -3125 246 0
3526 -6 7 0
3526 6 -7 0
3526 -326 327 0
3526 326 -327 0
3606 -86 87 0
3606 86 -87 0
3606 -406 407 0
3606 406 -407 0
3686 -166 167 0
3686 166 -167 0
3686 -486 487 0
3686 486 -487 0
3766 -246 247 0
3766 246 -247 0
3766 -566 567 0
3766 566 -567 0
-6 -2566 -7 0
6 -2566 7 0
-2646 -407 0
-86 -2646 87 0
86 -2646 -87 0
-2966 407 0
-2726 -487 0
-166 -2726 167 0
166 -2726 -167 0
-3046 487 0
-86 -2966 -87 0
86 -2966 87 0
-166 -3046 -167 0
166 -3046 167 0
-246 -3126 -247 0
246 -3126 247 0
3527 -7 8 0
3527 7 -8 0
3527 -327 328 0
3527 327 -328 0
3607 -87 88 0
3607 87 -88 0
3607 -407 408 0
3607 407 -408 0
3687 -167 168 0
3687 167 -168 0
3687 -487 488 0
3687 487 -488 0
3767 -247 248 0
3767 247 -248 0
3767 -567 568 0
3767 567 -568 0
-7 -2567 -8 0
7 -2567 8 0
-2647 -408 0
-87 -2647 88 0
87 -2647 -88 0
-2967 408 0
-2727 -488 0
-167 -2727 168 0
167 -2727 -168 0
-3047 488 0
-87 -2967 -88 0
87 -2967 88 0
-167 -3047 -168 0
167 -3047 168 0
-247 -3127 -248 0
247 -3127 248 0
3528 -8 9 0
3528 8 -9 0
3528 -328 329 0
3528 328 -329 0
3608 -88 89 0
3608 88 -89 0
3608 -408 409 0
3608 408 -409 0
3688 -168 169 0
3688 168 -169 0
3688 -488 489 0
3688 488 -489 0
3768 -248 249 0
3768 248 -249 0
3768 -568 569 0
3768 568 -569 0
-8 -2568 -9 0
8 -2568 9 0
-2648 -409 0
-88 -2648 89 0
88 -2648 -89 0
-2968 409 0
-2728 -489 0
-168 -2728 169 0
168 -2728 -169 0
-3048 489 0
-88 -2968 -89 0
88 -2968 89 0
-168 -3048 -169 0
168 -3048 169 0
-248 -3128 -249 0
248 -3128 249 0
3529 -9 10 0
3529 9 -10 0
3529 -329 330 0
3529 329 -330 0
3609 -89 90 0
3609 89 -90 0
3609 -409 410 0
3609 409 -410 0
3689 -169 170 0
3689 169 -170 0
3689 -489 490 0
3689 489 -490 0
3769 -249 250 0
3769 249 -250 0
3769 -569 570 0
3769 569 -570 0
-9 -2569 -10 0
9 -2569 10 0
-2649 -410 0
-89 -2649 90 0
89 -2649 -90 0
-2969 410 0
-2729 -490 0
-169 -2729 170 0
169 -2729 -170 0
-3049 490 0
-89 -2969 -90 0
89 -2969 90 0
-169 -3049 -170 0
169 -3049 170 0
-249 -3129 -250 0
249 -3129 250 0
3530 -10 11 0
3530 10 -11 0
3530 -330 331 0
3530 330 -331 0
3610 -90 91 0
3610 90 -91 0
3610 -410 411 0
3610 410 -411 0
3690 -170 171 0
3690 170 -171 0
3690 -490 491 0
3690 490 -491 0
3770 -250 251 0
3770 250 -251 0
3770 -570 571 0
3770 570 -571 0
-10 -2570 -11 0
10 -2570 11 0
-2650 -411 0
-90 -2650 91 0
90 -2650 -91 0
-2970 411 0
-2730 -491 0
-170 -2730 171 0
170 -2730 -171 0
-3050 491 0
-90 -2970 -91 0
90 -2970 91 0
-170 -3050 -171 0
170 -3050 171 0
-250 -3130 -251 0
250 -3130 251 0
3531 -11 12 0
3531 11 -12 0
3531 -331 332 0
3531 331 -332 0
3611 -91 92 0
3611 91 -92 0
3611 -411 412 0
3611 411 -412 0
3691 -171 172 0
3691 171 -172 0
3691 -491 492 0
3691 491 -492 0
3771 -251 252 0
3771 251 -252 0
3771 -571 572 0
3771 571 -572 0
-11 -2571 -12 0
11 -2571 12 0
-2651 -412 0
-91 -2651 92 0
91 -2651 -92 0
-2971 412 0
-2731 -492 0
-171 -2731 172 0
171 -2731 -172 0
-3051 492 0
-91 -2971 -92 0
91 -2971 92 0
-171 -3051 -172 0
171 -3051 172 0
-251 -3131 -252 0
251 -3131 252 0
3532 -12 13 0
3532 12 -13 0
3532 -332 333 0
3532 332 -333 0
3612 -92 93 0
3612 92 -93 0
3612 -412 413 0
3612 412 -413 0
3692 -172 173 0
3692 172 -173 0
3692 -492 493 0
3692 492 -493 0
3772 -252 253 0
3772 252 -253 0
3772 -572 573 0
3772 572 -573 0
-12 -2572 -13 0
12 -2572 13 0
-2652 -413 0
-92 -2652 93 0
92 -2652 -93 0
-2972 413 0
-2732 -493 0
-172 -2732 173 0
172 -2732 -173 0
-3052 493 0
-92 -2972 -93 0
92 -2972 93 0
-172 -3052 -173 0
172 -3052 173 0
-252 -3132 -253 0
252 -3132 253 0
3533 -13 14 0
3533 13 -14 0
3533 -333 334 0
3533 333 -334 0
3613 -93 94 0
3613 93 -94 0
3613 -413 414 0
3613 413 -414 0
3693 -173 174 0
3693 173 -174 0
3693 -493 494 0
3693 493 -494 0
3773 -253 254 0
3773 253 -254 0
3773 -573 574 0
3773 573 -574 0
-13 -2573 -14 0
13 -2573 14 0
-2653 -414 0
-93 -2653 94 0
93 -2653 -94 0
-2973 414 0
-2733 -494 0
-173 -2733 174 0
173 -2733 -174 0
-3053 494 0
-93 -2973 -94 0
93 -2973 94 0
-173 -3053 -174 0
173 -3053 174 0
-253 -3133 -254 0
253 -3133 254 0
3534 -14 15 0
3534 14 -15 0
3534 -334 335 0
3534 334 -335 0
3614 -94 95 0
3614 94 -95 0
3614 -414 415 0
3614 414 -415 0
3694 -174 175 0
3694 174 -175 0
3694 -494 495 0
3694 494 -495 0
3774 -254 255 0
3774 254 -255 0
3774 -574 575 0
3774 574 -575 0
-14 -2574 -15 0
14 -2574 15 0
-2654 -415 0
-94 -2654 95 0
94 -2654 -95 0
-2974 415 0
-2734 -495 0
-174 -2734 175 0
174 -2734 -175 0
-3054 495 0
-94 -2974 -95 0
94 -2974 95 0
-174 -3054 -175 0
174 -3054 175 0
-254 -3134 -255 0
254 -3134 255 0
3535 -15 16 0
3535 15 -16 0
3535 -335 336 0
3535 335 -336 0
3615 -95 96 0
3615 95 -96 0
3615 -415 416 0
3615 415 -416 0
3695 -175 176 0
3695 175 -176 0
3695 -495 496 0
3695 495 -496 0
3775 -255 256 0
3775 255 -256 0
3775 -575 576 0
3775 575 -576 0
-15 -2575 -16 0
15 -2575 16 0
-2655 -416 0
-95 -2655 96 0
95 -2655 -96 0
-2975 416 0
-2735 -496 0
-175 -2735 176 0
175 -2735 -176 0
-3055 496 0
-95 -2975 -96 0
95 -2975 96 0
-175 -3055 -176 0
175 -3055 176 0
-255 -3135 -256 0
255 -3135 256 0
3536 -16 17 0
3536 16 -17 0
3536 -336 337 0
3536 336 -337 0
3616 -96 97 0
3616 96 -97 0
3616 -416 417 0
3616 416 -417 0
3696 -176 177 0
3696 176 -177 0
3696 -496 497 0
3696 496 -497 0
3776 -256 257 0
3776 256 -257 0
3776 -576 577 0
3776 576 -577 0
-16 -2576 -17 0
16 -2576 17 0
-2656 -417 0
-96 -2656 97 0
96 -2656 -97 0
-2976 417 0
-2736 -497 0
-176 -2736 177 0
176 -2736 -177 0
-3056 497 0
-96 -2976 -97 0
96 -2976 97 0
-176 -3056 -177 0
176 -3056 177 0
-256 -3136 -257 0
256 -3136 257 0
3537 -17 18 0
3537 17 -18 0
3537 -337 338 0
3537 337 -338 0
3617 -97 98 0
3617 97 -98 0
3617 -417 418 0
3617 417 -418 0
3697 -177 178 0
3697 177 -178 0
3697 -497 498 0
3697 497 -498 0
3777 -257 258 0
3777 257 -258 0
3777 -577 578 0
3777 577 -578 0
-17 -2577 -18 0
17 -2577 18 0
-2657 -418 0
-97 -2657 98 0
97 -2657 -98 0
-2977 418 0
-2737 -498 0
-177 -2737 178 0
177 -2737 -178 0
-3057 498 0
-97 -2977 -98 0
97 -2977 98 0
-177 -3057 -178 0
177 -3057 178 0
-257 -3137 -258 0
257 -3137 258 0
3538 -18 19 0
3538 18 -19 0
3538 -338 339 0
3538 338 -339 0
3618 -98 99 0
3618 98 -99 0
3618 -418 419 0
3618 418 -419 0
3698 -178 179 0
3698 178 -179 0
3698 -498 499 0
3698 498 -499 0
3778 -258 259 0
3778 258 -259 0
3778 -578 579 0
3778 578 -579 0
-18 -2578 -19 0
18 -2578 19 0
-2658 -419 0
-98 -2658 99 0
98 -2658 -99 0
-2978 419 0
-2738 -499 0
-178 -2738 179 0
178 -2738 -179 0
-3058 499 0
-98 -2978 -99 0
98 -2978 99 0
-178 -3058 -179 0
178 -3058 179 0
-258 -3138 -259 0
258 -3138 259 0
3539 -19 20 0
3539 19 -20 0
3539 -339 340 0
3539 339 -340 0
3619 -99 100 0
3619 99 -100 0
3619 -419 420 0
3619 419 -420 0
3699 -179 180 0
3699 179 -180 0
3699 -499 500 0
3699 499 -500 0
3779 -259 260 0
3779 259 -260 0
3779 -579 580 0
3779 579 -580 0
-19 -2579 -20 0
19 -2579 20 0
-2659 -420 0
-99 -2659 100 0
99 -2659 -100 0
-2979 420 0
-2739 -500 0
-179 -2739 180 0
179 -2739 -180 0
-3059 500 0
-99 -2979 -100 0
99 -2979 100 0
-179 -3059 -180 0
179 -3059 180 0
-259 -3139 -260 0
259 -3139 260 0
3540 -20 21 0
3540 20 -21 0
3540 -340 341 0
3540 340 -341 0
3620 -100 101 0
3620 100 -101 0
3620 -420 421 0
3620 420 -421 0
3700 -180 181 0
3700 180 -181 0
3700 -500 501 0
3700 500 -501 0
3780 -260 261 0
3780 260 -261 0
3780 -580 581 0
3780 580 -581 0
-20 -2580 -21 0
20 -2580 21 0
-2660 -421 0
-100 -2660 101 0
100 -2660 -101 0
-2980 421 0
-2740 -501 0
-180 -2740 181 0
180 -2740 -181 0
-3060 501 0
-100 -2980 -101 0
100 -2980 101 0
-180 -3060 -181 0
180 -3060 181 0
-260 -3140 -261 0
260 -3140 261 0
3541 -21 22 0
3541 21 -22 0
3541 -341 342 0
3541 341 -342 0
3621 -101 102 0
3621 101 -102 0
3621 -421 422 0
3621 421 -422 0
3701 -181 182 0
3701 181 -182 0
3701 -501 502 0
3701 501 -502 0
3781 -261 262 0
3781 261 -262 0
3781 -581 582 0
3781 581 -582 0
-21 -2581 -22 0
21 -2581 22 0
-2661 -422 0
-101 -2661 102 0
101 -2661 -102 0
-2981 422 0
-2741 -502 0
-181 -2741 182 0
181 -2741 -182 0
-3061 502 0
-101 -2981 -102 0
101 -2981 102 0
-181 -3061 -182 0
181 -3061 182 0
-261 -3141 -262 0
261 -3141 262 0
3542 -22 23 0
3542 22 -23 0
3542 -342 343 0
3542 342 -343 0
3622 -102 103 0
3622 102 -103 0
3622 -422 423 0
3622 422 -423 0
3702 -182 183 0
3702 182 -183 0
3702 -502 503 0
3702 502 -503 0
3782 -262 263 0
3782 262 -263 0
3782 -582 583 0
3782 582 -583 0
-22 -2582 -23 0
22 -2582 23 0
-2662 -423 0
-102 -2662 103 0
102 -2662 -103 0
-2982 423 0
-2742 -503 0
-182 -2742 183 0
182 -2742 -183 0
-3062 503 0
-102 -2982 -103 0
102 -2982 103 0
-182 -3062 -183 0
182 -3062 183 0
-262 -3142 -263 0
262 -3142 263 0
3543 -23 24 0
3543 23 -24 0
3543 -343 344 0
3543 343 -344 0
3623 -103 104 0
3623 103 -104 0
3623 -423 424 0
3623 423 -424 0
3703 -183 184 0
3703 183 -184 0
3703 -503 504 0
3703 503 -504 0
3783 -263 264 0
3783 263 -264 0
3783 -583 584 0
3783 583 -584 0
-23 -2583 -24 0
23 -2583 24 0
-2663 -424 0
-103 -2663 104 0
103 -2663 -104 0
-2983 424 0
-2743 -504 0
-183 -2743 184 0
183 -2743 -184 0
-3063 504 0
-103 -2983 -104 0
103 -2983 104 0
-183 -3063 -184 0
183 -3063 184 0
-263 -3143 -264 0
263 -3143 264 0
3544 -24 25 0
3544 24 -25 0
3544 -344 345 0
3544 344 -345 0
3624 -104 105 0
3624 104 -105 0
3624 -424 425 0
3624 424 -425 0
3704 -184 185 0
3704 184 -185 0
3704 -504 505 0
3704 504 -505 0
3784 -264 265 0
3784 264 -265 0
3784 -584 585 0
3784 584 -585 0
-24 -2584 -25 0
24 -2584 25 0
-2664 -425 0
-104 -2664 105 0
104 -2664 -105 0
-2984 425 0
-2744 -505 0
-184 -2744 185 0
184 -2744 -185 0
-3064 505 0
-104 -2984 -105 0
104 -2984 105 0
-184 -3064 -185 0
184 -3064 185 0
-264 -3144 -265 0
264 -3144 265 0
3545 -25 26 0
3545 25 -26 0
3545 -345 346 0
3545 345 -346 0
3625 -105 106 0
3625 105 -106 0
3625 -425 426 0
3625 425 -426 0
3705 -185 186 0
3705 185 -186 0
3705 -505 506 0
3705 505 -506 0
3785 -265 266 0
3785 265 -266 0
3785 -585 586 0
3785 585 -586 0
-25 -2585 -26 0
25 -2585 26 0
-2665 -426 0
-105 -2665 106 0
105 -2665 -106 0
-2985 426 0
-2745 -506 0
-185 -2745 186 0
185 -2745 -186 0
-3065 506 0
-105 -2985 -106 0
105 -2985 106 0
-185 -3065 -186 0
185 -3065 186 0
-265 -3145 -266 0
265 -3145 266 0
3546 -26 27 0
3546 26 -27 0
3546 -346 347 0
3546 346 -347 0
3626 -106 107 0
3626 106 -107 0
3626 -426 427 0
3626 426 -427 0
3706 -186 187 0
3706 186 -187 0
3706 -506 507 0
3706 506 -507 0
3786 -266 267 0
3786 266 -267 0
3786 -586 587 0
3786 586 -587 0
-26 -2586 -27 0
26 -2586 27 0
-2666 -427 0
-106 -2666 107 0
106 -2666 -107 0
-2986 427 0
-2746 -507 0
-186 -2746 187 0
186 -2746 -187 0
-3066 507 0
-106 -2986 -107 0
106 -2986 107 0
-186 -3066 -187 0
186 -3066 187 0
-266 -3146 -267 0
266 -3146 267 0
3547 -27 28 0
3547 27 -28 0
3547 -347 348 0
3547 347 -348 0
3627 -107 108 0
3627 107 -108 0
3627 -427 428 0
3627 427 -428 0
3707 -187 188 0
3707 187 -188 0
3707 -507 508 0
3707 507 -508 0
3787 -267 268 0
3787 267 -268 0
3787 -587 588 0
3787 587 -588 0
-27 -2587 -28 0
27 -2587 28 0
-2667 -428 0
-107 -2667 108 0
107 -2667 -108 0
-2987 428 0
-2747 -508 0
-187 -2747 188 0
187 -2747 -188 0
-3067 508 0
-107 -2987 -108 0
107 -2987 108 0
-187 -3067 -188 0
187 -3067 188 0
-267 -3147 -268 0
267 -3147 268 0
3548 -28 29 0
3548 28 -29 0
3548 -348 349 0
3548 348 -349 0
3628 -108 109 0
3628 108 -109 0
3628 -428 429 0
3628 428 -429 0
3708 -188 189 0
3708 188 -189 0
3708 -508 509 0
3708 508 -509 0
3788 -268 269 0
3788 268 -269 0
3788 -588 589 0
3788 588 -589 0
-28 -2588 -29 0
28 -2588 29 0
-2668 -429 0
-108 -2668 109 0
108 -2668 -109 0
-2988 429 0
-2748 -509 0
-188 -2748 189 0
188 -2748 -189 0
-3068 509 0
-108 -2988 -109 0
108 -2988 109 0
-188 -3068 -189 0
188 -3068 189 0
-268 -3148 -269 0
268 -3148 269 0
3549 -29 30 0
3549 29 -30 0
3549 -349 350 0
3549 349 -350 0
3629 -109 110 0
3629 109 -110 0
3629 -429 430 0
3629 429 -430 0
3709 -189 190 0
3709 189 -190 0
3709 -509 510 0
3709 509 -510 0
3789 -269 270 0
3789 269 -270 0
3789 -589 590 0
3789 589 -590 0
-29 -2589 -30 0
29 -2589 30 0
-2669 -430 0
-109 -2669 110 0
109 -2669 -110 0
-2989 430 0
-2749 -510 0
-189 -2749 190 0
189 -2749 -190 0
-3069 510 0
-109 -2989 -110 0
109 -2989 110 0
-189 -3069 -190 0
189 -3069 190 0
-269 -3149 -270 0
269 -3149 270 0
3550 -30 31 0
3550 30 -31 0
3550 -350 351 0
3550 350 -351 0
3630 -110 111 0
3630 110 -111 0
3630 -430 431 0
3630 430 -431 0
3710 -190 191 0
3710 190 -191 0
3710 -510 511 0
3710 510 -511 0
3790 -270 271 0
3790 270 -271 0
3790 -590 591 0
3790 590 -591 0
-30 -2590 -31 0
30 -2590 31 0
-2670 -431 0
-110 -2670 111 0
110 -2670 -111 0
-2990 431 0
-2750 -511 0
-190 -2750 191 0
190 -2750 -191 0
-3070 511 0
-110 -2990 -111 0
110 -2990 111 0
-190 -3070 -191 0
190 -3070 191 0
-270 -3150 -271 0
270 -3150 271 0
3551 -31 32 0
3551 31 -32 0
3551 -351 352 0
3551 351 -352 0
3631 -111 112 0
3631 111 -112 0
3631 -431 432 0
3631 431 -432 0
3711 -191 192 0
3711 191 -192 0
3711 -511 512 0
3711 511 -512 0
3791 -271 272 0
3791 271 -272 0
3791 -591 592 0
3791 591 -592 0
-31 -2591 -32 0
31 -2591 32 0
-2671 -432 0
-111 -2671 112 0
111 -2671 -112 0
-2991 432 0
-2751 -512 0
-191 -2751 192 0
191 -2751 -192 0
-3071 512 0
-111 -2991 -112 0
111 -2991 112 0
-191 -3071 -192 0
191 -3071 192 0
-271 -3151 -272 0
271 -3151 272 0
3552 -32 33 0
3552 32 -33 0
3552 -352 353 0
3552 352 -353 0
3632 -112 113 0
3632 112 -113 0
3632 -432 433 0
3632 432 -433 0
3712 -192 193 0
3712 192 -193 0
3712 -512 513 0
3712 512 -513 0
3792 -272 273 0
3792 272 -273 0
3792 -592 593 0
3792 592 -593 0
-32 -2592 -33 0
32 -2592 33 0
-2672 -433 0
-112 -2672 113 0
112 -2672 -113 0
-2992 433 0
-2752 -513 0
-192 -2752 193 0
192 -2752 -193 0
-3072 513 0
-112 -2992 -113 0
112 -2992 113 0
-192 -3072 -193 0
192 -3072 193 0
-272 -3152 -273 0
272 -3152 273 0
3553 -33 34 0
3553 33 -34 0
3553 -353 354 0
3553 353 -354 0
3633 -113 114 0
3633 113 -114 0
3633 -433 434 0
3633 433 -434 0
3713 -193 194 0
3713 193 -194 0
3713 -513 514 0
3713 513 -514 0
3793 -273 274 0
3793 273 -274 0
3793 -593 594 0
3793 593 -594 0
-33 -2593 -34 0
33 -2593 34 0
-2673 -434 0
-113 -2673 114 0
113 -2673 -114 0
-2993 434 0
-2753 -514 0
-193 -2753 194 0
193 -2753 -194 0
-3073 514 0
-113 -2993 -114 0
113 -2993 114 0
-193 -3073 -194 0
193 -3073 194 0
-273 -3153 -274 0
273 -3153 274 0
3554 -34 35 0
3554 34 -35 0
3554 -354 355 0
3554 354 -355 0
3634 -114 115 0
3634 114 -115 0
3634 -434 435 0
3634 434 -435 0
3714 -194 195 0
3714 194 -195 0
3714 -514 515 0
3714 514 -515 0
3794 -274 275 0
3794 274 -275 0
3794 -594 595 0
3794 594 -595 0
-34 -2594 -35 0
34 -2594 35 0
-2674 -435 0
-114 -2674 115 0
114 -2674 -115 0
-2994 435 0
-2754 -515 0
-194 -2754 195 0
194 -2754 -195 0
-3074 515 0
-114 -2994 -115 0
114 -2994 115 0
-194 -3074 -195 0
194 -3074 195 0
-274 -3154 -275 0
274 -3154 275 0
3555 -35 36 0
3555 35 -36 0
3555 -355 356 0
3555 355 -356 0
3635 -115 116 0
3635 115 -116 0
3635 -435 436 0
3635 435 -436 0
3715 -195 196 0
3715 195 -196 0
3715 -515 516 0
3715 515 -516 0
3795 -275 276 0
3795 275 -276 0
3795 -595 596 0
3795 595 -596 0
-35 -2595 -36 0
35 -2595 36 0
-2675 -436 0
-115 -2675 116 0
115 -2675 -116 0
-2995 436 0
-2755 -516 0
-195 -2755 196 0
195 -2755 -196 0
-3075 516 0
-115 -2995 -116 0
115 -2995 116 0
-195 -3075 -196 0
195 -3075 196 0
-275 -3155 -276 0
275 -3155 276 0
3556 -36 37 0
3556 36 -37 0
3556 -356 357 0
3556 356 -357 0
3636 -116 117 0
3636 116 -117 0
3636 -436 437 0
3636 436 -437 0
3716 -196 197 0
3716 196 -197 0
3716 -516 517 0
3716 516 -517 0
3796 -276 277 0
3796 276 -277 0
3796 -596 597 0
3796 596 -597 0
-36 -2596 -37 0
36 -2596 37 0
-2676 -437 0
-116 -2676 117 0
116 -2676 -117 0
-2996 437 0
-2756 -517 0
-196 -2756 197 0
196 -2756 -197 0
-3076 517 0
-116 -2996 -117 0
116 -2996 117 0
-196 -3076 -197 0
196 -3076 197 0
-276 -3156 -277 0
276 -3156 277 0
3557 -37 38 0
3557 37 -38 0
3557 -357 358 0
3557 357 -358 0
3637 -117 118 0
3637 117 -118 0
3637 -437 438 0
3637 437 -438 0
3717 -197 198 0
3717 197 -198 0
3717 -517 518 0
3717 517 -518 0
3797 -277 278 0
3797 277 -278 0
3797 -597 598 0
3797 597 -598 0
-37 -2597 -38 0
37 -2597 38 0
-2677 -438 0
-117 -2677 118 0
117 -2677 -118 0
-2997 438 0
-2757 -518 0
-197 -2757 198 0
197 -2757 -198 0
-3077 518 0
-117 -2997 -118 0
117 -2997 118 0
-197 -3077 -198 0
197 -3077 198 0
-277 -3157 -278 0
277 -3157 278 0
3558 -38 39 0
3558 38 -39 0
3558 -358 359 0
3558 358 -359 0
3638 -118 119 0
3638 118 -119 0
3638 -438 439 0
3638 438 -439 0
3718 -198 199 0
3718 198 -199 0
3718 -518 519 0
3718 518 -519 0
3798 -278 279 0
3798 278 -279 0
3798 -598 599 0
3798 598 -599 0
-38 -2598 -39 0
38 -2598 39 0
-2678 -439 0
-118 -2678 119 0
118 -2678 -119 0
-2998 439 0
-2758 -519 0
-198 -2758 199 0
198 -2758 -199 0
-3078 519 0
-118 -2998 -119 0
118 -2998 119 0
-198 -3078 -199 0
198 -3078 199 0
-278 -3158 -279 0
278 -3158 279 0
3559 -39 40 0
3559 39 -40 0
3559 -359 360 0
3559 359 -360 0
3639 -119 120 0
3639 119 -120 0
3639 -439 440 0
3639 439 -440 0
3719 -199 200 0
3719 199 -200 0
3719 -519 520 0
3719 519 -520 0
3799 -279 280 0
3799 279 -280 0
3799 -599 600 0
3799 599 -600 0
-39 -2599 -40 0
39 -2599 40 0
-2679 -440 0
-119 -2679 120 0
119 -2679 -120 0
-2999 440 0
-2759 -520 0
-199 -2759 200 0
199 -2759 -200 0
-3079 520 0
-119 -2999 -120 0
119 -2999 120 0
-199 -3079 -200 0
199 -3079 200 0
-279 -3159 -280 0
279 -3159 280 0
3560 -40 41 0
3560 40 -41 0
3560 -360 361 0
3560 360 -361 0
3640 -120 121 0
3640 120 -121 0
3640 -440 441 0
3640 440 -441 0
3720 -200 201 0
3720 200 -201 0
3720 -520 521 0
3720 520 -521 0
3800 -280 281 0
3800 280 -281 0
3800 -600 601 0
3800 600 -601 0
-40 -2600 -41 0
40 -2600 41 0
-2680 -441 0
-120 -2680 121 0
120 -2680 -121 0
-3000 441 0
-2760 -521 0
-200 -2760 201 0
200 -2760 -201 0
-3080 521 0
-120 -3000 -121 0
120 -3000 121 0
-200 -3080 -201 0
200 -3080 201 0
-280 -3160 -281 0
280 -3160 281 0
3561 -41 42 0
3561 41 -42 0
3561 -361 362 0
3561 361 -362 0
3641 -121 122 0
3641 121 -122 0
3641 -441 442 0
3641 441 -442 0
3721 -201 202 0
3721 201 -202 0
3721 -521 522 0
3721 521 -522 0
3801 -281 282 0
3801 281 -282 0
3801 -601 602 0
3801 601 -602 0
-41 -2601 -42 0
41 -2601 42 0
-2681 -442 0
-121 -2681 122 0
121 -2681 -122 0
-3001 442 0
-2761 -522 0
-201 -2761 202 0
201 -2761 -202 0
-3081 522 0
-121 -3001 -122 0
121 -3001 122 0
-201 -3081 -202 0
201 -3081 202 0
-281 -3161 -282 0
281 -3161 282 0
3562 -42 43 0
3562 42 -43 0
3562 -362 363 0
3562 362 -363 0
3642 -122 123 0
3642 122 -123 0
3642 -442 443 0
3642 442 -443 0
3722 -202 203 0
3722 202 -203 0
3722 -522 523 0
3722 522 -523 0
3802 -282 283 0
3802 282 -283 0
3802 -602 603 0
3802 602 -603 0
-42 -2602 -43 0
42 -2602 43 0
-2682 -443 0
-122 -2682 123 0
122 -2682 -123 0
-3002 443 0
-2762 -523 0
-202 -2762 203 0
202 -2762 -203 0
-3082 523 0
-122 -3002 -123 0
122 -3002 123 0
-202 -3082 -203 0
202 -3082 203 0
-282 -3162 -283 0
282 -3162 283 0
3563 -43 44 0
3563 43 -44 0
3563 -363 364 0
3563 363 -364 0
3643 -123 124 0
3643 123 -124 0
3643 -443 444 0
3643 443 -444 0
3723 -203 204 0
3723 203 -204 0
3723 -523 524 0
3723 523 -524 0
3803 -283 284 0
3803 283 -284 0
3803 -603 604 0
3803 603 -604 0
-43 -2603 -44 0
43 -2603 44 0
-2683 -444 0
-123 -2683 124 0
123 -2683 -124 0
-3003 444 0
-2763 -524 0
-203 -2763 204 0
203 -2763 -204 0
-3083 524 0
-123 -3003 -124 0
123 -3003 124 0
-203 -3083 -204 0
203 -3083 204 0
-283 -3163 -284 0
283 -3163 284 0
3564 -44 45 0
3564 44 -45 0
3564 -364 365 0
3564 364 -365 0
3644 -124 125 0
3644 124 -125 0
3644 -444 445 0
3644 444 -445 0
3724 -204 205 0
3724 204 -205 0
3724 -524 525 0
3724 524 -525 0
3804 -284 285 0
3804 284 -285 0
3804 -604 605 0
3804 604 -605 0
-44 -2604 -45 0
44 -2604 45 0
-2684 -445 0
-124 -2684 125 0
124 -2684 -125 0
-3004 445 0
-2764 -525 0
-204 -2764 205 0
204 -2764 -205 0
-3084 525 0
-124 -3004 -125 0
124 -3004 125 0
-204 -3084 -205 0
204 -3084 205 0
-284 -3164 -285 0
284 -3164 285 0
3565 -45 46 0
3565 45 -46 0
3565 -365 366 0
3565 365 -366 0
3645 -125 126 0
3645 125 -126 0
3645 -445 446 0
3645 445 -446 0
3725 -205 206 0
3725 205 -206 0
3725 -525 526 0
3725 525 -526 0
3805 -285 286 0
3805 285 -286 0
3805 -605 606 0
3805 605 -606 0
-45 -2605 -46 0
45 -2605 46 0
-2685 -446 0
-125 -2685 126 0
125 -2685 -126 0
-3005 446 0
-2765 -526 0
-205 -2765 206 0
205 -2765 -206 0
-3085 526 0
-125 -3005 -126 0
125 -3005 126 0
-205 -3085 -206 0
205 -3085 206 0
-285 -3165 -286 0
285 -3165 286 0
3566 -46 47 0
3566 46 -47 0
3566 -366 367 0
3566 366 -367 0
3646 -126 127 0
3646 126 -127 0
3646 -446 447 0
3646 446 -447 0
3726 -206 207 0
3726 206 -207 0
3726 -526 527 0
3726 526 -527 0
3806 -286 287 0
3806 286 -287 0
3806 -606 607 0
3806 606 -607 0
-46 -2606 -47 0
46 -2606 47 0
-2686 -447 0
-126 -2686 127 0
126 -2686 -127 0
-3006 447 0
-2766 -527 0
-206 -2766 207 0
206 -2766 -207 0
-3086 527 0
-126 -3006 -127 0
126 -3006 127 0
-206 -3086 -207 0
206 -3086 207 0
-286 -3166 -287 0
286 -3166 287 0
3567 -47 48 0
3567 47 -48 0
3567 -367 368 0
3567 367 -368 0
3647 -127 128 0
3647 127 -128 0
3647 -447 448 0
3647 447 -448 0
3727 -207 208 0
3727 207 -208 0
3727 -527 528 0
3727 527 -528 0
3807 -287 288 0
3807 287 -288 0
3807 -607 608 0
3807 607 -608 0
-47 -2607 -48 0
47 -2607 48 0
-2687 -448 0
-127 -2687 128 0
127 -2687 -128 0
-3007 448 0
-2767 -528 0
-207 -2767 208 0
207 -2767 -208 0
-3087 528 0
-127 -3007 -128 0
127 -3007 128 0
-207 -3087 -208 0
207 -3087 208 0
-287 -3167 -288 0
287 -3167 288 0
3568 -48 49 0
3568 48 -49 0
3568 -368 369 0
3568 368 -369 0
3648 -128 129 0
3648 128 -129 0
3648 -448 449 0
3648 448 -449 0
3728 -208 209 0
3728 208 -209 0
3728 -528 529 0
3728 528 -529 0
3808 -288 289 0
3808 288 -289 0
3808 -608 609 0
3808 608 -609 0
-48 -2608 -49 0
48 -2608 49 0
-2688 -449 0
-128 -2688 129 0
128 -2688 -129 0
-3008 449 0
-2768 -529 0
-208 -2768 209 0
208 -2768 -209 0
-3088 529 0
-128 -3008 -129 0
128 -3008 129 0
-208 -3088 -209 0
208 -3088 209 0
-288 -3168 -289 0
288 -3168 289 0
3569 -49 50 0
3569 49 -50 0
3569 -369 370 0
3569 369 -370 0
3649 -129 130 0
3649 129 -130 0
3649 -449 450 0
3649 449 -450 0
3729 -209 210 0
3729 209 -210 0
3729 -529 530 0
3729 529 -530 0
3809 -289 290 0
3809 289 -290 0
3809 -609 610 0
3809 609 -610 0
-49 -2609 -50 0
49 -2609 50 0
-2689 -450 0
-129 -2689 130 0
129 -2689 -130 0
-3009 450 0
-2769 -530 0
-209 -2769 210 0
209 -2769 -210 0
-3089 530 0
-129 -3009 -130 0
129 -3009 130 0
-209 -3089 -210 0
209 -3089 210 0
-289 -3169 -290 0
289 -3169 290 0
3570 -50 51 0
3570 50 -51 0
3570 -370 371 0
3570 370 -371 0
3650 -130 131 0
3650 130 -131 0
3650 -450 451 0
3650 450 -451 0
3730 -210 211 0
3730 210 -211 0
3730 -530 531 0
3730 530 -531 0
3810 -290 291 0
3810 290 -291 0
3810 -610 611 0
3810 610 -611 0
-50 -2610 -51 0
50 -2610 51 0
-2690 -451 0
-130 -2690 131 0
130 -2690 -131 0
-3010 451 0
-2770 -531 0
-210 -2770 211 0
210 -2770 -211 0
-3090 531 0
-130 -3010 -131 0
130 -3010 131 0
-210 -3090 -211 0
210 -3090 211 0
-290 -3170 -291 0
290 -3170 291 0
3571 -51 52 0
3571 51 -52 0
3571 -371 372 0
3571 371 -372 0
3651 -131 132 0
3651 131 -132 0
3651 -451 452 0
3651 451 -452 0
3731 -211 212 0
3731 211 -212 0
3731 -531 532 0
3731 531 -532 0
3811 -291 292 0
3811 291 -292 0
3811 -611 612 0
3811 611 -612 0
-51 -2611 -52 0
51 -2611 52 0
-2691 -452 0
-131 -2691 132 0
131 -2691 -132 0
-3011 452 0
-2771 -532 0
-211 -2771 212 0
211 -2771 -212 0
-3091 532 0
-131 -3011 -132 0
131 -3011 132 0
-211 -3091 -212 0
211 -3091 212 0
-291 -3171 -292 0
291 -3171 292 0
3572 -52 53 0
3572 52 -53 0
3572 -372 373 0
3572 372 -373 0
3652 -132 133 0
3652 132 -133 0
3652 -452 453 0
3652 452 -453 0
3732 -212 213 0
3732 212 -213 0
3732 -532 533 0
3732 532 -533 0
3812 -292 293 0
3812 292 -293 0
3812 -612 613 0
3812 612 -613 0
-52 -2612 -53 0
52 -2612 53 0
-2692 -453 0
-132 -2692 133 0
132 -2692 -133 0
-3012 453 0
-2772 -533 0
-212 -2772 213 0
212 -2772 -213 0
-3092 533 0
-132 -3012 -133 0
132 -3012 133 0
-212 -3092 -213 0
212 -3092 213 0
-292 -3172 -293 0
292 -3172 293 0
3573 -53 54 0
3573 53 -54 0
3573 -373 374 0
3573 373 -374 0
3653 -133 134 0
3653 133 -134 0
3653 -453 454 0
3653 453 -454 0
3733 -213 214 0
3733 213 -214 0
3733 -533 534 0
3733 533 -534 0
3813 -293 294 0
3813 293 -294 0
3813 -613 614 0
3813 613 -614 0
-53 -2613 -54 0
53 -2613 54 0
-2693 -454 0
-133 -2693 134 0
133 -2693 -134 0
-3013 454 0
-2773 -534 0
-213 -2773 214 0
213 -2773 -214 0
-3093 534 0
-133 -3013 -134 0
133 -3013 134 0
-213 -3093 -214 0
213 -3093 214 0
-293 -3173 -294 0
293 -3173 294 0
3574 -54 55 0
3574 54 -55 0
3574 -374 375 0
3574 374 -375 0
3654 -134 135 0
3654 134 -135 0
3654 -454 455 0
3654 454 -455 0
3734 -214 215 0
3734 214 -215 0
3734 -534 535 0
3734 534 -535 0
3814 -294 295 0
3814 294 -295 0
3814 -614 615 0
3814 614 -615 0
-54 -2614 -55 0
54 -2614 55 0
-2694 -455 0
-134 -2694 135 0
134 -2694 -135 0
-3014 455 0
-2774 -535 0
-214 -2774 215 0
214 -2774 -215 0
-3094 535 0
-134 -3014 -135 0
134 -3014 135 0
-214 -3094 -215 0
214 -3094 215 0
-294 -3174 -295 0
294 -3174 295 0
3575 -55 56 0
3575 55 -56 0
3575 -375 376 0
3575 375 -376 0
3655 -135 136 0
3655 135 -136 0
3655 -455 456 0
3655 455 -456 0
3735 -215 216 0
3735 215 -216 0
3735 -535 536 0
3735 535 -536 0
3815 -295 296 0
3815 295 -296 0
3815 -615 616 0
3815 615 -616 0
-55 -2615 -56 0
55 -2615 56 0
-2695 -456 0
-135 -2695 136 0
135 -2695 -136 0
-3015 456 0
-2775 -536 0
-215 -2775 216 0
215 -2775 -216 0
-3095 536 0
-135 -3015 -136 0
135 -3015 136 0
-215 -3095 -216 0
215 -3095 216 0
-295 -3175 -296 0
295 -3175 296 0
3576 -56 57 0
3576 56 -57 0
3576 -376 377 0
3576 376 -377 0
3656 -136 137 0
3656 136 -137 0
3656 -456 457 0
3656 456 -457 0
3736 -216 217 0
3736 216 -217 0
3736 -536 537 0
3736 536 -537 0
3816 -296 297 0
3816 296 -297 0
3816 -616 617 0
3816 616 -617 0
-56 -2616 -57 0
56 -2616 57 0
-2696 -457 0
-136 -2696 137 0
136 -2696 -137 0
-3016 457 0
-2776 -537 0
-216 -2776 217 0
216 -2776 -217 0
-3096 537 0
-136 -3016 -137 0
136 -3016 137 0
-216 -3096 -217 0
216 -3096 217 0
-296 -3176 -297 0
296 -3176 297 0
3577 -57 58 0
3577 57 -58 0
3577 -377 378 0
3577 377 -378 0
3657 -137 138 0
3657 137 -138 0
3657 -457 458 0
3657 457 -458 0
3737 -217 218 0
3737 217 -218 0
3737 -537 538 0
3737 537 -538 0
3817 -297 298 0
3817 297 -298 0
3817 -617 618 0
3817 617 -618 0
-57 -2617 -58 0
57 -2617 58 0
-2697 -458 0
-137 -2697 138 0
137 -2697 -138 0
-3017 458 0
-2777 -538 0
-217 -2777 218 0
217 -2777 -218 0
-3097 538 0
-137 -3017 -138 0
137 -3017 138 0
-217 -3097 -218 0
217 -3097 218 0
-297 -3177 -298 0
297 -3177 298 0
3578 -58 59 0
3578 58 -59 0
3578 -378 379 0
3578 378 -379 0
3658 -138 139 0
3658 138 -139 0
3658 -458 459 0
3658 458 -459 0
3738 -218 219 0
3738 218 -219 0
3738 -538 539 0
3738 538 -539 0
3818 -298 299 0
3818 298 -299 0
3818 -618 619 0
3818 618 -619 0
-58 -2618 -59 0
58 -2618 59 0
-2698 -459 0
-138 -2698 139 0
138 -2698 -139 0
-3018 459 0
-2778 -539 0
-218 -2778 219 0
218 -2778 -219 0
-3098 539 0
-138 -3018 -139 0
138 -3018 139 0
-218 -3098 -219 0
218 -3098 219 0
-298 -3178 -299 0
298 -3178 299 0
3579 -59 60 0
3579 59 -60 0
3579 -379 380 0
3579 379 -380 0
3659 -139 140 0
3659 139 -140 0
3659 -459 460 0
3659 459 -460 0
3739 -219 220 0
3739 219 -220 0
3739 -539 540 0
3739 539 -540 0
3819 -299 300 0
3819 299 -300 0
3819 -619 620 0
3819 619 -620 0
-59 -2619 -60 0
59 -2619 60 0
-2699 -460 0
-139 -2699 140 0
139 -2699 -140 0
-3019 460 0
-2779 -540 0
-219 -2779 220 0
219 -2779 -220 0
-3099 540 0
-139 -3019 -140 0
139 -3019 140 0
-219 -3099 -220 0
219 -3099 220 0
-299 -3179 -300 0
299 -3179 300 0
3580 -60 61 0
3580 60 -61 0
3580 -380 381 0
3580 380 -381 0
3660 -140 141 0
3660 140 -141 0
3660 -460 461 0
3660 460 -461 0
3740 -220 221 0
3740 220 -221 0
3740 -540 541 0
3740 540 -541 0
3820 -300 301 0
3820 300 -301 0
3820 -620 621 0
3820 620 -621 0
-60 -2620 -61 0
60 -2620 61 0
-2700 -461 0
-140 -2700 141 0
140 -2700 -141 0
-3020 461 0
-2780 -541 0
-220 -2780 221 0
220 -2780 -221 0
-3100 541 0
-140 -3020 -141 0
140 -3020 141 0
-220 -3100 -221 0
220 -3100 221 0
-300 -3180 -301 0
300 -3180 301 0
3581 -61 62 0
3581 61 -62 0
3581 -381 382 0
3581 381 -382 0
3661 -141 142 0
3661 141 -142 0
3661 -461 462 0
3661 461 -462 0
3741 -221 222 0
3741 221 -222 0
3741 -541 542 0
3741 541 -542 0
3821 -301 302 0
3821 301 -302 0
3821 -621 622 0
3821 621 -622 0
-61 -2621 -62 0
61 -2621 62 0
-2701 -462 0
-141 -2701 142 0
141 -2701 -142 0
-3021 462 0
-2781 -542 0
-221 -2781 222 0
221 -2781 -222 0
-3101 542 0
-141 -3021 -142 0
141 -3021 142 0
-221 -3101 -222 0
221 -3101 222 0
-301 -3181 -302 0
301 -3181 302 0
3582 -62 63 0
3582 62 -63 0
3582 -382 383 0
3582 382 -383 0
3662 -142 143 0
3662 142 -143 0
3662 -462 463 0
3662 462 -463 0
3742 -222 223 0
3742 222 -223 0
3742 -542 543 0
3742 542 -543 0
3822 -302 303 0
3822 302 -303 0
3822 -622 623 0
3822 622 -623 0
-62 -2622 -63 0
62 -2622 63 0
-2702 -463 0
-142 -2702 143 0
142 -2702 -143 0
-3022 463 0
-2782 -543 0
-222 -2782 223 0
222 -2782 -223 0
-3102 543 0
-142 -3022 -143 0
142 -3022 143 0
-222 -3102 -223 0
222 -3102 223 0
-302 -3182 -303 0
302 -3182 303 0
3583 -63 64 0
3583 63 -64 0
3583 -383 384 0
3583 383 -384 0
3663 -143 144 0
3663 143 -144 0
3663 -463 464 0
3663 463 -464 0
3743 -223 224 0
3743 223 -224 0
3743 -543 544 0
3743 543 -544 0
3823 -303 304 0
3823 303 -304 0
3823 -623 624 0
3823 623 -624 0
-63 -2623 -64 0
63 -2623 64 0
-2703 -464 0
-143 -2703 144 0
143 -2703 -144 0
-3023 464 0
-2783 -544 0
-223 -2783 224 0
223 -2783 -224 0
-3103 544 0
-143 -3023 -144 0
143 -3023 144 0
-223 -3103 -224 0
223 -3103 224 0
-303 -3183 -304 0
303 -3183 304 0
3584 -64 65 0
3584 64 -65 0
3584 -384 385 0
3584 384 -385 0
3664 -144 145 0
3664 144 -145 0
3664 -464 465 0
3664 464 -465 0
3744 -224 225 0
3744 224 -225 0
3744 -544 545 0
3744 544 -545 0
3824 -304 305 0
3824 304 -305 0
3824 -624 625 0
3824 624 -625 0
-64 -2624 -65 0
64 -2624 65 0
-2704 -465 0
-144 -2704 145 0
144 -2704 -145 0
-3024 465 0
-2784 -545 0
-224 -2784 225 0
224 -2784 -225 0
-3104 545 0
-144 -3024 -145 0
144 -3024 145 0
-224 -3104 -225 0
224 -3104 225 0
-304 -3184 -305 0
304 -3184 305 0
3585 -65 66 0
3585 65 -66 0
3585 -385 386 0
3585 385 -386 0
3665 -145 146 0
3665 145 -146 0
3665 -465 466 0
3665 465 -466 0
3745 -225 226 0
3745 225 -226 0
3745 -545 546 0
3745 545 -546 0
3825 -305 306 0
3825 305 -306 0
3825 -625 626 0
3825 625 -626 0
-65 -2625 -66 0
65 -2625 66 0
-2705 -466 0
-145 -2705 146 0
145 -2705 -146 0
-3025 466 0
-2785 -546 0
-225 -2785 226 0
225 -2785 -226 0
-3105 546 0
-145 -3025 -146 0
145 -3025 146 0
-225 -3105 -226 0
225 -3105 226 0
-305 -3185 -306 0
305 -3185 306 0
3586 -66 67 0
3586 66 -67 0
3586 -386 387 0
3586 386 -387 0
3666 -146 147 0
3666 146 -147 0
3666 -466 467 0
3666 466 -467 0
3746 -226 227 0
3746 226 -227 0
3746 -546 547 0
3746 546 -547 0
3826 -306 307 0
3826 306 -307 0
3826 -626 627 0
3826 626 -627 0
-66 -2626 -67 0
66 -2626 67 0
-2706 -467 0
-146 -2706 147 0
146 -2706 -147 0
-3026 467 0
-2786 -547 0
-226 -2786 227 0
226 -2786 -227 0
-3106 547 0
-146 -3026 -147 0
146 -3026 147 0
-226 -3106 -227 0
226 -3106 227 0
-306 -3186 -307 0
306 -3186 307 0
3587 -67 68 0
3587 67 -68 0
3587 -387 388 0
3587 387 -388 0
3667 -147 148 0
3667 147 -148 0
3667 -467 468 0
3667 467 -468 0
3747 -227 228 0
3747 227 -228 0
3747 -547 548 0
3747 547 -548 0
3827 -307 308 0
3827 307 -308 0
3827 -627 628 0
3827 627 -628 0
-67 -2627 -68 0
67 -2627 68 0
-2707 -468 0
-147 -2707 148 0
147 -2707 -148 0
-3027 468 0
-2787 -548 0
-227 -2787 228 0
227 -2787 -228 0
-3107 548 0
-147 -3027 -148 0
147 -3027 148 0
-227 -3107 -228 0
227 -3107 228 0
-307 -3187 -308 0
307 -3187 308 0
3588 -68 69 0
3588 68 -69 0
3588 -388 389 0
3588 388 -389 0
3668 -148 149 0
3668 148 -149 0
3668 -468 469 0
3668 468 -469 0
3748 -228 229 0
3748 228 -229 0
3748 -548 549 0
3748 548 -549 0
3828 -308 309 0
3828 308 -309 0
3828 -628 629 0
3828 628 -629 0
-68 -2628 -69 0
68 -2628 69 0
-2708 -469 0
-148 -2708 149 0
148 -2708 -149 0
-3028 469 0
-2788 -549 0
-228 -2788 229 0
228 -2788 -229 0
-3108 549 0
-148 -3028 -149 0
148 -3028 149 0
-228 -3108 -229 0
228 -3108 229 0
-308 -3188 -309 0
308 -3188 309 0
3589 -69 70 0
3589 69 -70 0
3589 -389 390 0
3589 389 -390 0
3669 -149 150 0
3669 149 -150 0
3669 -469 470 0
3669 469 -470 0
3749 -229 230 0
3749 229 -230 0
3749 -549 550 0
3749 549 -550 0
3829 -309 310 0
3829 309 -310 0
3829 -629 630 0
3829 629 -630 0
-69 -2629 -70 0
69 -2629 70 0
-2709 -470 0
-149 -2709 150 0
149 -2709 -150 0
-3029 470 0
-2789 -550 0
-229 -2789 230 0
229 -2789 -230 0
-3109 550 0
-149 -3029 -150 0
149 -3029 150 0
-229 -3109 -230 0
229 -3109 230 0
-309 -3189 -310 0
309 -3189 310 0
3590 -70 71 0
3590 70 -71 0
3590 -390 391 0
3590 390 -391 0
3670 -150 151 0
3670 150 -151 0
3670 -470 471 0
3670 470 -471 0
3750 -230 231 0
3750 230 -231 0
3750 -550 551 0
3750 550 -551 0
3830 -310 311 0
3830 310 -311 0
3830 -630 631 0
3830 630 -631 0
-70 -2630 -71 0
70 -2630 71 0
-2710 -471 0
-150 -2710 151 0
150 -2710 -151 0
-3030 471 0
-2790 -551 0
-230 -2790 231 0
230 -2790 -231 0
-3110 551 0
-150 -3030 -151 0
150 -3030 151 0
-230 -3110 -231 0
230 -3110 231 0
-310 -3190 -311 0
310 -3190 311 0
3591 -71 72 0
3591 71 -72 0
3591 -391 392 0
3591 391 -392 0
3671 -151 152 0
3671 151 -152 0
3671 -471 472 0
3671 471 -472 0
3751 -231 232 0
3751 231 -232 0
3751 -551 552 0
3751 551 -552 0
3831 -311 312 0
3831 311 -312 0
3831 -631 632 0
3831 631 -632 0
-71 -2631 -72 0
71 -2631 72 0
-2711 -472 0
-151 -2711 152 0
151 -2711 -152 0
-3031 472 0
-2791 -552 0
-231 -2791 232 0
231 -2791 -232 0
-3111 552 0
-151 -3031 -152 0
151 -3031 152 0
-231 -3111 -232 0
231 -3111 232 0
-311 -3191 -312 0
311 -3191 312 0
3592 -72 73 0
3592 72 -73 0
3592 -392 393 0
3592 392 -393 0
3672 -152 153 0
3672 152 -153 0
3672 -472 473 0
3672 472 -473 0
3752 -232 233 0
3752 232 -233 0
3752 -552 553 0
3752 552 -553 0
3832 -312 313 0
3832 312 -313 0
3832 -632 633 0
3832 632 -633 0
-72 -2632 -73 0
72 -2632 73 0
-2712 -473 0
-152 -2712 153 0
152 -2712 -153 0
-3032 473 0
-2792 -553 0
-232 -2792 233 0
232 -2792 -233 0
-3112 553 0
-152 -3032 -153 0
152 -3032 153 0
-232 -3112 -233 0
232 -3112 233 0
-312 -3192 -313 0
312 -3192 313 0
3593 -73 74 0
3593 73 -74 0
3593 -393 394 0
3593 393 -394 0
3673 -153 154 0
3673 153 -154 0
3673 -473 474 0
3673 473 -474 0
3753 -233 234 0
3753 233 -234 0
3753 -553 554 0
3753 553 -554 0
3833 -313 314 0
3833 313 -314 0
3833 -633 634 0
3833 633 -634 0
-73 -2633 -74 0
73 -2633 74 0
-2713 -474 0
-153 -2713 154 0
153 -2713 -154 0
-3033 474 0
-2793 -554 0
-233 -2793 234 0
233 -2793 -234 0
-3113 554 0
-153 -3033 -154 0
153 -3033 154 0
-233 -3113 -234 0
233 -3113 234 0
-313 -3193 -314 0
313 -3193 314 0
3594 -74 75 0
3594 74 -75 0
3594 -394 395 0
3594 394 -395 0
3674 -154 155 0
3674 154 -155 0
3674 -474 475 0
3674 474 -475 0
3754 -234 235 0
3754 234 -235 0
3754 -554 555 0
3754 554 -555 0
3834 -314 315 0
3834 314 -315 0
3834 -634 635 0
3834 634 -635 0
-74 -2634 -75 0
74 -2634 75 0
-2714 -475 0
-154 -2714 155 0
154 -2714 -155 0
-3034 475 0
-2794 -555 0
-234 -2794 235 0
234 -2794 -235 0
-3114 555 0
-154 -3034 -155 0
154 -3034 155 0
-234 -3114 -235 0
234 -3114 235 0
-314 -3194 -315 0
314 -3194 315 0
3595 -75 76 0
3595 75 -76 0
3595 -395 396 0
3595 395 -396 0
3675 -155 156 0
3675 155 -156 0
3675 -475 476 0
3675 475 -476 0
3755 -235 236 0
3755 235 -236 0
3755 -555 556 0
3755 555 -556 0
3835 -315 316 0
3835 315 -316 0
3835 -635 636 0
3835 635 -636 0
-75 -2635 -76 0
75 -2635 76 0
-2715 -476 0
-155 -2715 156 0
155 -2715 -156 0
-3035 476 0
-2795 -556 0
-235 -2795 236 0
235 -2795 -236 0
-3115 556 0
-155 -3035 -156 0
155 -3035 156 0
-235 -3115 -236 0
235 -3115 236 0
-315 -3195 -316 0
315 -3195 316 0
3596 -76 77 0
3596 76 -77 0
3596 -396 397 0
3596 396 -397 0
3676 -156 157 0
3676 156 -157 0
3676 -476 477 0
3676 476 -477 0
3756 -236 237 0
3756 236 -237 0
3756 -556 557 0
3756 556 -557 0
3836 -316 317 0
3836 316 -317 0
3836 -636 637 0
3836 636 -637 0
-76 -2636 -77 0
76 -2636 77 0
-2716 -477 0
-156 -2716 157 0
156 -2716 -157 0
-3036 477 0
-2796 -557 0
-236 -2796 237 0
236 -2796 -237 0
-3116 557 0
-156 -3036 -157 0
156 -3036 157 0
-236 -3116 -237 0
236 -3116 237 0
-316 -3196 -317 0
316 -3196 317 0
3597 -77 78 0
3597 77 -78 0
3597 -397 398 0
3597 397 -398 0
3677 -157 158 0
3677 157 -158 0
3677 -477 478 0
3677 477 -478 0
3757 -237 238 0
3757 237 -238 0
3757 -557 558 0
3757 557 -558 0
3837 -317 318 0
3837 317 -318 0
3837 -637 638 0
3837 637 -638 0
-77 -2637 -78 0
77 -2637 78 0
-2717 -478 0
-157 -2717 158 0
157 -2717 -158 0
-3037 478 0
-2797 -558 0
-237 -2797 238 0
237 -2797 -238 0
-3117 558 0
-157 -3037 -158 0
157 -3037 158 0
-237 -3117 -238 0
237 -3117 238 0
-317 -3197 -318 0
317 -3197 318 0
3598 -78 79 0
3598 78 -79 0
3598 -398 399 0
3598 398 -399 0
3678 -158 159 0
3678 158 -159 0
3678 -478 479 0
3678 478 -479 0
3758 -238 239 0
3758 238 -239 0
3758 -558 559 0
3758 558 -559 0
3838 -318 319 0
3838 318 -319 0
3838 -638 639 0
3838 638 -639 0
-78 -2638 -79 0
78 -2638 79 0
-2718 -479 0
-158 -2718 159 0
158 -2718 -159 0
-3038 479 0
-2798 -559 0
-238 -2798 239 0
238 -2798 -239 0
-3118 559 0
-158 -3038 -159 0
158 -3038 159 0
-238 -3118 -239 0
238 -3118 239 0
-318 -3198 -319 0
318 -3198 319 0
3599 -79 80 0
3599 79 -80 0
3599 -399 400 0
3599 399 -400 0
3679 -159 160 0
3679 159 -160 0
3679 -479 480 0
3679 479 -480 0
3759 -239 240 0
3759 239 -240 0
3759 -559 560 0
3759 559 -560 0
3839 -319 320 0
3839 319 -320 0
3839 -639 640 0
3839 639 -640 0
-79 -2639 -80 0
79 -2639 80 0
-2719 -480 0
-159 -2719 160 0
159 -2719 -160 0
-3039 480 0
-2799 -560 0
-239 -2799 240 0
239 -2799 -240 0
-3119 560 0
-159 -3039 -160 0
159 -3039 160 0
-239 -3119 -240 0
239 -3119 240 0
-319 -3199 -320 0
319 -3199 320 0
321 0
-561 0
-641 961 0
-641 1281 0
-641 321 0
-641 -401 0
641 -961 -1281 -321 401 0
-1 81 -961 0
1 961 0
-81 961 0
1 -81 -1281 0
-1 1281 0
81 1281 0
-721 1041 0
-721 1361 0
-721 401 0
-721 -481 0
721 -1041 -1361 -401 481 0
-81 161 -1041 0
81 1041 0
-161 1041 0
81 -161 -1361 0
-81 1361 0
161 1361 0
-801 1121 0
-801 1441 0
-801 481 0
-801 -561 0
801 -1121 -1441 -481 561 0
-161 241 -1121 0
161 1121 0
-241 1121 0
161 -241 -1441 0
-161 1441 0
241 1441 0
1681 2001 0
1681 2321 0
-1681 -2001 -2321 0
-81 1 -2001 0
81 2001 0
-1 2001 0
81 -1 -2321 0
-81 2321 0
1 2321 0
1761 2081 0
1761 2401 0
-1761 -2081 -2401 0
-161 81 -2081 0
161 2081 0
-81 2081 0
161 -81 -2401 0
-161 2401 0
81 2401 0
1841 2161 0
1841 2481 0
-1841 -2161 -2481 0
-241 161 -2161 0
241 2161 0
-161 2161 0
241 -161 -2481 0
-241 2481 0
161 2481 0
322 0
-562 0
-642 962 0
-642 1282 0
-642 322 0
-642 -402 0
642 -962 -1282 -322 402 0
-2 82 -962 0
2 962 0
-82 962 0
2 -82 -1282 0
-2 1282 0
82 1282 0
-722 1042 0
-722 1362 0
-722 402 0
-722 -482 0
722 -1042 -1362 -402 482 0
-82 162 -1042 0
82 1042 0
-162 1042 0
82 -162 -1362 0
-82 1362 0
162 1362 0
-802 1122 0
-802 1442 0
-802 482 0
-802 -562 0
802 -1122 -1442 -482 562 0
-162 242 -1122 0
162 1122 0
-242 1122 0
162 -242 -1442 0
-162 1442 0
242 1442 0
1682 2002 0
1682 2322 0
-1682 -2002 -2322 0
-82 2 -2002 0
82 2002 0
-2 2002 0
82 -2 -2322 0
-82 2322 0
2 2322 0
1762 2082 0
1762 2402 0
-1762 -2082 -2402 0
-162 82 -2082 0
162 2082 0
-82 2082 0
162 -82 -2402 0
-162 2402 0
82 2402 0
1842 2162 0
1842 2482 0
-1842 -2162 -2482 0
-242 162 -2162 0
242 2162 0
-162 2162 0
242 -162 -2482 0
-242 2482 0
162 2482 0
323 0
-563 0
-643 963 0
-643 1283 0
-643 323 0
-643 -403 0
643 -963 -1283 -323 403 0
-3 83 -963 0
3 963 0
-83 963 0
3 -83 -1283 0
-3 1283 0
83 1283 0
-723 1043 0
-723 1363 0
-723 403 0
-723 -483 0
723 -1043 -1363 -403 483 0
-83 163 -1043 0
83 1043 0
-163 1043 0
83 -163 -1363 0
-83 1363 0
163 1363 0
-803 1123 0
-803 1443 0
-803 483 0
-803 -563 0
803 -1123 -1443 -483 563 0
-163 243 -1123 0
163 1123 0
-243 1123 0
163 -243 -1443 0
-163 1443 0
243 1443 0
1683 2003 0
1683 2323 0
-1683 -2003 -2323 0
-83 3 -2003 0
83 2003 0
-3 2003 0
83 -3 -2323 0
-83 2323 0
3 2323 0
1763 2083 0
1763 2403 0
-1763 -2083 -2403 0
-163 83 -2083 0
163 2083 0
-83 2083 0
163 -83 -2403 0
-163 2403 0
83 2403 0
1843 2163 0
1843 2483 0
-1843 -2163 -2483 0
-243 163 -2163 0
243 2163 0
-163 2163 0
243 -163 -2483 0
-243 2483 0
163 2483 0
324 0
-564 0
-644 964 0
-644 1284 0
-644 324 0
-644 -404 0
644 -964 -1284 -324 404 0
-4 84 -964 0
4 964 0
-84 964 0
4 -84 -1284 0
-4 1284 0
84 1284 0
-724 1044 0
-724 1364 0
-724 404 0
-724 -484 0
724 -1044 -1364 -404 484 0
-84 164 -1044 0
84 1044 0
-164 1044 0
84 -164 -1364 0
-84 1364 0
164 1364 0
-804 1124 0
-804 1444 0
-804 484 0
-804 -564 0
804 -1124 -1444 -484 564 0
-164 244 -1124 0
164 1124 0
-244 1124 0
164 -244 -1444 0
-164 1444 0
244 1444 0
1684 2004 0
1684 2324 0
-1684 -2004 -2324 0
-84 4 -2004 0
84 2004 0
-4 2004 0
84 -4 -2324 0
-84 2324 0
4 2324 0
1764 2084 0
1764 2404 0
-1764 -2084 -2404 0
-164 84 -2084 0
164 2084 0
-84 2084 0
164 -84 -2404 0
-164 2404 0
84 2404 0
1844 2164 0
1844 2484 0
-1844 -2164 -2484 0
-244 164 -2164 0
244 2164 0
-164 2164 0
244 -164 -2484 0
-244 2484 0
164 2484 0
325 0
-565 0
-645 965 0
-645 1285 0
-645 325 0
-645 -405 0
645 -965 -1285 -325 405 0
-5 85 -965 0
5 965 0
-85 965 0
5 -85 -1285 0
-5 1285 0
85 1285 0
-725 1045 0
-725 1365 0
-725 405 0
-725 -485 0
725 -1045 -1365 -405 485 0
-85 165 -1045 0
85 1045 0
-165 1045 0
85 -165 -1365 0
-85 1365 0
165 1365 0
-805 1125 0
-805 1445 0
-805 485 0
-805 -565 0
805 -1125 -1445 -485 565 0
-165 245 -1125 0
165 1125 0
-245 1125 0
165 -245 -1445 0
-165 1445 0
245 1445 0
1685 2005 0
1685 2325 0
-1685 -2005 -2325 0
-85 5 -2005 0
85 2005 0
-5 2005 0
85 -5 -2325 0
-85 2325 0
5 2325 0
1765 2085 0
1765 2405 0
-1765 -2085 -2405 0
-165 85 -2085 0
165 2085 0
-85 2085 0
165 -85 -2405 0
-165 2405 0
85 2405 0
1845 2165 0
1845 2485 0
-1845 -2165 -2485 0
-245 165 -2165 0
245 2165 0
-165 2165 0
245 -165 -2485 0
-245 2485 0
165 2485 0
326 0
-566 0
-646 966 0
-646 1286 0
-646 326 0
-646 -406 0
646 -966 -1286 -326 406 0
-6 86 -966 0
6 966 0
-86 966 0
6 -86 -1286 0
-6 1286 0
86 1286 0
-726 1046 0
-726 1366 0
-726 406 0
-726 -486 0
726 -1046 -1366 -406 486 0
-86 166 -1046 0
86 1046 0
-166 1046 0
86 -166 -1366 0
-86 1366 0
166 1366 0
-806 1126 0
-806 1446 0
-806 486 0
-806 -566 0
806 -1126 -1446 -486 566 0
-166 246 -1126 0
166 1126 0
-246 1126 0
166 -246 -1446 0
-166 1446 0
246 1446 0
1686 2006 0
1686 2326 0
-1686 -2006 -2326 0
-86 6 -2006 0
86 2006 0
-6 2006 0
86 -6 -2326 0
-86 2326 0
6 2326 0
1766 2086 0
1766 2406 0
-1766 -2086 -2406 0
-166 86 -2086 0
166 2086 0
-86 2086 0
166 -86 -2406 0
-166 2406 0
86 2406 0
1846 2166 0
1846 2486 0
-1846 -2166 -2486 0
-246 166 -2166 0
246 2166 0
-166 2166 0
246 -166 -2486 0
-246 2486 0
166 2486 0
327 0
-567 0
-647 967 0
-647 1287 0
-647 327 0
-647 -407 0
647 -967 -1287 -327 407 0
-7 87 -967 0
7 967 0
-87 967 0
7 -87 -1287 0
-7 1287 0
87 1287 0
-727 1047 0
-727 1367 0
-727 407 0
-727 -487 0
727 -1047 -1367 -407 487 0
-87 167 -1047 0
87 1047 0
-167 1047 0
87 -167 -1367 0
-87 1367 0
167 1367 0
-807 1127 0
-807 1447 0
-807 487 0
-807 -567 0
807 -1127 -1447 -487 567 0
-167 247 -1127 0
167 1127 0
-247 1127 0
167 -247 -1447 0
-167 1447 0
247 1447 0
1687 2007 0
1687 2327 0
-1687 -2007 -2327 0
-87 7 -2007 0
87 2007 0
-7 2007 0
87 -7 -2327 0
-87 2327 0
7 2327 0
1767 2087 0
1767 2407 0
-1767 -2087 -2407 0
-167 87 -2087 0
167 2087 0
-87 2087 0
167 -87 -2407 0
-167 2407 0
87 2407 0
1847 2167 0
1847 2487 0
-1847 -2167 -2487 0
-247 167 -2167 0
247 2167 0
-167 2167 0
247 -167 -2487 0
-247 2487 0
167 2487 0
328 0
-568 0
-648 968 0
-648 1288 0
-648 328 0
-648 -408 0
648 -968 -1288 -328 408 0
-8 88 -968 0
8 968 0
-88 968 0
8 -88 -1288 0
-8 1288 0
88 1288 0
-728 1048 0
-728 1368 0
-728 408 0
-728 -488 0
728 -1048 -1368 -408 488 0
-88 168 -1048 0
88 1048 0
-168 1048 0
88 -168 -1368 0
-88 1368 0
168 1368 0
-808 1128 0
-808 1448 0
-808 488 0
-808 -568 0
808 -1128 -1448 -488 568 0
-168 248 -1128 0
168 1128 0
-248 1128 0
168 -248 -1448 0
-168 1448 0
248 1448 0
1688 2008 0
1688 2328 0
-1688 -2008 -2328 0
-88 8 -2008 0
88 2008 0
-8 2008 0
88 -8 -2328 0
-88 2328 0
8 2328 0
1768 2088 0
1768 2408 0
-1768 -2088 -2408 0
-168 88 -2088 0
168 2088 0
-88 2088 0
168 -88 -2408 0
-168 2408 0
88 2408 0
1848 2168 0
1848 2488 0
-1848 -2168 -2488 0
-248 168 -2168 0
248 2168 0
-168 2168 0
248 -168 -2488 0
-248 2488 0
168 2488 0
329 0
-569 0
-649 969 0
-649 1289 0
-649 329 0
-649 -409 0
649 -969 -1289 -329 409 0
-9 89 -969 0
9 969 0
-89 969 0
9 -89 -1289 0
-9 1289 0
89 1289 0
-729 1049 0
-729 1369 0
-729 409 0
-729 -489 0
729 -1049 -1369 -409 489 0
-89 169 -1049 0
89 1049 0
-169 1049 0
89 -169 -1369 0
-89 1369 0
169 1369 0
-809 1129 0
-809 1449 0
-809 489 0
-809 -569 0
809 -1129 -1449 -489 569 0
-169 249 -1129 0
169 1129 0
-249 1129 0
169 -249 -1449 0
-169 1449 0
249 1449 0
1689 2009 0
1689 2329 0
-1689 -2009 -2329 0
-89 9 -2009 0
89 2009 0
-9 2009 0
89 -9 -2329 0
-89 2329 0
9 2329 0
1769 2089 0
1769 2409 0
-1769 -2089 -2409 0
-169 89 -2089 0
169 2089 0
-89 2089 0
169 -89 -2409 0
-169 2409 0
89 2409 0
1849 2169 0
1849 2489 0
-1849 -2169 -2489 0
-249 169 -2169 0
249 2169 0
-169 2169 0
249 -169 -2489 0
-249 2489 0
169 2489 0
330 0
-570 0
-650 970 0
-650 1290 0
-650 330 0
-650 -410 0
650 -970 -1290 -330 410 0
-10 90 -970 0
10 970 0
-90 970 0
10 -90 -1290 0
-10 1290 0
90 1290 0
-730 1050 0
-730 1370 0
-730 410 0
-730 -490 0
730 -1050 -1370 -410 490 0
-90 170 -1050 0
90 1050 0
-170 1050 0
90 -170 -1370 0
-90 1370 0
170 1370 0
-810 1130 0
-810 1450 0
-810 490 0
-810 -570 0
810 -1130 -1450 -490 570 0
-170 250 -1130 0
170 1130 0
-250 1130 0
170 -250 -1450 0
-170 1450 0
250 1450 0
1690 2010 0
1690 2330 0
-1690 -2010 -2330 0
-90 10 -2010 0
90 2010 0
-10 2010 0
90 -10 -2330 0
-90 2330 0
10 2330 0
1770 2090 0
1770 2410 0
-1770 -2090 -2410 0
-170 90 -2090 0
170 2090 0
-90 2090 0
170 -90 -2410 0
-170 2410 0
90 2410 0
1850 2170 0
1850 2490 0
-1850 -2170 -2490 0
-250 170 -2170 0
250 2170 0
-170 2170 0
250 -170 -2490 0
-250 2490 0
170 2490 0
331 0
-571 0
-651 971 0
-651 1291 0
-651 331 0
-651 -411 0
651 -971 -1291 -331 411 0
-11 91 -971 0
11 971 0
-91 971 0
11 -91 -1291 0
-11 1291 0
91 1291 0
-731 1051 0
-731 1371 0
-731 411 0
-731 -491 0
731 -1051 -1371 -411 491 0
-91 171 -1051 0
91 1051 0
-171 1051 0
91 -171 -1371 0
-91 1371 0
171 1371 0
-811 1131 0
-811 1451 0
-811 491 0
-811 -571 0
811 -1131 -1451 -491 571 0
-171 251 -1131 0
171 1131 0
-251 1131 0
171 -251 -1451 0
-171 1451 0
251 1451 0
1691 2011 0
1691 2331 0
-1691 -2011 -2331 0
-91 11 -2011 0
91 2011 0
-11 2011 0
91 -11 -2331 0
-91 2331 0
11 2331 0
1771 2091 0
1771 2411 0
-1771 -2091 -2411 0
-171 91 -2091 0
171 2091 0
-91 2091 0
171 -91 -2411 0
-171 2411 0
91 2411 0
1851 2171 0
1851 2491 0
-1851 -2171 -2491 0
-251 171 -2171 0
251 2171 0
-171 2171 0
251 -171 -2491 0
-251 2491 0
171 2491 0
332 0
-572 0
-652 972 0
-652 1292 0
-652 332 0
-652 -412 0
652 -972 -1292 -332 412 0
-12 92 -972 0
12 972 0
-92 972 0
12 -92 -1292 0
-12 1292 0
92 1292 0
-732 1052 0
-732 1372 0
-732 412 0
-732 -492 0
732 -1052 -1372 -412 492 0
-92 172 -1052 0
92 1052 0
-172 1052 0
92 -172 -1372 0
-92 1372 0
172 1372 0
-812 1132 0
-812 1452 0
-812 492 0
-812 -572 0
812 -1132 -1452 -492 572 0
-172 252 -1132 0
172 1132 0
-252 1132 0
172 -252 -1452 0
-172 1452 0
252 1452 0
1692 2012 0
1692 2332 0
-1692 -2012 -2332 0
-92 12 -2012 0
92 2012 0
-12 2012 0
92 -12 -2332 0
-92 2332 0
12 2332 0
1772 2092 0
1772 2412 0
-1772 -2092 -2412 0
-172 92 -2092 0
172 2092 0
-92 2092 0
172 -92 -2412 0
-172 2412 0
92 2412 0
1852 2172 0
1852 2492 0
-1852 -2172 -2492 0
-252 172 -2172 0
252 2172 0
-172 2172 0
252 -172 -2492 0
-252 2492 0
172 2492 0
333 0
-573 0
-653 973 0
-653 1293 0
-653 333 0
-653 -413 0
653 -973 -1293 -333 413 0
-13 93 -973 0
13 973 0
-93 973 0
13 -93 -1293 0
-13 1293 0
93 1293 0
-733 1053 0
-733 1373 0
-733 413 0
-733 -493 0
733 -1053 -1373 -413 493 0
-93 173 -1053 0
93 1053 0
-173 1053 0
93 -173 -1373 0
-93 1373 0
173 1373 0
-813 1133 0
-813 1453 0
-813 493 0
-813 -573 0
813 -1133 -1453 -493 573 0
-173 253 -1133 0
173 1133 0
-253 1133 0
173 -253 -1453 0
-173 1453 0
253 1453 0
1693 2013 0
1693 2333 0
-1693 -2013 -2333 0
-93 13 -2013 0
93 2013 0
-13 2013 0
93 -13 -2333 0
-93 2333 0
13 2333 0
1773 2093 0
1773 2413 0
-1773 -2093 -2413 0
-173 93 -2093 0
173 2093 0
-93 2093 0
173 -93 -2413 0
-173 2413 0
93 2413 0
1853 2173 0
1853 2493 0
-1853 -2173 -2493 0
-253 173 -2173 0
253 2173 0
-173 2173 0
253 -173 -2493 0
-253 2493 0
173 2493 0
334 0
-574 0
-654 974 0
-654 1294 0
-654 334 0
-654 -414 0
654 -974 -1294 -334 414 0
-14 94 -974 0
14 974 0
-94 974 0
14 -94 -1294 0
-14 1294 0
94 1294 0
-734 1054 0
-734 1374 0
-734 414 0
-734 -494 0
734 -1054 -1374 -414 494 0
-94 174 -1054 0
94 1054 0
-174 1054 0
94 -174 -1374 0
-94 1374 0
174 1374 0
-814 1134 0
-814 1454 0
-814 494 0
-814 -574 0
814 -1134 -1454 -494 574 0
-174 254 -1134 0
174 1134 0
-254 1134 0
174 -254 -1454 0
-174 1454 0
254 1454 0
1694 2014 0
1694 2334 0
-1694 -2014 -2334 0
-94 14 -2014 0
94 2014 0
-14 2014 0
94 -14 -2334 0
-94 2334 0
14 2334 0
1774 2094 0
1774 2414 0
-1774 -2094 -2414 0
-174 94 -2094 0
174 2094 0
-94 2094 0
174 -94 -2414 0
-174 2414 0
94 2414 0
1854 2174 0
1854 2494 0
-1854 -2174 -2494 0
-254 174 -2174 0
254 2174 0
-174 2174 0
254 -174 -2494 0
-254 2494 0
174 2494 0
335 0
-575 0
-655 975 0
-655 1295 0
-655 335 0
-655 -415 0
655 -975 -1295 -335 415 0
-15 95 -975 0
15 975 0
-95 975 0
15 -95 -1295 0
-15 1295 0
95 1295 0
-735 1055 0
-735 1375 0
-735 415 0
-735 -495 0
735 -1055 -1375 -415 495 0
-95 175 -1055 0
95 1055 0
-175 1055 0
95 -175 -1375 0
-95 1375 0
175 1375 0
-815 1135 0
-815 1455 0
-815 495 0
-815 -575 0
815 -1135 -1455 -495 575 0
-175 255 -1135 0
175 1135 0
-255 1135 0
175 -255 -1455 0
-175 1455 0
255 1455 0
1695 2015 0
1695 2335 0
-1695 -2015 -2335 0
-95 15 -2015 0
95 2015 0
-15 2015 0
95 -15 -2335 0
-95 2335 0
15 2335 0
1775 2095 0
1775 2415 0
-1775 -2095 -2415 0
-175 95 -2095 0
175 2095 0
-95 2095 0
175 -95 -2415 0
-175 2415 0
95 2415 0
1855 2175 0
1855 2495 0
-1855 -2175 -2495 0
-255 175 -2175 0
255 2175 0
-175 2175 0
255 -175 -2495 0
-255 2495 0
175 2495 0
336 0
-576 0
-656 976 0
-656 1296 0
-656 336 0
-656 -416 0
656 -976 -1296 -336 416 0
-16 96 -976 0
16 976 0
-96 976 0
16 -96 -1296 0
-16 1296 0
96 1296 0
-736 1056 0
-736 1376 0
-736 416 0
-736 -496 0
736 -1056 -1376 -416 496 0
-96 176 -1056 0
96 1056 0
-176 1056 0
96 -176 -1376 0
-96 1376 0
176 1376 0
-816 1136 0
-816 1456 0
-816 496 0
-816 -576 0
816 -1136 -1456 -496 576 0
-176 256 -1136 0
176 1136 0
-256 1136 0
176 -256 -1456 0
-176 1456 0
256 1456 0
1696 2016 0
1696 2336 0
-1696 -2016 -2336 0
-96 16 -2016 0
96 2016 0
-16 2016 0
96 -16 -2336 0
-96 2336 0
16 2336 0
1776 2096 0
1776 2416 0
-1776 -2096 -2416 0
-176 96 -2096 0
176 2096 0
-96 2096 0
176 -96 -2416 0
-176 2416 0
96 2416 0
1856 2176 0
1856 2496 0
-1856 -2176 -2496 0
-256 176 -2176 0
256 2176 0
-176 2176 0
256 -176 -2496 0
-256 2496 0
176 2496 0
337 0
-577 0
-657 977 0
-657 1297 0
-657 337 0
-657 -417 0
657 -977 -1297 -337 417 0
-17 97 -977 0
17 977 0
-97 977 0
17 -97 -1297 0
-17 1297 0
97 1297 0
-737 1057 0
-737 1377 0
-737 417 0
-737 -497 0
737 -1057 -1377 -417 497 0
-97 177 -1057 0
97 1057 0
-177 1057 0
97 -177 -1377 0
-97 1377 0
177 1377 0
-817 1137 0
-817 1457 0
-817 497 0
-817 -577 0
817 -1137 -1457 -497 577 0
-177 257 -1137 0
177 1137 0
-257 1137 0
177 -257 -1457 0
-177 1457 0
257 1457 0
1697 2017 0
1697 2337 0
-1697 -2017 -2337 0
-97 17 -2017 0
97 2017 0
-17 2017 0
97 -17 -2337 0
-97 2337 0
17 2337 0
1777 2097 0
1777 2417 0
-1777 -2097 -2417 0
-177 97 -2097 0
177 2097 0
-97 2097 0
177 -97 -2417 0
-177 2417 0
97 2417 0
1857 2177 0
1857 2497 0
-1857 -2177 -2497 0
-257 177 -2177 0
257 2177 0
-177 2177 0
257 -177 -2497 0
-257 2497 0
177 2497 0
338 0
-578 0
-658 978 0
-658 1298 0
-658 338 0
-658 -418 0
658 -978 -1298 -338 418 0
-18 98 -978 0
18 978 0
-98 978 0
18 -98 -1298 0
-18 1298 0
98 1298 0
-738 1058 0
-738 1378 0
-738 418 0
-738 -498 0
738 -1058 -1378 -418 498 0
-98 178 -1058 0
98 1058 0
-178 1058 0
98 -178 -1378 0
-98 1378 0
178 1378 0
-818 1138 0
-818 1458 0
-818 498 0
-818 -578 0
818 -1138 -1458 -498 578 0
-178 258 -1138 0
178 1138 0
-258 1138 0
178 -258 -1458 0
-178 1458 0
258 1458 0
1698 2018 0
1698 2338 0
-1698 -2018 -2338 0
-98 18 -2018 0
98 2018 0
-18 2018 0
98 -18 -2338 0
-98 2338 0
18 2338 0
1778 2098 0
1778 2418 0
-1778 -2098 -2418 0
-178 98 -2098 0
178 2098 0
-98 2098 0
178 -98 -2418 0
-178 2418 0
98 2418 0
1858 2178 0
1858 2498 0
-1858 -2178 -2498 0
-258 178 -2178 0
258 2178 0
-178 2178 0
258 -178 -2498 0
-258 2498 0
178 2498 0
339 0
-579 0
-659 979 0
-659 1299 0
-659 339 0
-659 -419 0
659 -979 -1299 -339 419 0
-19 99 -979 0
19 979 0
-99 979 0
19 -99 -1299 0
-19 1299 0
99 1299 0
-739 1059 0
-739 1379 0
-739 419 0
-739 -499 0
739 -1059 -1379 -419 499 0
-99 179 -1059 0
99 1059 0
-179 1059 0
99 -179 -1379 0
-99 1379 0
179 1379 0
-819 1139 0
-819 1459 0
-819 499 0
-819 -579 0
819 -1139 -1459 -499 579 0
-179 259 -1139 0
179 1139 0
-259 1139 0
179 -259 -1459 0
-179 1459 0
259 1459 0
1699 2019 0
1699 2339 0
-1699 -2019 -2339 0
-99 19 -2019 0
99 2019 0
-19 2019 0
99 -19 -2339 0
-99 2339 0
19 2339 0
1779 2099 0
1779 2419 0
-1779 -2099 -2419 0
-179 99 -2099 0
179 2099 0
-99 2099 0
179 -99 -2419 0
-179 2419 0
99 2419 0
1859 2179 0
1859 2499 0
-1859 -2179 -2499 0
-259 179 -2179 0
259 2179 0
-179 2179 0
259 -179 -2499 0
-259 2499 0
179 2499 0
340 0
-580 0
-660 980 0
-660 1300 0
-660 340 0
-660 -420 0
660 -980 -1300 -340 420 0
-20 100 -980 0
20 980 0
-100 980 0
20 -100 -1300 0
-20 1300 0
100 1300 0
-740 1060 0
-740 1380 0
-740 420 0
-740 -500 0
740 -1060 -1380 -420 500 0
-100 180 -1060 0
100 1060 0
-180 1060 0
100 -180 -1380 0
-100 1380 0
180 1380 0
-820 1140 0
-820 1460 0
-820 500 0
-820 -580 0
820 -1140 -1460 -500 580 0
-180 260 -1140 0
180 1140 0
-260 1140 0
180 -260 -1460 0
-180 1460 0
260 1460 0
1700 2020 0
1700 2340 0
-1700 -2020 -2340 0
-100 20 -2020 0
100 2020 0
-20 2020 0
100 -20 -2340 0
-100 2340 0
20 2340 0
1780 2100 0
1780 2420 0
-1780 -2100 -2420 0
-180 100 -2100 0
180 2100 0
-100 2100 0
180 -100 -2420 0
-180 2420 0
100 2420 0
1860 2180 0
1860 2500 0
-1860 -2180 -2500 0
-260 180 -2180 0
260 2180 0
-180 2180 0
260 -180 -2500 0
-260 2500 0
180 2500 0
341 0
-581 0
-661 981 0
-661 1301 0
-661 341 0
-661 -421 0
661 -981 -1301 -341 421 0
-21 101 -981 0
21 981 0
-101 981 0
21 -101 -1301 0
-21 1301 0
101 1301 0
-741 1061 0
-741 1381 0
-741 421 0
-741 -501 0
741 -1061 -1381 -421 501 0
-101 181 -1061 0
101 1061 0
-181 1061 0
101 -181 -1381 0
-101 1381 0
181 1381 0
-821 1141 0
-821 1461 0
-821 501 0
-821 -581 0
821 -1141 -1461 -501 581 0
-181 261 -1141 0
181 1141 0
-261 1141 0
181 -261 -1461 0
-181 1461 0
261 1461 0
1701 2021 0
1701 2341 0
-1701 -2021 -2341 0
-101 21 -2021 0
101 2021 0
-21 2021 0
101 -21 -2341 0
-101 2341 0
21 2341 0
1781 2101 0
1781 2421 0
-1781 -2101 -2421 0
-181 101 -2101 0
181 2101 0
-101 2101 0
181 -101 -2421 0
-181 2421 0
101 2421 0
1861 2181 0
1861 2501 0
-1861 -2181 -2501 0
-261 181 -2181 0
261 2181 0
-181 2181 0
261 -181 -2501 0
-261 2501 0
181 2501 0
342 0
-582 0
-662 982 0
-662 1302 0
-662 342 0
-662 -422 0
662 -982 -1302 -342 422 0
-22 102 -982 0
22 982 0
-102 982 0
22 -102 -1302 0
-22 1302 0
102 1302 0
-742 1062 0
-742 1382 0
-742 422 0
-742 -502 0
742 -1062 -1382 -422 502 0
-102 182 -1062 0
102 1062 0
-182 1062 0
102 -182 -1382 0
-102 1382 0
182 1382 0
-822 1142 0
-822 1462 0
-822 502 0
-822 -582 0
822 -1142 -1462 -502 582 0
-182 262 -1142 0
182 1142 0
-262 1142 0
182 -262 -1462 0
-182 1462 0
262 1462 0
1702 2022 0
1702 2342 0
-1702 -2022 -2342 0
-102 22 -2022 0
102 2022 0
-22 2022 0
102 -22 -2342 0
-102 2342 0
22 2342 0
1782 2102 0
1782 2422 0
-1782 -2102 -2422 0
-182 102 -2102 0
182 2102 0
-102 2102 0
182 -102 -2422 0
-182 2422 0
102 2422 0
1862 2182 0
1862 2502 0
-1862 -2182 -2502 0
-262 182 -2182 0
262 2182 0
-182 2182 0
262 -182 -2502 0
-262 2502 0
182 2502 0
343 0
-583 0
-663 983 0
-663 1303 0
-663 343 0
-663 -423 0
663 -983 -1303 -343 423 0
-23 103 -983 0
23 983 0
-103 983 0
23 -103 -1303 0
-23 1303 0
103 1303 0
-743 1063 0
-743 1383 0
-743 423 0
-743 -503 0
743 -1063 -1383 -423 503 0
-103 183 -1063 0
103 1063 0
-183 1063 0
103 -183 -1383 0
-103 1383 0
183 1383 0
-823 1143 0
-823 1463 0
-823 503 0
-823 -583 0
823 -1143 -1463 -503 583 0
-183 263 -1143 0
183 1143 0
-263 1143 0
183 -263 -1463 0
-183 1463 0
263 1463 0
1703 2023 0
1703 2343 0
-1703 -2023 -2343 0
-103 23 -2023 0
103 2023 0
-23 2023 0
103 -23 -2343 0
-103 2343 0
23 2343 0
1783 2103 0
1783 2423 0
-1783 -2103 -2423 0
-183 103 -2103 0
183 2103 0
-103 2103 0
183 -103 -2423 0
-183 2423 0
103 2423 0
1863 2183 0
1863 2503 0
-1863 -2183 -2503 0
-263 183 -2183 0
263 2183 0
-183 2183 0
263 -183 -2503 0
-263 2503 0
183 2503 0
344 0
-584 0
-664 984 0
-664 1304 0
-664 344 0
-664 -424 0
664 -984 -1304 -344 424 0
-24 104 -984 0
24 984 0
-104 984 0
24 -104 -1304 0
-24 1304 0
104 1304 0
-744 1064 0
-744 1384 0
-744 424 0
-744 -504 0
744 -1064 -1384 -424 504 0
-104 184 -1064 0
104 1064 0
-184 1064 0
104 -184 -1384 0
-104 1384 0
184 1384 0
-824 1144 0
-824 1464 0
-824 504 0
-824 -584 0
824 -1144 -1464 -504 584 0
-184 264 -1144 0
184 1144 0
-264 1144 0
184 -264 -1464 0
-184 1464 0
264 1464 0
1704 2024 0
1704 2344 0
-1704 -2024 -2344 0
-104 24 -2024 0
104 2024 0
-24 2024 0
104 -24 -2344 0
-104 2344 0
24 2344 0
1784 2104 0
1784 2424 0
-1784 -2104 -2424 0
-184 104 -2104 0
184 2104 0
-104 2104 0
184 -104 -2424 0
-184 2424 0
104 2424 0
1864 2184 0
1864 2504 0
-1864 -2184 -2504 0
-264 184 -2184 0
264 2184 0
-184 2184 0
264 -184 -2504 0
-264 2504 0
184 2504 0
345 0
-585 0
-665 985 0
-665 1305 0
-665 345 0
-665 -425 0
665 -985 -1305 -345 425 0
-25 105 -985 0
25 985 0
-105 985 0
25 -105 -1305 0
-25 1305 0
105 1305 0
-745 1065 0
-745 1385 0
-745 425 0
-745 -505 0
745 -1065 -1385 -425 505 0
-105 185 -1065 0
105 1065 0
-185 1065 0
105 -185 -1385 0
-105 1385 0
185 1385 0
-825 1145 0
-825 1465 0
-825 505 0
-825 -585 0
825 -1145 -1465 -505 585 0
-185 265 -1145 0
185 1145 0
-265 1145 0
185 -265 -1465 0
-185 1465 0
265 1465 0
1705 2025 0
1705 2345 0
-1705 -2025 -2345 0
-105 25 -2025 0
105 2025 0
-25 2025 0
105 -25 -2345 0
-105 2345 0
25 2345 0
1785 2105 0
1785 2425 0
-1785 -2105 -2425 0
-185 105 -2105 0
185 2105 0
-105 2105 0
185 -105 -2425 0
-185 2425 0
105 2425 0
1865 2185 0
1865 2505 0
-1865 -2185 -2505 0
-265 185 -2185 0
265 2185 0
-185 2185 0
265 -185 -2505 0
-265 2505 0
185 2505 0
346 0
-586 0
-666 986 0
-666 1306 0
-666 346 0
-666 -426 0
666 -986 -1306 -346 426 0
-26 106 -986 0
26 986 0
-106 986 0
26 -106 -1306 0
-26 1306 0
106 1306 0
-746 1066 0
-746 1386 0
-746 426 0
-746 -506 0
746 -1066 -1386 -426 506 0
-106 186 -1066 0
106 1066 0
-186 1066 0
106 -186 -1386 0
-106 1386 0
186 1386 0
-826 1146 0
-826 1466 0
-826 506 0
-826 -586 0
826 -1146 -1466 -506 586 0
-186 266 -1146 0
186 1146 0
-266 1146 0
186 -266 -1466 0
-186 1466 0
266 1466 0
1706 2026 0
1706 2346 0
-1706 -2026 -2346 0
-106 26 -2026 0
106 2026 0
-26 2026 0
106 -26 -2346 0
-106 2346 0
26 2346 0
1786 2106 0
1786 2426 0
-1786 -2106 -2426 0
-186 106 -2106 0
186 2106 0
-106 2106 0
186 -106 -2426 0
-186 2426 0
106 2426 0
1866 2186 0
1866 2506 0
-1866 -2186 -2506 0
-266 186 -2186 0
266 2186 0
-186 2186 0
266 -186 -2506 0
-266 2506 0
186 2506 0
347 0
-587 0
-667 987 0
-667 1307 0
-667 347 0
-667 -427 0
667 -987 -1307 -347 427 0
-27 107 -987 0
27 987 0
-107 987 0
27 -107 -1307 0
-27 1307 0
107 1307 0
-747 1067 0
-747 1387 0
-747 427 0
-747 -507 0
747 -1067 -1387 -427 507 0
-107 187 -1067 0
107 1067 0
-187 1067 0
107 -187 -1387 0
-107 1387 0
187 1387 0
-827 1147 0
-827 1467 0
-827 507 0
-827 -587 0
827 -1147 -1467 -507 587 0
-187 267 -1147 0
187 1147 0
-267 1147 0
187 -267 -1467 0
-187 1467 0
267 1467 0
1707 2027 0
1707 2347 0
-1707 -2027 -2347 0
-107 27 -2027 0
107 2027 0
-27 2027 0
107 -27 -2347 0
-107 2347 0
27 2347 0
1787 2107 0
1787 2427 0
-1787 -2107 -2427 0
-187 107 -2107 0
187 2107 0
-107 2107 0
187 -107 -2427 0
-187 2427 0
107 2427 0
1867 2187 0
1867 2507 0
-1867 -2187 -2507 0
-267 187 -2187 0
267 2187 0
-187 2187 0
267 -187 -2507 0
-267 2507 0
187 2507 0
348 0
-588 0
-668 988 0
-668 1308 0
-668 348 0
-668 -428 0
668 -988 -1308 -348 428 0
-28 108 -988 0
28 988 0
-108 988 0
28 -108 -1308 0
-28 1308 0
108 1308 0
-748 1068 0
-748 1388 0
-748 428 0
-748 -508 0
748 -1068 -1388 -428 508 0
-108 188 -1068 0
108 1068 0
-188 1068 0
108 -188 -1388 0
-108 1388 0
188 1388 0
-828 1148 0
-828 1468 0
-828 508 0
-828 -588 0
828 -1148 -1468 -508 588 0
-188 268 -1148 0
188 1148 0
-268 1148 0
188 -268 -1468 0
-188 1468 0
268 1468 0
1708 2028 0
1708 2348 0
-1708 -2028 -2348 0
-108 28 -2028 0
108 2028 0
-28 2028 0
108 -28 -2348 0
-108 2348 0
28 2348 0
1788 2108 0
1788 2428 0
-1788 -2108 -2428 0
-188 108 -2108 0
188 2108 0
-108 2108 0
188 -108 -2428 0
-188 2428 0
108 2428 0
1868 2188 0
1868 2508 0
-1868 -2188 -2508 0
-268 188 -2188 0
268 2188 0
-188 2188 0
268 -188 -2508 0
-268 2508 0
188 2508 0
349 0
-589 0
-669 989 0
-669 1309 0
-669 349 0
-669 -429 0
669 -989 -1309 -349 429 0
-29 109 -989 0
29 989 0
-109 989 0
29 -109 -1309 0
-29 1309 0
109 1309 0
-749 1069 0
-749 1389 0
-749 429 0
-749 -509 0
749 -1069 -1389 -429 509 0
-109 189 -1069 0
109 1069 0
-189 1069 0
109 -189 -1389 0
-109 1389 0
189 1389 0
-829 1149 0
-829 1469 0
-829 509 0
-829 -589 0
829 -1149 -1469 -509 589 0
-189 269 -1149 0
189 1149 0
-269 1149 0
189 -269 -1469 0
-189 1469 0
269 1469 0
1709 2029 0
1709 2349 0
-1709 -2029 -2349 0
-109 29 -2029 0
109 2029 0
-29 2029 0
109 -29 -2349 0
-109 2349 0
29 2349 0
1789 2109 0
1789 2429 0
-1789 -2109 -2429 0
-189 109 -2109 0
189 2109 0
-109 2109 0
189 -109 -2429 0
-189 2429 0
109 2429 0
1869 2189 0
1869 2509 0
-1869 -2189 -2509 0
-269 189 -2189 0
269 2189 0
-189 2189 0
269 -189 -2509 0
-269 2509 0
189 2509 0
350 0
-590 0
-670 990 0
-670 1310 0
-670 350 0
-670 -430 0
670 -990 -1310 -350 430 0
-30 110 -990 0
30 990 0
-110 990 0
30 -110 -1310 0
-30 1310 0
110 1310 0
-750 1070 0
-750 1390 0
-750 430 0
-750 -510 0
750 -1070 -1390 -430 510 0
-110 190 -1070 0
110 1070 0
-190 1070 0
110 -190 -1390 0
-110 1390 0
190 1390 0
-830 1150 0
-830 1470 0
-830 510 0
-830 -590 0
830 -1150 -1470 -510 590 0
-190 270 -1150 0
190 1150 0
-270 1150 0
190 -270 -1470 0
-190 1470 0
270 1470 0
1710 2030 0
1710 2350 0
-1710 -2030 -2350 0
-110 30 -2030 0
110 2030 0
-30 2030 0
110 -30 -2350 0
-110 2350 0
30 2350 0
1790 2110 0
1790 2430 0
-1790 -2110 -2430 0
-190 110 -2110 0
190 2110 0
-110 2110 0
190 -110 -2430 0
-190 2430 0
110 2430 0
1870 2190 0
1870 2510 0
-1870 -2190 -2510 0
-270 190 -2190 0
270 2190 0
-190 2190 0
270 -190 -2510 0
-270 2510 0
190 2510 0
351 0
-591 0
-671 991 0
-671 1311 0
-671 351 0
-671 -431 0
671 -991 -1311 -351 431 0
-31 111 -991 0
31 991 0
-111 991 0
31 -111 -1311 0
-31 1311 0
111 1311 0
-751 1071 0
-751 1391 0
-751 431 0
-751 -511 0
751 -1071 -1391 -431 511 0
-111 191 -1071 0
111 1071 0
-191 1071 0
111 -191 -1391 0
-111 1391 0
191 1391 0
-831 1151 0
-831 1471 0
-831 511 0
-831 -591 0
831 -1151 -1471 -511 591 0
-191 271 -1151 0
191 1151 0
-271 1151 0
191 -271 -1471 0
-191 1471 0
271 1471 0
1711 2031 0
1711 2351 0
-1711 -2031 -2351 0
-111 31 -2031 0
111 2031 0
-31 2031 0
111 -31 -2351 0
-111 2351 0
31 2351 0
1791 2111 0
1791 2431 0
-1791 -2111 -2431 0
-191 111 -2111 0
191 2111 0
-111 2111 0
191 -111 -2431 0
-191 2431 0
111 2431 0
1871 2191 0
1871 2511 0
-1871 -2191 -2511 0
-271 191 -2191 0
271 2191 0
-191 2191 0
271 -191 -2511 0
-271 2511 0
191 2511 0
352 0
-592 0
-672 992 0
-672 1312 0
-672 352 0
-672 -432 0
672 -992 -1312 -352 432 0
-32 112 -992 0
32 992 0
-112 992 0
32 -112 -1312 0
-32 1312 0
112 1312 0
-752 1072 0
-752 1392 0
-752 432 0
-752 -512 0
752 -1072 -1392 -432 512 0
-112 192 -1072 0
112 1072 0
-192 1072 0
112 -192 -1392 0
-112 1392 0
192 1392 0
-832 1152 0
-832 1472 0
-832 512 0
-832 -592 0
832 -1152 -1472 -512 592 0
-192 272 -1152 0
192 1152 0
-272 1152 0
192 -272 -1472 0
-192 1472 0
272 1472 0
1712 2032 0
1712 2352 0
-1712 -2032 -2352 0
-112 32 -2032 0
112 2032 0
-32 2032 0
112 -32 -2352 0
-112 2352 0
32 2352 0
1792 2112 0
1792 2432 0
-1792 -2112 -2432 0
-192 112 -2112 0
192 2112 0
-112 2112 0
192 -112 -2432 0
-192 2432 0
112 2432 0
1872 2192 0
1872 2512 0
-1872 -2192 -2512 0
-272 192 -2192 0
272 2192 0
-192 2192 0
272 -192 -2512 0
-272 2512 0
192 2512 0
353 0
-593 0
-673 993 0
-673 1313 0
-673 353 0
-673 -433 0
673 -993 -1313 -353 433 0
-33 113 -993 0
33 993 0
-113 993 0
33 -113 -1313 0
-33 1313 0
113 1313 0
-753 1073 0
-753 1393 0
-753 433 0
-753 -513 0
753 -1073 -1393 -433 513 0
-113 193 -1073 0
113 1073 0
-193 1073 0
113 -193 -1393 0
-113 1393 0
193 1393 0
-833 1153 0
-833 1473 0
-833 513 0
-833 -593 0
833 -1153 -1473 -513 593 0
-193 273 -1153 0
193 1153 0
-273 1153 0
193 -273 -1473 0
-193 1473 0
273 1473 0
1713 2033 0
1713 2353 0
-1713 -2033 -2353 0
-113 33 -2033 0
113 2033 0
-33 2033 0
113 -33 -2353 0
-113 2353 0
33 2353 0
1793 2113 0
1793 2433 0
-1793 -2113 -2433 0
-193 113 -2113 0
193 2113 0
-113 2113 0
193 -113 -2433 0
-193 2433 0
113 2433 0
1873 2193 0
1873 2513 0
-1873 -2193 -2513 0
-273 193 -2193 0
273 2193 0
-193 2193 0
273 -193 -2513 0
-273 2513 0
193 2513 0
354 0
-594 0
-674 994 0
-674 1314 0
-674 354 0
-674 -434 0
674 -994 -1314 -354 434 0
-34 114 -994 0
34 994 0
-114 994 0
34 -114 -1314 0
-34 1314 0
114 1314 0
-754 1074 0
-754 1394 0
-754 434 0
-754 -514 0
754 -1074 -1394 -434 514 0
-114 194 -1074 0
114 1074 0
-194 1074 0
114 -194 -1394 0
-114 1394 0
194 1394 0
-834 1154 0
-834 1474 0
-834 514 0
-834 -594 0
834 -1154 -1474 -514 594 0
-194 274 -1154 0
194 1154 0
-274 1154 0
194 -274 -1474 0
-194 1474 0
274 1474 0
1714 2034 0
1714 2354 0
-1714 -2034 -2354 0
-114 34 -2034 0
114 2034 0
-34 2034 0
114 -34 -2354 0
-114 2354 0
34 2354 0
1794 2114 0
1794 2434 0
-1794 -2114 -2434 0
-194 114 -2114 0
194 2114 0
-114 2114 0
194 -114 -2434 0
-194 2434 0
114 2434 0
1874 2194 0
1874 2514 0
-1874 -2194 -2514 0
-274 194 -2194 0
274 2194 0
-194 2194 0
274 -194 -2514 0
-274 2514 0
194 2514 0
355 0
-595 0
-675 995 0
-675 1315 0
-675 355 0
-675 -435 0
675 -995 -1315 -355 435 0
-35 115 -995 0
35 995 0
-115 995 0
35 -115 -1315 0
-35 1315 0
115 1315 0
-755 1075 0
-755 1395 0
-755 435 0
-755 -515 0
755 -1075 -1395 -435 515 0
-115 195 -1075 0
115 1075 0
-195 1075 0
115 -195 -1395 0
-115 1395 0
195 1395 0
-835 1155 0
-835 1475 0
-835 515 0
-835 -595 0
835 -1155 -1475 -515 595 0
-195 275 -1155 0
195 1155 0
-275 1155 0
195 -275 -1475 0
-195 1475 0
275 1475 0
1715 2035 0
1715 2355 0
-1715 -2035 -2355 0
-115 35 -2035 0
115 2035 0
-35 2035 0
115 -35 -2355 0
-115 2355 0
35 2355 0
1795 2115 0
1795 2435 0
-1795 -2115 -2435 0
-195 115 -2115 0
195 2115 0
-115 2115 0
195 -115 -2435 0
-195 2435 0
115 2435 0
1875 2195 0
1875 2515 0
-1875 -2195 -2515 0
-275 195 -2195 0
275 2195 0
-195 2195 0
275 -195 -2515 0
-275 2515 0
195 2515 0
356 0
-596 0
-676 996 0
-676 1316 0
-676 356 0
-676 -436 0
676 -996 -1316 -356 436 0
-36 116 -996 0
36 996 0
-116 996 0
36 -116 -1316 0
-36 1316 0
116 1316 0
-756 1076 0
-756 1396 0
-756 436 0
-756 -516 0
756 -1076 -1396 -436 516 0
-116 196 -1076 0
116 1076 0
-196 1076 0
116 -196 -1396 0
-116 1396 0
196 1396 0
-836 1156 0
-836 1476 0
-836 516 0
-836 -596 0
836 -1156 -1476 -516 596 0
-196 276 -1156 0
196 1156 0
-276 1156 0
196 -276 -1476 0
-196 1476 0
276 1476 0
1716 2036 0
1716 2356 0
-1716 -2036 -2356 0
-116 36 -2036 0
116 2036 0
-36 2036 0
116 -36 -2356 0
-116 2356 0
36 2356 0
1796 2116 0
1796 2436 0
-1796 -2116 -2436 0
-196 116 -2116 0
196 2116 0
-116 2116 0
196 -116 -2436 0
-196 2436 0
116 2436 0
1876 2196 0
1876 2516 0
-1876 -2196 -2516 0
-276 196 -2196 0
276 2196 0
-196 2196 0
276 -196 -2516 0
-276 2516 0
196 2516 0
357 0
-597 0
-677 997 0
-677 1317 0
-677 357 0
-677 -437 0
677 -997 -1317 -357 437 0
-37 117 -997 0
37 997 0
-117 997 0
37 -117 -1317 0
-37 1317 0
117 1317 0
-757 1077 0
-757 1397 0
-757 437 0
-757 -517 0
757 -1077 -1397 -437 517 0
-117 197 -1077 0
117 1077 0
-197 1077 0
117 -197 -1397 0
-117 1397 0
197 1397 0
-837 1157 0
-837 1477 0
-837 517 0
-837 -597 0
837 -1157 -1477 -517 597 0
-197 277 -1157 0
197 1157 0
-277 1157 0
197 -277 -1477 0
-197 1477 0
277 1477 0
1717 2037 0
1717 2357 0
-1717 -2037 -2357 0
-117 37 -2037 0
117 2037 0
-37 2037 0
117 -37 -2357 0
-117 2357 0
37 2357 0
1797 2117 0
1797 2437 0
-1797 -2117 -2437 0
-197 117 -2117 0
197 2117 0
-117 2117 0
197 -117 -2437 0
-197 2437 0
117 2437 0
1877 2197 0
1877 2517 0
-1877 -2197 -2517 0
-277 197 -2197 0
277 2197 0
-197 2197 0
277 -197 -2517 0
-277 2517 0
197 2517 0
358 0
-598 0
-678 998 0
-678 1318 0
-678 358 0
-678 -438 0
678 -998 -1318 -358 438 0
-38 118 -998 0
38 998 0
-118 998 0
38 -118 -1318 0
-38 1318 0
118 1318 0
-758 1078 0
-758 1398 0
-758 438 0
-758 -518 0
758 -1078 -1398 -438 518 0
-118 198 -1078 0
118 1078 0
-198 1078 0
118 -198 -1398 0
-118 1398 0
198 1398 0
-838 1158 0
-838 1478 0
-838 518 0
-838 -598 0
838 -1158 -1478 -518 598 0
-198 278 -1158 0
198 1158 0
-278 1158 0
198 -278 -1478 0
-198 1478 0
278 1478 0
1718 2038 0
1718 2358 0
-1718 -2038 -2358 0
-118 38 -2038 0
118 2038 0
-38 2038 0
118 -38 -2358 0
-118 2358 0
38 2358 0
1798 2118 0
1798 2438 0
-1798 -2118 -2438 0
-198 118 -2118 0
198 2118 0
-118 2118 0
198 -118 -2438 0
-198 2438 0
118 2438 0
1878 2198 0
1878 2518 0
-1878 -2198 -2518 0
-278 198 -2198 0
278 2198 0
-198 2198 0
278 -198 -2518 0
-278 2518 0
198 2518 0
359 0
-599 0
-679 999 0
-679 1319 0
-679 359 0
-679 -439 0
679 -999 -1319 -359 439 0
-39 119 -999 0
39 999 0
-119 999 0
39 -119 -1319 0
-39 1319 0
119 1319 0
-759 1079 0
-759 1399 0
-759 439 0
-759 -519 0
759 -1079 -1399 -439 519 0
-119 199 -1079 0
119 1079 0
-199 1079 0
119 -199 -1399 0
-119 1399 0
199 1399 0
-839 1159 0
-839 1479 0
-839 519 0
-839 -599 0
839 -1159 -1479 -519 599 0
-199 279 -1159 0
199 1159 0
-279 1159 0
199 -279 -1479 0
-199 1479 0
279 1479 0
1719 2039 0
1719 2359 0
-1719 -2039 -2359 0
-119 39 -2039 0
119 2039 0
-39 2039 0
119 -39 -2359 0
-119 2359 0
39 2359 0
1799 2119 0
1799 2439 0
-1799 -2119 -2439 0
-199 119 -2119 0
199 2119 0
-119 2119 0
199 -119 -2439 0
-199 2439 0
119 2439 0
1879 2199 0
1879 2519 0
-1879 -2199 -2519 0
-279 199 -2199 0
279 2199 0
-199 2199 0
279 -199 -2519 0
-279 2519 0
199 2519 0
360 0
-600 0
-680 1000 0
-680 1320 0
-680 360 0
-680 -440 0
680 -1000 -1320 -360 440 0
-40 120 -1000 0
40 1000 0
-120 1000 0
40 -120 -1320 0
-40 1320 0
120 1320 0
-760 1080 0
-760 1400 0
-760 440 0
-760 -520 0
760 -1080 -1400 -440 520 0
-120 200 -1080 0
120 1080 0
-200 1080 0
120 -200 -1400 0
-120 1400 0
200 1400 0
-840 1160 0
-840 1480 0
-840 520 0
-840 -600 0
840 -1160 -1480 -520 600 0
-200 280 -1160 0
200 1160 0
-280 1160 0
200 -280 -1480 0
-200 1480 0
280 1480 0
1720 2040 0
1720 2360 0
-1720 -2040 -2360 0
-120 40 -2040 0
120 2040 0
-40 2040 0
120 -40 -2360 0
-120 2360 0
40 2360 0
1800 2120 0
1800 2440 0
-1800 -2120 -2440 0
-200 120 -2120 0
200 2120 0
-120 2120 0
200 -120 -2440 0
-200 2440 0
120 2440 0
1880 2200 0
1880 2520 0
-1880 -2200 -2520 0
-280 200 -2200 0
280 2200 0
-200 2200 0
280 -200 -2520 0
-280 2520 0
200 2520 0
361 0
-601 0
-681 1001 0
-681 1321 0
-681 361 0
-681 -441 0
681 -1001 -1321 -361 441 0
-41 121 -1001 0
41 1001 0
-121 1001 0
41 -121 -1321 0
-41 1321 0
121 1321 0
-761 1081 0
-761 1401 0
-761 441 0
-761 -521 0
761 -1081 -1401 -441 521 0
-121 201 -1081 0
121 1081 0
-201 1081 0
121 -201 -1401 0
-121 1401 0
201 1401 0
-841 1161 0
-841 1481 0
-841 521 0
-841 -601 0
841 -1161 -1481 -521 601 0
-201 281 -1161 0
201 1161 0
-281 1161 0
201 -281 -1481 0
-201 1481 0
281 1481 0
1721 2041 0
1721 2361 0
-1721 -2041 -2361 0
-121 41 -2041 0
121 2041 0
-41 2041 0
121 -41 -2361 0
-121 2361 0
41 2361 0
1801 2121 0
1801 2441 0
-1801 -2121 -2441 0
-201 121 -2121 0
201 2121 0
-121 2121 0
201 -121 -2441 0
-201 2441 0
121 2441 0
1881 2201 0
1881 2521 0
-1881 -2201 -2521 0
-281 201 -2201 0
281 2201 0
-201 2201 0
281 -201 -2521 0
-281 2521 0
201 2521 0
362 0
-602 0
-682 1002 0
-682 1322 0
-682 362 0
-682 -442 0
682 -1002 -1322 -362 442 0
-42 122 -1002 0
42 1002 0
-122 1002 0
42 -122 -1322 0
-42 1322 0
122 1322 0
-762 1082 0
-762 1402 0
-762 442 0
-762 -522 0
762 -1082 -1402 -442 522 0
-122 202 -1082 0
122 1082 0
-202 1082 0
122 -202 -1402 0
-122 1402 0
202 1402 0
-842 1162 0
-842 1482 0
-842 522 0
-842 -602 0
842 -1162 -1482 -522 602 0
-202 282 -1162 0
202 1162 0
-282 1162 0
202 -282 -1482 0
-202 1482 0
282 1482 0
1722 2042 0
1722 2362 0
-1722 -2042 -2362 0
-122 42 -2042 0
122 2042 0
-42 2042 0
122 -42 -2362 0
-122 2362 0
42 2362 0
1802 2122 0
1802 2442 0
-1802 -2122 -2442 0
-202 122 -2122 0
202 2122 0
-122 2122 0
202 -122 -2442 0
-202 2442 0
122 2442 0
1882 2202 0
1882 2522 0
-1882 -2202 -2522 0
-282 202 -2202 0
282 2202 0
-202 2202 0
282 -202 -2522 0
-282 2522 0
202 2522 0
363 0
-603 0
-683 1003 0
-683 1323 0
-683 363 0
-683 -443 0
683 -1003 -1323 -363 443 0
-43 123 -1003 0
43 1003 0
-123 1003 0
43 -123 -1323 0
-43 1323 0
123 1323 0
-763 1083 0
-763 1403 0
-763 443 0
-763 -523 0
763 -1083 -1403 -443 523 0
-123 203 -1083 0
123 1083 0
-203 1083 0
123 -203 -1403 0
-123 1403 0
203 1403 0
-843 1163 0
-843 1483 0
-843 523 0
-843 -603 0
843 -1163 -1483 -523 603 0
-203 283 -1163 0
203 1163 0
-283 1163 0
203 -283 -1483 0
-203 1483 0
283 1483 0
1723 2043 0
1723 2363 0
-1723 -2043 -2363 0
-123 43 -2043 0
123 2043 0
-43 2043 0
123 -43 -2363 0
-123 2363 0
43 2363 0
1803 2123 0
1803 2443 0
-1803 -2123 -2443 0
-203 123 -2123 0
203 2123 0
-123 2123 0
203 -123 -2443 0
-203 2443 0
123 2443 0
1883 2203 0
1883 2523 0
-1883 -2203 -2523 0
-283 203 -2203 0
283 2203 0
-203 2203 0
283 -203 -2523 0
-283 2523 0
203 2523 0
364 0
-604 0
-684 1004 0
-684 1324 0
-684 364 0
-684 -444 0
684 -1004 -1324 -364 444 0
-44 124 -1004 0
44 1004 0
-124 1004 0
44 -124 -1324 0
-44 1324 0
124 1324 0
-764 1084 0
-764 1404 0
-764 444 0
-764 -524 0
764 -1084 -1404 -444 524 0
-124 204 -1084 0
124 1084 0
-204 1084 0
124 -204 -1404 0
-124 1404 0
204 1404 0
-844 1164 0
-844 1484 0
-844 524 0
-844 -604 0
844 -1164 -1484 -524 604 0
-204 284 -1164 0
204 1164 0
-284 1164 0
204 -284 -1484 0
-204 1484 0
284 1484 0
1724 2044 0
1724 2364 0
-1724 -2044 -2364 0
-124 44 -2044 0
124 2044 0
-44 2044 0
124 -44 -2364 0
-124 2364 0
44 2364 0
1804 2124 0
1804 2444 0
-1804 -2124 -2444 0
-204 124 -2124 0
204 2124 0
-124 2124 0
204 -124 -2444 0
-204 2444 0
124 2444 0
1884 2204 0
1884 2524 0
-1884 -2204 -2524 0
-284 204 -2204 0
284 2204 0
-204 2204 0
284 -204 -2524 0
-284 2524 0
204 2524 0
365 0
-605 0
-685 1005 0
-685 1325 0
-685 365 0
-685 -445 0
685 -1005 -1325 -365 445 0
-45 125 -1005 0
45 1005 0
-125 1005 0
45 -125 -1325 0
-45 1325 0
125 1325 0
-765 1085 0
-765 1405 0
-765 445 0
-765 -525 0
765 -1085 -1405 -445 525 0
-125 205 -1085 0
125 1085 0
-205 1085 0
125 -205 -1405 0
-125 1405 0
205 1405 0
-845 1165 0
-845 1485 0
-845 525 0
-845 -605 0
845 -1165 -1485 -525 605 0
-205 285 -1165 0
205 1165 0
-285 1165 0
205 -285 -1485 0
-205 1485 0
285 1485 0
1725 2045 0
1725 2365 0
-1725 -2045 -2365 0
-125 45 -2045 0
125 2045 0
-45 2045 0
125 -45 -2365 0
-125 2365 0
45 2365 0
1805 2125 0
1805 2445 0
-1805 -2125 -2445 0
-205 125 -2125 0
205 2125 0
-125 2125 0
205 -125 -2445 0
-205 2445 0
125 2445 0
1885 2205 0
1885 2525 0
-1885 -2205 -2525 0
-285 205 -2205 0
285 2205 0
-205 2205 0
285 -205 -2525 0
-285 2525 0
205 2525 0
366 0
-606 0
-686 1006 0
-686 1326 0
-686 366 0
-686 -446 0
686 -1006 -1326 -366 446 0
-46 126 -1006 0
46 1006 0
-126 1006 0
46 -126 -1326 0
-46 1326 0
126 1326 0
-766 1086 0
-766 1406 0
-766 446 0
-766 -526 0
766 -1086 -1406 -446 526 0
-126 206 -1086 0
126 1086 0
-206 1086 0
126 -206 -1406 0
-126 1406 0
206 1406 0
-846 1166 0
-846 1486 0
-846 526 0
-846 -606 0
846 -1166 -1486 -526 606 0
-206 286 -1166 0
206 1166 0
-286 1166 0
206 -286 -1486 0
-206 1486 0
286 1486 0
1726 2046 0
1726 2366 0
-1726 -2046 -2366 0
-126 46 -2046 0
126 2046 0
-46 2046 0
126 -46 -2366 0
-126 2366 0
46 2366 0
1806 2126 0
1806 2446 0
-1806 -2126 -2446 0
-206 126 -2126 0
206 2126 0
-126 2126 0
206 -126 -2446 0
-206 2446 0
126 2446 0
1886 2206 0
1886 2526 0
-1886 -2206 -2526 0
-286 206 -2206 0
286 2206 0
-206 2206 0
286 -206 -2526 0
-286 2526 0
206 2526 0
367 0
-607 0
-687 1007 0
-687 1327 0
-687 367 0
-687 -447 0
687 -1007 -1327 -367 447 0
-47 127 -1007 0
47 1007 0
-127 1007 0
47 -127 -1327 0
-47 1327 0
127 1327 0
-767 1087 0
-767 1407 0
-767 447 0
-767 -527 0
767 -1087 -1407 -447 527 0
-127 207 -1087 0
127 1087 0
-207 1087 0
127 -207 -1407 0
-127 1407 0
207 1407 0
-847 1167 0
-847 1487 0
-847 527 0
-847 -607 0
847 -1167 -1487 -527 607 0
-207 287 -1167 0
207 1167 0
-287 1167 0
207 -287 -1487 0
-207 1487 0
287 1487 0
1727 2047 0
1727 2367 0
-1727 -2047 -2367 0
-127 47 -2047 0
127 2047 0
-47 2047 0
127 -47 -2367 0
-127 2367 0
47 2367 0
1807 2127 0
1807 2447 0
-1807 -2127 -2447 0
-207 127 -2127 0
207 2127 0
-127 2127 0
207 -127 -2447 0
-207 2447 0
127 2447 0
1887 2207 0
1887 2527 0
-1887 -2207 -2527 0
-287 207 -2207 0
287 2207 0
-207 2207 0
287 -207 -2527 0
-287 2527 0
207 2527 0
368 0
-608 0
-688 1008 0
-688 1328 0
-688 368 0
-688 -448 0
688 -1008 -1328 -368 448 0
-48 128 -1008 0
48 1008 0
-128 1008 0
48 -128 -1328 0
-48 1328 0
128 1328 0
-768 1088 0
-768 1408 0
-768 448 0
-768 -528 0
768 -1088 -1408 -448 528 0
-128 208 -1088 0
128 1088 0
-208 1088 0
128 -208 -1408 0
-128 1408 0
208 1408 0
-848 1168 0
-848 1488 0
-848 528 0
-848 -608 0
848 -1168 -1488 -528 608 0
-208 288 -1168 0
208 1168 0
-288 1168 0
208 -288 -1488 0
-208 1488 0
288 1488 0
1728 2048 0
1728 2368 0
-1728 -2048 -2368 0
-128 48 -2048 0
128 2048 0
-48 2048 0
128 -48 -2368 0
-128 2368 0
48 2368 0
1808 2128 0
1808 2448 0
-1808 -2128 -2448 0
-208 128 -2128 0
208 2128 0
-128 2128 0
208 -128 -2448 0
-208 2448 0
128 2448 0
1888 2208 0
1888 2528 0
-1888 -2208 -2528 0
-288 208 -2208 0
288 2208 0
-208 2208 0
288 -208 -2528 0
-288 2528 0
208 2528 0
369 0
-609 0
-689 1009 0
-689 1329 0
-689 369 0
-689 -449 0
689 -1009 -1329 -369 449 0
-49 129 -1009 0
49 1009 0
-129 1009 0
49 -129 -1329 0
-49 1329 0
129 1329 0
-769 1089 0
-769 1409 0
-769 449 0
-769 -529 0
769 -1089 -1409 -449 529 0
-129 209 -1089 0
129 1089 0
-209 1089 0
129 -209 -1409 0
-129 1409 0
209 1409 0
-849 1169 0
-849 1489 0
-849 529 0
-849 -609 0
849 -1169 -1489 -529 609 0
-209 289 -1169 0
209 1169 0
-289 1169 0
209 -289 -1489 0
-209 1489 0
289 1489 0
1729 2049 0
1729 2369 0
-1729 -2049 -2369 0
-129 49 -2049 0
129 2049 0
-49 2049 0
129 -49 -2369 0
-129 2369 0
49 2369 0
1809 2129 0
1809 2449 0
-1809 -2129 -2449 0
-209 129 -2129 0
209 2129 0
-129 2129 0
209 -129 -2449 0
-209 2449 0
129 2449 0
1889 2209 0
1889 2529 0
-1889 -2209 -2529 0
-289 209 -2209 0
289 2209 0
-209 2209 0
289 -209 -2529 0
-289 2529 0
209 2529 0
370 0
-610 0
-690 1010 0
-690 1330 0
-690 370 0
-690 -450 0
690 -1010 -1330 -370 450 0
-50 130 -1010 0
50 1010 0
-130 1010 0
50 -130 -1330 0
-50 1330 0
130 1330 0
-770 1090 0
-770 1410 0
-770 450 0
-770 -530 0
770 -1090 -1410 -450 530 0
-130 210 -1090 0
130 1090 0
-210 1090 0
130 -210 -1410 0
-130 1410 0
210 1410 0
-850 1170 0
-850 1490 0
-850 530 0
-850 -610 0
850 -1170 -1490 -530 610 0
-210 290 -1170 0
210 1170 0
-290 1170 0
210 -290 -1490 0
-210 1490 0
290 1490 0
1730 2050 0
1730 2370 0
-1730 -2050 -2370 0
-130 50 -2050 0
130 2050 0
-50 2050 0
130 -50 -2370 0
-130 2370 0
50 2370 0
1810 2130 0
1810 2450 0
-1810 -2130 -2450 0
-210 130 -2130 0
210 2130 0
-130 2130 0
210 -130 -2450 0
-210 2450 0
130 2450 0
1890 2210 0
1890 2530 0
-1890 -2210 -2530 0
-290 210 -2210 0
290 2210 0
-210 2210 0
290 -210 -2530 0
-290 2530 0
210 2530 0
371 0
-611 0
-691 1011 0
-691 1331 0
-691 371 0
-691 -451 0
691 -1011 -1331 -371 451 0
-51 131 -1011 0
51 1011 0
-131 1011 0
51 -131 -1331 0
-51 1331 0
131 1331 0
-771 1091 0
-771 1411 0
-771 451 0
-771 -531 0
771 -1091 -1411 -451 531 0
-131 211 -1091 0
131 1091 0
-211 1091 0
131 -211 -1411 0
-131 1411 0
211 1411 0
-851 1171 0
-851 1491 0
-851 531 0
-851 -611 0
851 -1171 -1491 -531 611 0
-211 291 -1171 0
211 1171 0
-291 1171 0
211 -291 -1491 0
-211 1491 0
291 1491 0
1731 2051 0
1731 2371 0
-1731 -2051 -2371 0
-131 51 -2051 0
131 2051 0
-51 2051 0
131 -51 -2371 0
-131 2371 0
51 2371 0
1811 2131 0
1811 2451 0
-1811 -2131 -2451 0
-211 131 -2131 0
211 2131 0
-131 2131 0
211 -131 -2451 0
-211 2451 0
131 2451 0
1891 2211 0
1891 2531 0
-1891 -2211 -2531 0
-291 211 -2211 0
291 2211 0
-211 2211 0
291 -211 -2531 0
-291 2531 0
211 2531 0
372 0
-612 0
-692 1012 0
-692 1332 0
-692 372 0
-692 -452 0
692 -1012 -1332 -372 452 0
-52 132 -1012 0
52 1012 0
-132 1012 0
52 -132 -1332 0
-52 1332 0
132 1332 0
-772 1092 0
-772 1412 0
-772 452 0
-772 -532 0
772 -1092 -1412 -452 532 0
-132 212 -1092 0
132 1092 0
-212 1092 0
132 -212 -1412 0
-132 1412 0
212 1412 0
-852 1172 0
-852 1492 0
-852 532 0
-852 -612 0
852 -1172 -1492 -532 612 0
-212 292 -1172 0
212 1172 0
-292 1172 0
212 -292 -1492 0
-212 1492 0
292 1492 0
1732 2052 0
1732 2372 0
-1732 -2052 -2372 0
-132 52 -2052 0
132 2052 0
-52 2052 0
132 -52 -2372 0
-132 2372 0
52 2372 0
1812 2132 0
1812 2452 0
-1812 -2132 -2452 0
-212 132 -2132 0
212 2132 0
-132 2132 0
212 -132 -2452 0
-212 2452 0
132 2452 0
1892 2212 0
1892 2532 0
-1892 -2212 -2532 0
-292 212 -2212 0
292 2212 0
-212 2212 0
292 -212 -2532 0
-292 2532 0
212 2532 0
373 0
-613 0
-693 1013 0
-693 1333 0
-693 373 0
-693 -453 0
693 -1013 -1333 -373 453 0
-53 133 -1013 0
53 1013 0
-133 1013 0
53 -133 -1333 0
-53 1333 0
133 1333 0
-773 1093 0
-773 1413 0
-773 453 0
-773 -533 0
773 -1093 -1413 -453 533 0
-133 213 -1093 0
133 1093 0
-213 1093 0
133 -213 -1413 0
-133 1413 0
213 1413 0
-853 1173 0
-853 1493 0
-853 533 0
-853 -613 0
853 -1173 -1493 -533 613 0
-213 293 -1173 0
213 1173 0
-293 1173 0
213 -293 -1493 0
-213 1493 0
293 1493 0
1733 2053 0
1733 2373 0
-1733 -2053 -2373 0
-133 53 -2053 0
133 2053 0
-53 2053 0
133 -53 -2373 0
-133 2373 0
53 2373 0
1813 2133 0
1813 2453 0
-1813 -2133 -2453 0
-213 133 -2133 0
213 2133 0
-133 2133 0
213 -133 -2453 0
-213 2453 0
133 2453 0
1893 2213 0
1893 2533 0
-1893 -2213 -2533 0
-293 213 -2213 0
293 2213 0
-213 2213 0
293 -213 -2533 0
-293 2533 0
213 2533 0
374 0
-614 0
-694 1014 0
-694 1334 0
-694 374 0
-694 -454 0
694 -1014 -1334 -374 454 0
-54 134 -1014 0
54 1014 0
-134 1014 0
54 -134 -1334 0
-54 1334 0
134 1334 0
-774 1094 0
-774 1414 0
-774 454 0
-774 -534 0
774 -1094 -1414 -454 534 0
-134 214 -1094 0
134 1094 0
-214 1094 0
134 -214 -1414 0
-134 1414 0
214 1414 0
-854 1174 0
-854 1494 0
-854 534 0
-854 -614 0
854 -1174 -1494 -534 614 0
-214 294 -1174 0
214 1174 0
-294 1174 0
214 -294 -1494 0
-214 1494 0
294 1494 0
1734 2054 0
1734 2374 0
-1734 -2054 -2374 0
-134 54 -2054 0
134 2054 0
-54 2054 0
134 -54 -2374 0
-134 2374 0
54 2374 0
1814 2134 0
1814 2454 0
-1814 -2134 -2454 0
-214 134 -2134 0
214 2134 0
-134 2134 0
214 -134 -2454 0
-214 2454 0
134 2454 0
1894 2214 0
1894 2534 0
-1894 -2214 -2534 0
-294 214 -2214 0
294 2214 0
-214 2214 0
294 -214 -2534 0
-294 2534 0
214 2534 0
375 0
-615 0
-695 1015 0
-695 1335 0
-695 375 0
-695 -455 0
695 -1015 -1335 -375 455 0
-55 135 -1015 0
55 1015 0
-135 1015 0
55 -135 -1335 0
-55 1335 0
135 1335 0
-775 1095 0
-775 1415 0
-775 455 0
-775 -535 0
775 -1095 -1415 -455 535 0
-135 215 -1095 0
135 1095 0
-215 1095 0
135 -215 -1415 0
-135 1415 0
215 1415 0
-855 1175 0
-855 1495 0
-855 535 0
-855 -615 0
855 -1175 -1495 -535 615 0
-215 295 -1175 0
215 1175 0
-295 1175 0
215 -295 -1495 0
-215 1495 0
295 1495 0
1735 2055 0
1735 2375 0
-1735 -2055 -2375 0
-135 55 -2055 0
135 2055 0
-55 2055 0
135 -55 -2375 0
-135 2375 0
55 2375 0
1815 2135 0
1815 2455 0
-1815 -2135 -2455 0
-215 135 -2135 0
215 2135 0
-135 2135 0
215 -135 -2455 0
-215 2455 0
135 2455 0
1895 2215 0
1895 2535 0
-1895 -2215 -2535 0
-295 215 -2215 0
295 2215 0
-215 2215 0
295 -215 -2535 0
-295 2535 0
215 2535 0
376 0
-616 0
-696 1016 0
-696 1336 0
-696 376 0
-696 -456 0
696 -1016 -1336 -376 456 0
-56 136 -1016 0
56 1016 0
-136 1016 0
56 -136 -1336 0
-56 1336 0
136 1336 0
-776 1096 0
-776 1416 0
-776 456 0
-776 -536 0
776 -1096 -1416 -456 536 0
-136 216 -1096 0
136 1096 0
-216 1096 0
136 -216 -1416 0
-136 1416 0
216 1416 0
-856 1176 0
-856 1496 0
-856 536 0
-856 -616 0
856 -1176 -1496 -536 616 0
-216 296 -1176 0
216 1176 0
-296 1176 0
216 -296 -1496 0
-216 1496 0
296 1496 0
1736 2056 0
1736 2376 0
-1736 -2056 -2376 0
-136 56 -2056 0
136 2056 0
-56 2056 0
136 -56 -2376 0
-136 2376 0
56 2376 0
1816 2136 0
1816 2456 0
-1816 -2136 -2456 0
-216 136 -2136 0
216 2136 0
-136 2136 0
216 -136 -2456 0
-216 2456 0
136 2456 0
1896 2216 0
1896 2536 0
-1896 -2216 -2536 0
-296 216 -2216 0
296 2216 0
-216 2216 0
296 -216 -2536 0
-296 2536 0
216 2536 0
377 0
-617 0
-697 1017 0
-697 1337 0
-697 377 0
-697 -457 0
697 -1017 -1337 -377 457 0
-57 137 -1017 0
57 1017 0
-137 1017 0
57 -137 -1337 0
-57 1337 0
137 1337 0
-777 1097 0
-777 1417 0
-777 457 0
-777 -537 0
777 -1097 -1417 -457 537 0
-137 217 -1097 0
137 1097 0
-217 1097 0
137 -217 -1417 0
-137 1417 0
217 1417 0
-857 1177 0
-857 1497 0
-857 537 0
-857 -617 0
857 -1177 -1497 -537 617 0
-217 297 -1177 0
217 1177 0
-297 1177 0
217 -297 -1497 0
-217 1497 0
297 1497 0
1737 2057 0
1737 2377 0
-1737 -2057 -2377 0
-137 57 -2057 0
137 2057 0
-57 2057 0
137 -57 -2377 0
-137 2377 0
57 2377 0
1817 2137 0
1817 2457 0
-1817 -2137 -2457 0
-217 137 -2137 0
217 2137 0
-137 2137 0
217 -137 -2457 0
-217 2457 0
137 2457 0
1897 2217 0
1897 2537 0
-1897 -2217 -2537 0
-297 217 -2217 0
297 2217 0
-217 2217 0
297 -217 -2537 0
-297 2537 0
217 2537 0
378 0
-618 0
-698 1018 0
-698 1338 0
-698 378 0
-698 -458 0
698 -1018 -1338 -378 458 0
-58 138 -1018 0
58 1018 0
-138 1018 0
58 -138 -1338 0
-58 1338 0
138 1338 0
-778 1098 0
-778 1418 0
-778 458 0
-778 -538 0
778 -1098 -1418 -458 538 0
-138 218 -1098 0
138 1098 0
-218 1098 0
138 -218 -1418 0
-138 1418 0
218 1418 0
-858 1178 0
-858 1498 0
-858 538 0
-858 -618 0
858 -1178 -1498 -538 618 0
-218 298 -1178 0
218 1178 0
-298 1178 0
218 -298 -1498 0
-218 1498 0
298 1498 0
1738 2058 0
1738 2378 0
-1738 -2058 -2378 0
-138 58 -2058 0
138 2058 0
-58 2058 0
138 -58 -2378 0
-138 2378 0
58 2378 0
1818 2138 0
1818 2458 0
-1818 -2138 -2458 0
-218 138 -2138 0
218 2138 0
-138 2138 0
218 -138 -2458 0
-218 2458 0
138 2458 0
1898 2218 0
1898 2538 0
-1898 -2218 -2538 0
-298 218 -2218 0
298 2218 0
-218 2218 0
298 -218 -2538 0
-298 2538 0
218 2538 0
379 0
-619 0
-699 1019 0
-699 1339 0
-699 379 0
-699 -459 0
699 -1019 -1339 -379 459 0
-59 139 -1019 0
59 1019 0
-139 1019 0
59 -139 -1339 0
-59 1339 0
139 1339 0
-779 1099 0
-779 1419 0
-779 459 0
-779 -539 0
779 -1099 -1419 -459 539 0
-139 219 -1099 0
139 1099 0
-219 1099 0
139 -219 -1419 0
-139 1419 0
219 1419 0
-859 1179 0
-859 1499 0
-859 539 0
-859 -619 0
859 -1179 -1499 -539 619 0
-219 299 -1179 0
219 1179 0
-299 1179 0
219 -299 -1499 0
-219 1499 0
299 1499 0
1739 2059 0
1739 2379 0
-1739 -2059 -2379 0
-139 59 -2059 0
139 2059 0
-59 2059 0
139 -59 -2379 0
-139 2379 0
59 2379 0
1819 2139 0
1819 2459 0
-1819 -2139 -2459 0
-219 139 -2139 0
219 2139 0
-139 2139 0
219 -139 -2459 0
-219 2459 0
139 2459 0
1899 2219 0
1899 2539 0
-1899 -2219 -2539 0
-299 219 -2219 0
299 2219 0
-219 2219 0
299 -219 -2539 0
-299 2539 0
219 2539 0
380 0
-620 0
-700 1020 0
-700 1340 0
-700 380 0
-700 -460 0
700 -1020 -1340 -380 460 0
-60 140 -1020 0
60 1020 0
-140 1020 0
60 -140 -1340 0
-60 1340 0
140 1340 0
-780 1100 0
-780 1420 0
-780 460 0
-780 -540 0
780 -1100 -1420 -460 540 0
-140 220 -1100 0
140 1100 0
-220 1100 0
140 -220 -1420 0
-140 1420 0
220 1420 0
-860 1180 0
-860 1500 0
-860 540 0
-860 -620 0
860 -1180 -1500 -540 620 0
-220 300 -1180 0
220 1180 0
-300 1180 0
220 -300 -1500 0
-220 1500 0
300 1500 0
1740 2060 0
1740 2380 0
-1740 -2060 -2380 0
-140 60 -2060 0
140 2060 0
-60 2060 0
140 -60 -2380 0
-140 2380 0
60 2380 0
1820 2140 0
1820 2460 0
-1820 -2140 -2460 0
-220 140 -2140 0
220 2140 0
-140 2140 0
220 -140 -2460 0
-220 2460 0
140 2460 0
1900 2220 0
1900 2540 0
-1900 -2220 -2540 0
-300 220 -2220 0
300 2220 0
-220 2220 0
300 -220 -2540 0
-300 2540 0
220 2540 0
381 0
-621 0
-701 1021 0
-701 1341 0
-701 381 0
-701 -461 0
701 -1021 -1341 -381 461 0
-61 141 -1021 0
61 1021 0
-141 1021 0
61 -141 -1341 0
-61 1341 0
141 1341 0
-781 1101 0
-781 1421 0
-781 461 0
-781 -541 0
781 -1101 -1421 -461 541 0
-141 221 -1101 0
141 1101 0
-221 1101 0
141 -221 -1421 0
-141 1421 0
221 1421 0
-861 1181 0
-861 1501 0
-861 541 0
-861 -621 0
861 -1181 -1501 -541 621 0
-221 301 -1181 0
221 1181 0
-301 1181 0
221 -301 -1501 0
-221 1501 0
301 1501 0
1741 2061 0
1741 2381 0
-1741 -2061 -2381 0
-141 61 -2061 0
141 2061 0
-61 2061 0
141 -61 -2381 0
-141 2381 0
61 2381 0
1821 2141 0
1821 2461 0
-1821 -2141 -2461 0
-221 141 -2141 0
221 2141 0
-141 2141 0
221 -141 -2461 0
-221 2461 0
141 2461 0
1901 2221 0
1901 2541 0
-1901 -2221 -2541 0
-301 221 -2221 0
301 2221 0
-221 2221 0
301 -221 -2541 0
-301 2541 0
221 2541 0
382 0
-622 0
-702 1022 0
-702 1342 0
-702 382 0
-702 -462 0
702 -1022 -1342 -382 462 0
-62 142 -1022 0
62 1022 0
-142 1022 0
62 -142 -1342 0
-62 1342 0
142 1342 0
-782 1102 0
-782 1422 0
-782 462 0
-782 -542 0
782 -1102 -1422 -462 542 0
-142 222 -1102 0
142 1102 0
-222 1102 0
142 -222 -1422 0
-142 1422 0
222 1422 0
-862 1182 0
-862 1502 0
-862 542 0
-862 -622 0
862 -1182 -1502 -542 622 0
-222 302 -1182 0
222 1182 0
-302 1182 0
222 -302 -1502 0
-222 1502 0
302 1502 0
1742 2062 0
1742 2382 0
-1742 -2062 -2382 0
-142 62 -2062 0
142 2062 0
-62 2062 0
142 -62 -2382 0
-142 2382 0
62 2382 0
1822 2142 0
1822 2462 0
-1822 -2142 -2462 0
-222 142 -2142 0
222 2142 0
-142 2142 0
222 -142 -2462 0
-222 2462 0
142 2462 0
1902 2222 0
1902 2542 0
-1902 -2222 -2542 0
-302 222 -2222 0
302 2222 0
-222 2222 0
302 -222 -2542 0
-302 2542 0
222 2542 0
383 0
-623 0
-703 1023 0
-703 1343 0
-703 383 0
-703 -463 0
703 -1023 -1343 -383 463 0
-63 143 -1023 0
63 1023 0
-143 1023 0
63 -143 -1343 0
-63 1343 0
143 1343 0
-783 1103 0
-783 1423 0
-783 463 0
-783 -543 0
783 -1103 -1423 -463 543 0
-143 223 -1103 0
143 1103 0
-223 1103 0
143 -223 -1423 0
-143 1423 0
223 1423 0
-863 1183 0
-863 1503 0
-863 543 0
-863 -623 0
863 -1183 -1503 -543 623 0
-223 303 -1183 0
223 1183 0
-303 1183 0
223 -303 -1503 0
-223 1503 0
303 1503 0
1743 2063 0
1743 2383 0
-1743 -2063 -2383 0
-143 63 -2063 0
143 2063 0
-63 2063 0
143 -63 -2383 0
-143 2383 0
63 2383 0
1823 2143 0
1823 2463 0
-1823 -2143 -2463 0
-223 143 -2143 0
223 2143 0
-143 2143 0
223 -143 -2463 0
-223 2463 0
143 2463 0
1903 2223 0
1903 2543 0
-1903 -2223 -2543 0
-303 223 -2223 0
303 2223 0
-223 2223 0
303 -223 -2543 0
-303 2543 0
223 2543 0
384 0
-624 0
-704 1024 0
-704 1344 0
-704 384 0
-704 -464 0
704 -1024 -1344 -384 464 0
-64 144 -1024 0
64 1024 0
-144 1024 0
64 -144 -1344 0
-64 1344 0
144 1344 0
-784 1104 0
-784 1424 0
-784 464 0
-784 -544 0
784 -1104 -1424 -464 544 0
-144 224 -1104 0
144 1104 0
-224 1104 0
144 -224 -1424 0
-144 1424 0
224 1424 0
-864 1184 0
-864 1504 0
-864 544 0
-864 -624 0
864 -1184 -1504 -544 624 0
-224 304 -1184 0
224 1184 0
-304 1184 0
224 -304 -1504 0
-224 1504 0
304 1504 0
1744 2064 0
1744 2384 0
-1744 -2064 -2384 0
-144 64 -2064 0
144 2064 0
-64 2064 0
144 -64 -2384 0
-144 2384 0
64 2384 0
1824 2144 0
1824 2464 0
-1824 -2144 -2464 0
-224 144 -2144 0
224 2144 0
-144 2144 0
224 -144 -2464 0
-224 2464 0
144 2464 0
1904 2224 0
1904 2544 0
-1904 -2224 -2544 0
-304 224 -2224 0
304 2224 0
-224 2224 0
304 -224 -2544 0
-304 2544 0
224 2544 0
385 0
-625 0
-705 1025 0
-705 1345 0
-705 385 0
-705 -465 0
705 -1025 -1345 -385 465 0
-65 145 -1025 0
65 1025 0
-145 1025 0
65 -145 -1345 0
-65 1345 0
145 1345 0
-785 1105 0
-785 1425 0
-785 465 0
-785 -545 0
785 -1105 -1425 -465 545 0
-145 225 -1105 0
145 1105 0
-225 1105 0
145 -225 -1425 0
-145 1425 0
225 1425 0
-865 1185 0
-865 1505 0
-865 545 0
-865 -625 0
865 -1185 -1505 -545 625 0
-225 305 -1185 0
225 1185 0
-305 1185 0
225 -305 -1505 0
-225 1505 0
305 1505 0
1745 2065 0
1745 2385 0
-1745 -2065 -2385 0
-145 65 -2065 0
145 2065 0
-65 2065 0
145 -65 -2385 0
-145 2385 0
65 2385 0
1825 2145 0
1825 2465 0
-1825 -2145 -2465 0
-225 145 -2145 0
225 2145 0
-145 2145 0
225 -145 -2465 0
-225 2465 0
145 2465 0
1905 2225 0
1905 2545 0
-1905 -2225 -2545 0
-305 225 -2225 0
305 2225 0
-225 2225 0
305 -225 -2545 0
-305 2545 0
225 2545 0
386 0
-626 0
-706 1026 0
-706 1346 0
-706 386 0
-706 -466 0
706 -1026 -1346 -386 466 0
-66 146 -1026 0
66 1026 0
-146 1026 0
66 -146 -1346 0
-66 1346 0
146 1346 0
-786 1106 0
-786 1426 0
-786 466 0
-786 -546 0
786 -1106 -1426 -466 546 0
-146 226 -1106 0
146 1106 0
-226 1106 0
146 -226 -1426 0
-146 1426 0
226 1426 0
-866 1186 0
-866 1506 0
-866 546 0
-866 -626 0
866 -1186 -1506 -546 626 0
-226 306 -1186 0
226 1186 0
-306 1186 0
226 -306 -1506 0
-226 1506 0
306 1506 0
1746 2066 0
1746 2386 0
-1746 -2066 -2386 0
-146 66 -2066 0
146 2066 0
-66 2066 0
146 -66 -2386 0
-146 2386 0
66 2386 0
1826 2146 0
1826 2466 0
-1826 -2146 -2466 0
-226 146 -2146 0
226 2146 0
-146 2146 0
226 -146 -2466 0
-226 2466 0
146 2466 0
1906 2226 0
1906 2546 0
-1906 -2226 -2546 0
-306 226 -2226 0
306 2226 0
-226 2226 0
306 -226 -2546 0
-306 2546 0
226 2546 0
387 0
-627 0
-707 1027 0
-707 1347 0
-707 387 0
-707 -467 0
707 -1027 -1347 -387 467 0
-67 147 -1027 0
67 1027 0
-147 1027 0
67 -147 -1347 0
-67 1347 0
147 1347 0
-787 1107 0
-787 1427 0
-787 467 0
-787 -547 0
787 -1107 -1427 -467 547 0
-147 227 -1107 0
147 1107 0
-227 1107 0
147 -227 -1427 0
-147 1427 0
227 1427 0
-867 1187 0
-867 1507 0
-867 547 0
-867 -627 0
867 -1187 -1507 -547 627 0
-227 307 -1187 0
227 1187 0
-307 1187 0
227 -307 -1507 0
-227 1507 0
307 1507 0
1747 2067 0
1747 2387 0
-1747 -2067 -2387 0
-147 67 -2067 0
147 2067 0
-67 2067 0
147 -67 -2387 0
-147 2387 0
67 2387 0
1827 2147 0
1827 2467 0
-1827 -2147 -2467 0
-227 147 -2147 0
227 2147 0
-147 2147 0
227 -147 -2467 0
-227 2467 0
147 2467 0
1907 2227 0
1907 2547 0
-1907 -2227 -2547 0
-307 227 -2227 0
307 2227 0
-227 2227 0
307 -227 -2547 0
-307 2547 0
227 2547 0
388 0
-628 0
-708 1028 0
-708 1348 0
-708 388 0
-708 -468 0
708 -1028 -1348 -388 468 0
-68 148 -1028 0
68 1028 0
-148 1028 0
68 -148 -1348 0
-68 1348 0
148 1348 0
-788 1108 0
-788 1428 0
-788 468 0
-788 -548 0
788 -1108 -1428 -468 548 0
-148 228 -1108 0
148 1108 0
-228 1108 0
148 -228 -1428 0
-148 1428 0
228 1428 0
-868 1188 0
-868 1508 0
-868 548 0
-868 -628 0
868 -1188 -1508 -548 628 0
-228 308 -1188 0
228 1188 0
-308 1188 0
228 -308 -1508 0
-228 1508 0
308 1508 0
1748 2068 0
1748 2388 0
-1748 -2068 -2388 0
-148 68 -2068 0
148 2068 0
-68 2068 0
148 -68 -2388 0
-148 2388 0
68 2388 0
1828 2148 0
1828 2468 0
-1828 -2148 -2468 0
-228 148 -2148 0
228 2148 0
-148 2148 0
228 -148 -2468 0
-228 2468 0
148 2468 0
1908 2228 0
1908 2548 0
-1908 -2228 -2548 0
-308 228 -2228 0
308 2228 0
-228 2228 0
308 -228 -2548 0
-308 2548 0
228 2548 0
389 0
-629 0
-709 1029 0
-709 1349 0
-709 389 0
-709 -469 0
709 -1029 -1349 -389 469 0
-69 149 -1029 0
69 1029 0
-149 1029 0
69 -149 -1349 0
-69 1349 0
149 1349 0
-789 1109 0
-789 1429 0
-789 469 0
-789 -549 0
789 -1109 -1429 -469 549 0
-149 229 -1109 0
149 1109 0
-229 1109 0
149 -229 -1429 0
-149 1429 0
229 1429 0
-869 1189 0
-869 1509 0
-869 549 0
-869 -629 0
869 -1189 -1509 -549 629 0
-229 309 -1189 0
229 1189 0
-309 1189 0
229 -309 -1509 0
-229 1509 0
309 1509 0
1749 2069 0
1749 2389 0
-1749 -2069 -2389 0
-149 69 -2069 0
149 2069 0
-69 2069 0
149 -69 -2389 0
-149 2389 0
69 2389 0
1829 2149 0
1829 2469 0
-1829 -2149 -2469 0
-229 149 -2149 0
229 2149 0
-149 2149 0
229 -149 -2469 0
-229 2469 0
149 2469 0
1909 2229 0
1909 2549 0
-1909 -2229 -2549 0
-309 229 -2229 0
309 2229 0
-229 2229 0
309 -229 -2549 0
-309 2549 0
229 2549 0
390 0
-630 0
-710 1030 0
-710 1350 0
-710 390 0
-710 -470 0
710 -1030 -1350 -390 470 0
-70 150 -1030 0
70 1030 0
-150 1030 0
70 -150 -1350 0
-70 1350 0
150 1350 0
-790 1110 0
-790 1430 0
-790 470 0
-790 -550 0
790 -1110 -1430 -470 550 0
-150 230 -1110 0
150 1110 0
-230 1110 0
150 -230 -1430 0
-150 1430 0
230 1430 0
-870 1190 0
-870 1510 0
-870 550 0
-870 -630 0
870 -1190 -1510 -550 630 0
-230 310 -1190 0
230 1190 0
-310 1190 0
230 -310 -1510 0
-230 1510 0
310 1510 0
1750 2070 0
1750 2390 0
-1750 -2070 -2390 0
-150 70 -2070 0
150 2070 0
-70 2070 0
150 -70 -2390 0
-150 2390 0
70 2390 0
1830 2150 0
1830 2470 0
-1830 -2150 -2470 0
-230 150 -2150 0
230 2150 0
-150 2150 0
230 -150 -2470 0
-230 2470 0
150 2470 0
1910 2230 0
1910 2550 0
-1910 -2230 -2550 0
-310 230 -2230 0
310 2230 0
-230 2230 0
310 -230 -2550 0
-310 2550 0
230 2550 0
391 0
-631 0
-711 1031 0
-711 1351 0
-711 391 0
-711 -471 0
711 -1031 -1351 -391 471 0
-71 151 -1031 0
71 1031 0
-151 1031 0
71 -151 -1351 0
-71 1351 0
151 1351 0
-791 1111 0
-791 1431 0
-791 471 0
-791 -551 0
791 -1111 -1431 -471 551 0
-151 231 -1111 0
151 1111 0
-231 1111 0
151 -231 -1431 0
-151 1431 0
231 1431 0
-871 1191 0
-871 1511 0
-871 551 0
-871 -631 0
871 -1191 -1511 -551 631 0
-231 311 -1191 0
231 1191 0
-311 1191 0
231 -311 -1511 0
-231 1511 0
311 1511 0
1751 2071 0
1751 2391 0
-1751 -2071 -2391 0
-151 71 -2071 0
151 2071 0
-71 2071 0
151 -71 -2391 0
-151 2391 0
71 2391 0
1831 2151 0
1831 2471 0
-1831 -2151 -2471 0
-231 151 -2151 0
231 2151 0
-151 2151 0
231 -151 -2471 0
-231 2471 0
151 2471 0
1911 2231 0
1911 2551 0
-1911 -2231 -2551 0
-311 231 -2231 0
311 2231 0
-231 2231 0
311 -231 -2551 0
-311 2551 0
231 2551 0
392 0
-632 0
-712 1032 0
-712 1352 0
-712 392 0
-712 -472 0
712 -1032 -1352 -392 472 0
-72 152 -1032 0
72 1032 0
-152 1032 0
72 -152 -1352 0
-72 1352 0
152 1352 0
-792 1112 0
-792 1432 0
-792 472 0
-792 -552 0
792 -1112 -1432 -472 552 0
-152 232 -1112 0
152 1112 0
-232 1112 0
152 -232 -1432 0
-152 1432 0
232 1432 0
-872 1192 0
-872 1512 0
-872 552 0
-872 -632 0
872 -1192 -1512 -552 632 0
-232 312 -1192 0
232 1192 0
-312 1192 0
232 -312 -1512 0
-232 1512 0
312 1512 0
1752 2072 0
1752 2392 0
-1752 -2072 -2392 0
-152 72 -2072 0
152 2072 0
-72 2072 0
152 -72 -2392 0
-152 2392 0
72 2392 0
1832 2152 0
1832 2472 0
-1832 -2152 -2472 0
-232 152 -2152 0
232 2152 0
-152 2152 0
232 -152 -2472 0
-232 2472 0
152 2472 0
1912 2232 0
1912 2552 0
-1912 -2232 -2552 0
-312 232 -2232 0
312 2232 0
-232 2232 0
312 -232 -2552 0
-312 2552 0
232 2552 0
393 0
-633 0
-713 1033 0
-713 1353 0
-713 393 0
-713 -473 0
713 -1033 -1353 -393 473 0
-73 153 -1033 0
73 1033 0
-153 1033 0
73 -153 -1353 0
-73 1353 0
153 1353 0
-793 1113 0
-793 1433 0
-793 473 0
-793 -553 0
793 -1113 -1433 -473 553 0
-153 233 -1113 0
153 1113 0
-233 1113 0
153 -233 -1433 0
-153 1433 0
233 1433 0
-873 1193 0
-873 1513 0
-873 553 0
-873 -633 0
873 -1193 -1513 -553 633 0
-233 313 -1193 0
233 1193 0
-313 1193 0
233 -313 -1513 0
-233 1513 0
313 1513 0
1753 2073 0
1753 2393 0
-1753 -2073 -2393 0
-153 73 -2073 0
153 2073 0
-73 2073 0
153 -73 -2393 0
-153 2393 0
73 2393 0
1833 2153 0
1833 2473 0
-1833 -2153 -2473 0
-233 153 -2153 0
233 2153 0
-153 2153 0
233 -153 -2473 0
-233 2473 0
153 2473 0
1913 2233 0
1913 2553 0
-1913 -2233 -2553 0
-313 233 -2233 0
313 2233 0
-233 2233 0
313 -233 -2553 0
-313 2553 0
233 2553 0
394 0
-634 0
-714 1034 0
-714 1354 0
-714 394 0
-714 -474 0
714 -1034 -1354 -394 474 0
-74 154 -1034 0
74 1034 0
-154 1034 0
74 -154 -1354 0
-74 1354 0
154 1354 0
-794 1114 0
-794 1434 0
-794 474 0
-794 -554 0
794 -1114 -1434 -474 554 0
-154 234 -1114 0
154 1114 0
-234 1114 0
154 -234 -1434 0
-154 1434 0
234 1434 0
-874 1194 0
-874 1514 0
-874 554 0
-874 -634 0
874 -1194 -1514 -554 634 0
-234 314 -1194 0
234 1194 0
-314 1194 0
234 -314 -1514 0
-234 1514 0
314 1514 0
1754 2074 0
1754 2394 0
-1754 -2074 -2394 0
-154 74 -2074 0
154 2074 0
-74 2074 0
154 -74 -2394 0
-154 2394 0
74 2394 0
1834 2154 0
1834 2474 0
-1834 -2154 -2474 0
-234 154 -2154 0
234 2154 0
-154 2154 0
234 -154 -2474 0
-234 2474 0
154 2474 0
1914 2234 0
1914 2554 0
-1914 -2234 -2554 0
-314 234 -2234 0
314 2234 0
-234 2234 0
314 -234 -2554 0
-314 2554 0
234 2554 0
395 0
-635 0
-715 1035 0
-715 1355 0
-715 395 0
-715 -475 0
715 -1035 -1355 -395 475 0
-75 155 -1035 0
75 1035 0
-155 1035 0
75 -155 -1355 0
-75 1355 0
155 1355 0
-795 1115 0
-795 1435 0
-795 475 0
-795 -555 0
795 -1115 -1435 -475 555 0
-155 235 -1115 0
155 1115 0
-235 1115 0
155 -235 -1435 0
-155 1435 0
235 1435 0
-875 1195 0
-875 1515 0
-875 555 0
-875 -635 0
875 -1195 -1515 -555 635 0
-235 315 -1195 0
235 1195 0
-315 1195 0
235 -315 -1515 0
-235 1515 0
315 1515 0
1755 2075 0
1755 2395 0
-1755 -2075 -2395 0
-155 75 -2075 0
155 2075 0
-75 2075 0
155 -75 -2395 0
-155 2395 0
75 2395 0
1835 2155 0
1835 2475 0
-1835 -2155 -2475 0
-235 155 -2155 0
235 2155 0
-155 2155 0
235 -155 -2475 0
-235 2475 0
155 2475 0
1915 2235 0
1915 2555 0
-1915 -2235 -2555 0
-315 235 -2235 0
315 2235 0
-235 2235 0
315 -235 -2555 0
-315 2555 0
235 2555 0
396 0
-636 0
-716 1036 0
-716 1356 0
-716 396 0
-716 -476 0
716 -1036 -1356 -396 476 0
-76 156 -1036 0
76 1036 0
-156 1036 0
76 -156 -1356 0
-76 1356 0
156 1356 0
-796 1116 0
-796 1436 0
-796 476 0
-796 -556 0
796 -1116 -1436 -476 556 0
-156 236 -1116 0
156 1116 0
-236 1116 0
156 -236 -1436 0
-156 1436 0
236 1436 0
-876 1196 0
-876 1516 0
-876 556 0
-876 -636 0
876 -1196 -1516 -556 636 0
-236 316 -1196 0
236 1196 0
-316 1196 0
236 -316 -1516 0
-236 1516 0
316 1516 0
1756 2076 0
1756 2396 0
-1756 -2076 -2396 0
-156 76 -2076 0
156 2076 0
-76 2076 0
156 -76 -2396 0
-156 2396 0
76 2396 0
1836 2156 0
1836 2476 0
-1836 -2156 -2476 0
-236 156 -2156 0
236 2156 0
-156 2156 0
236 -156 -2476 0
-236 2476 0
156 2476 0
1916 2236 0
1916 2556 0
-1916 -2236 -2556 0
-316 236 -2236 0
316 2236 0
-236 2236 0
316 -236 -2556 0
-316 2556 0
236 2556 0
397 0
-637 0
-717 1037 0
-717 1357 0
-717 397 0
-717 -477 0
717 -1037 -1357 -397 477 0
-77 157 -1037 0
77 1037 0
-157 1037 0
77 -157 -1357 0
-77 1357 0
157 1357 0
-797 1117 0
-797 1437 0
-797 477 0
-797 -557 0
797 -1117 -1437 -477 557 0
-157 237 -1117 0
157 1117 0
-237 1117 0
157 -237 -1437 0
-157 1437 0
237 1437 0
-877 1197 0
-877 1517 0
-877 557 0
-877 -637 0
877 -1197 -1517 -557 637 0
-237 317 -1197 0
237 1197 0
-317 1197 0
237 -317 -1517 0
-237 1517 0
317 1517 0
1757 2077 0
1757 2397 0
-1757 -2077 -2397 0
-157 77 -2077 0
157 2077 0
-77 2077 0
157 -77 -2397 0
-157 2397 0
77 2397 0
1837 2157 0
1837 2477 0
-1837 -2157 -2477 0
-237 157 -2157 0
237 2157 0
-157 2157 0
237 -157 -2477 0
-237 2477 0
157 2477 0
1917 2237 0
1917 2557 0
-1917 -2237 -2557 0
-317 237 -2237 0
317 2237 0
-237 2237 0
317 -237 -2557 0
-317 2557 0
237 2557 0
398 0
-638 0
-718 1038 0
-718 1358 0
-718 398 0
-718 -478 0
718 -1038 -1358 -398 478 0
-78 158 -1038 0
78 1038 0
-158 1038 0
78 -158 -1358 0
-78 1358 0
158 1358 0
-798 1118 0
-798 1438 0
-798 478 0
-798 -558 0
798 -1118 -1438 -478 558 0
-158 238 -1118 0
158 1118 0
-238 1118 0
158 -238 -1438 0
-158 1438 0
238 1438 0
-878 1198 0
-878 1518 0
-878 558 0
-878 -638 0
878 -1198 -1518 -558 638 0
-238 318 -1198 0
238 1198 0
-318 1198 0
238 -318 -1518 0
-238 1518 0
318 1518 0
1758 2078 0
1758 2398 0
-1758 -2078 -2398 0
-158 78 -2078 0
158 2078 0
-78 2078 0
158 -78 -2398 0
-158 2398 0
78 2398 0
1838 2158 0
1838 2478 0
-1838 -2158 -2478 0
-238 158 -2158 0
238 2158 0
-158 2158 0
238 -158 -2478 0
-238 2478 0
158 2478 0
1918 2238 0
1918 2558 0
-1918 -2238 -2558 0
-318 238 -2238 0
318 2238 0
-238 2238 0
318 -238 -2558 0
-318 2558 0
238 2558 0
399 0
-639 0
-719 1039 0
-719 1359 0
-719 399 0
-719 -479 0
719 -1039 -1359 -399 479 0
-79 159 -1039 0
79 1039 0
-159 1039 0
79 -159 -1359 0
-79 1359 0
159 1359 0
-799 1119 0
-799 1439 0
-799 479 0
-799 -559 0
799 -1119 -1439 -479 559 0
-159 239 -1119 0
159 1119 0
-239 1119 0
159 -239 -1439 0
-159 1439 0
239 1439 0
-879 1199 0
-879 1519 0
-879 559 0
-879 -639 0
879 -1199 -1519 -559 639 0
-239 319 -1199 0
239 1199 0
-319 1199 0
239 -319 -1519 0
-239 1519 0
319 1519 0
1759 2079 0
1759 2399 0
-1759 -2079 -2399 0
-159 79 -2079 0
159 2079 0
-79 2079 0
159 -79 -2399 0
-159 2399 0
79 2399 0
1839 2159 0
1839 2479 0
-1839 -2159 -2479 0
-239 159 -2159 0
239 2159 0
-159 2159 0
239 -159 -2479 0
-239 2479 0
159 2479 0
1919 2239 0
1919 2559 0
-1919 -2239 -2559 0
-319 239 -2239 0
319 2239 0
-239 2239 0
319 -239 -2559 0
-319 2559 0
239 2559 0
400 0
-640 0
-720 1040 0
-720 1360 0
-720 400 0
-720 -480 0
720 -1040 -1360 -400 480 0
-80 160 -1040 0
80 1040 0
-160 1040 0
80 -160 -1360 0
-80 1360 0
160 1360 0
-800 1120 0
-800 1440 0
-800 480 0
-800 -560 0
800 -1120 -1440 -480 560 0
-160 240 -1120 0
160 1120 0
-240 1120 0
160 -240 -1440 0
-160 1440 0
240 1440 0
-880 1200 0
-880 1520 0
-880 560 0
-880 -640 0
880 -1200 -1520 -560 640 0
-240 320 -1200 0
240 1200 0
-320 1200 0
240 -320 -1520 0
-240 1520 0
320 1520 0
1760 2080 0
1760 2400 0
-1760 -2080 -2400 0
-160 80 -2080 0
160 2080 0
-80 2080 0
160 -80 -2400 0
-160 2400 0
80 2400 0
1840 2160 0
1840 2480 0
-1840 -2160 -2480 0
-240 160 -2160 0
240 2160 0
-160 2160 0
240 -160 -2480 0
-240 2480 0
160 2480 0
1920 2240 0
1920 2560 0
-1920 -2240 -2560 0
-320 240 -2240 0
320 2240 0
-240 2240 0
320 -240 -2560 0
-320 2560 0
240 2560 0
-3441 1841 0
3441 -1841 0
-3201 641 0
3201 -641 0
-3442 1842 0
3442 -1842 0
-3202 642 0
3202 -642 0
-3443 1843 0
3443 -1843 0
-3203 643 0
3203 -643 0
-3444 1844 0
3444 -1844 0
-3204 644 0
3204 -644 0
-3445 1845 0
3445 -1845 0
-3205 645 0
3205 -645 0
-3446 1846 0
3446 -1846 0
-3206 646 0
3206 -646 0
-3447 1847 0
3447 -1847 0
-3207 647 0
3207 -647 0
-3448 1848 0
3448 -1848 0
-3208 648 0
3208 -648 0
-3449 1849 0
3449 -1849 0
-3209 649 0
3209 -649 0
-3450 1850 0
3450 -1850 0
-3210 650 0
3210 -650 0
-3451 1851 0
3451 -1851 0
-3211 651 0
3211 -651 0
-3452 1852 0
3452 -1852 0
-3212 652 0
3212 -652 0
-3453 1853 0
3453 -1853 0
-3213 653 0
3213 -653 0
-3454 1854 0
3454 -1854 0
-3214 654 0
3214 -654 0
-3455 1855 0
3455 -1855 0
-3215 655 0
3215 -655 0
-3456 1856 0
3456 -1856 0
-3216 656 0
3216 -656 0
-3457 1857 0
3457 -1857 0
-3217 657 0
3217 -657 0
-3458 1858 0
3458 -1858 0
-3218 658 0
3218 -658 0
-3459 1859 0
3459 -1859 0
-3219 659 0
3219 -659 0
-3460 1860 0
3460 -1860 0
-3220 660 0
3220 -660 0
-3461 1861 0
3461 -1861 0
-3221 661 0
3221 -661 0
-3462 1862 0
3462 -1862 0
-3222 662 0
3222 -662 0
-3463 1863 0
3463 -1863 0
-3223 663 0
3223 -663 0
-3464 1864 0
3464 -1864 0
-3224 664 0
3224 -664 0
-3465 1865 0
3465 -1865 0
-3225 665 0
3225 -665 0
-3466 1866 0
3466 -1866 0
-3226 666 0
3226 -666 0
-3467 1867 0
3467 -1867 0
-3227 667 0
3227 -667 0
-3468 1868 0
3468 -1868 0
-3228 668 0
3228 -668 0
-3469 1869 0
3469 -1869 0
-3229 669 0
3229 -669 0
-3470 1870 0
3470 -1870 0
-3230 670 0
3230 -670 0
-3471 1871 0
3471 -1871 0
-3231 671 0
3231 -671 0
-3472 1872 0
3472 -1872 0
-3232 672 0
3232 -672 0
-3473 1873 0
3473 -1873 0
-3233 673 0
3233 -673 0
-3474 1874 0
3474 -1874 0
-3234 674 0
3234 -674 0
-3475 1875 0
3475 -1875 0
-3235 675 0
3235 -675 0
-3476 1876 0
3476 -1876 0
-3236 676 0
3236 -676 0
-3477 1877 0
3477 -1877 0
-3237 677 0
3237 -677 0
-3478 1878 0
3478 -1878 0
-3238 678 0
3238 -678 0
-3479 1879 0
3479 -1879 0
-3239 679 0
3239 -679 0
-3480 1880 0
3480 -1880 0
-3240 680 0
3240 -680 0
-3481 1881 0
3481 -1881 0
-3241 681 0
3241 -681 0
-3482 1882 0
3482 -1882 0
-3242 682 0
3242 -682 0
-3483 1883 0
3483 -1883 0
-3243 683 0
3243 -683 0
-3484 1884 0
3484 -1884 0
-3244 684 0
3244 -684 0
-3485 1885 0
3485 -1885 0
-3245 685 0
3245 -685 0
-3486 1886 0
3486 -1886 0
-3246 686 0
3246 -686 0
-3487 1887 0
3487 -1887 0
-3247 687 0
3247 -687 0
-3488 1888 0
3488 -1888 0
-3248 688 0
3248 -688 0
-3489 1889 0
3489 -1889 0
-3249 689 0
3249 -689 0
-3490 1890 0
3490 -1890 0
-3250 690 0
3250 -690 0
-3491 1891 0
3491 -1891 0
-3251 691 0
3251 -691 0
-3492 1892 0
3492 -1892 0
-3252 692 0
3252 -692 0
-3493 1893 0
3493 -1893 0
-3253 693 0
3253 -693 0
-3494 1894 0
3494 -1894 0
-3254 694 0
3254 -694 0
-3495 1895 0
3495 -1895 0
-3255 695 0
3255 -695 0
-3496 1896 0
3496 -1896 0
-3256 696 0
3256 -696 0
-3497 1897 0
3497 -1897 0
-3257 697 0
3257 -697 0
-3498 1898 0
3498 -1898 0
-3258 698 0
3258 -698 0
-3499 1899 0
3499 -1899 0
-3259 699 0
3259 -699 0
-3500 1900 0
3500 -1900 0
-3260 700 0
3260 -700 0
-3501 1901 0
3501 -1901 0
-3261 701 0
3261 -701 0
-3502 1902 0
3502 -1902 0
-3262 702 0
3262 -702 0
-3503 1903 0
3503 -1903 0
-3263 703 0
3263 -703 0
-3504 1904 0
3504 -1904 0
-3264 704 0
3264 -704 0
-3505 1905 0
3505 -1905 0
-3265 705 0
3265 -705 0
-3506 1906 0
3506 -1906 0
-3266 706 0
3266 -706 0
-3507 1907 0
3507 -1907 0
-3267 707 0
3267 -707 0
-3508 1908 0
3508 -1908 0
-3268 708 0
3268 -708 0
-3509 1909 0
3509 -1909 0
-3269 709 0
3269 -709 0
-3510 1910 0
3510 -1910 0
-3270 710 0
3270 -710 0
-3511 1911 0
3511 -1911 0
-3271 711 0
3271 -711 0
-3512 1912 0
3512 -1912 0
-3272 712 0
3272 -712 0
-3513 1913 0
3513 -1913 0
-3273 713 0
3273 -713 0
-3514 1914 0
3514 -1914 0
-3274 714 0
3274 -714 0
-3515 1915 0
3515 -1915 0
-3275 715 0
3275 -715 0
-3516 1916 0
3516 -1916 0
-3276 716 0
3276 -716 0
-3517 1917 0
3517 -1917 0
-3277 717 0
3277 -717 0
-3518 1918 0
3518 -1918 0
-3278 718 0
3278 -718 0
-3519 1919 0
3519 -1919 0
-3279 719 0
3279 -719 0
-3520 1920 0
3520 -1920 0
-3280 720 0
3280 -720 0
-3281 1681 721 0
3281 -1681 0
3281 -721 0
-3282 1682 722 0
3282 -1682 0
3282 -722 0
-3283 1683 723 0
3283 -1683 0
3283 -723 0
-3284 1684 724 0
3284 -1684 0
3284 -724 0
-3285 1685 725 0
3285 -1685 0
3285 -725 0
-3286 1686 726 0
3286 -1686 0
3286 -726 0
-3287 1687 727 0
3287 -1687 0
3287 -727 0
-3288 1688 728 0
3288 -1688 0
3288 -728 0
-3289 1689 729 0
3289 -1689 0
3289 -729 0
-3290 1690 730 0
3290 -1690 0
3290 -730 0
-3291 1691 731 0
3291 -1691 0
3291 -731 0
-3292 1692 732 0
3292 -1692 0
3292 -732 0
-3293 1693 733 0
3293 -1693 0
3293 -733 0
-3294 1694 734 0
3294 -1694 0
3294 -734 0
-3295 1695 735 0
3295 -1695 0
3295 -735 0
-3296 1696 736 0
3296 -1696 0
3296 -736 0
-3297 1697 737 0
3297 -1697 0
3297 -737 0
-3298 1698 738 0
3298 -1698 0
3298 -738 0
-3299 1699 739 0
3299 -1699 0
3299 -739 0
-3300 1700 740 0
3300 -1700 0
3300 -740 0
-3301 1701 741 0
3301 -1701 0
3301 -741 0
-3302 1702 742 0
3302 -1702 0
3302 -742 0
-3303 1703 743 0
3303 -1703 0
3303 -743 0
-3304 1704 744 0
3304 -1704 0
3304 -744 0
-3305 1705 745 0
3305 -1705 0
3305 -745 0
-3306 1706 746 0
3306 -1706 0
3306 -746 0
-3307 1707 747 0
3307 -1707 0
3307 -747 0
-3308 1708 748 0
3308 -1708 0
3308 -748 0
-3309 1709 749 0
3309 -1709 0
3309 -749 0
-3310 1710 750 0
3310 -1710 0
3310 -750 0
-3311 1711 751 0
3311 -1711 0
3311 -751 0
-3312 1712 752 0
3312 -1712 0
3312 -752 0
-3313 1713 753 0
3313 -1713 0
3313 -753 0
-3314 1714 754 0
3314 -1714 0
3314 -754 0
-3315 1715 755 0
3315 -1715 0
3315 -755 0
-3316 1716 756 0
3316 -1716 0
3316 -756 0
-3317 1717 757 0
3317 -1717 0
3317 -757 0
-3318 1718 758 0
3318 -1718 0
3318 -758 0
-3319 1719 759 0
3319 -1719 0
3319 -759 0
-3320 1720 760 0
3320 -1720 0
3320 -760 0
-3321 1721 761 0
3321 -1721 0
3321 -761 0
-3322 1722 762 0
3322 -1722 0
3322 -762 0
-3323 1723 763 0
3323 -1723 0
3323 -763 0
-3324 1724 764 0
3324 -1724 0
3324 -764 0
-3325 1725 765 0
3325 -1725 0
3325 -765 0
-3326 1726 766 0
3326 -1726 0
3326 -766 0
-3327 1727 767 0
3327 -1727 0
3327 -767 0
-3328 1728 768 0
3328 -1728 0
3328 -768 0
-3329 1729 769 0
3329 -1729 0
3329 -769 0
-3330 1730 770 0
3330 -1730 0
3330 -770 0
-3331 1731 771 0
3331 -1731 0
3331 -771 0
-3332 1732 772 0
3332 -1732 0
3332 -772 0
-3333 1733 773 0
3333 -1733 0
3333 -773 0
-3334 1734 774 0
3334 -1734 0
3334 -774 0
-3335 1735 775 0
3335 -1735 0
3335 -775 0
-3336 1736 776 0
3336 -1736 0
3336 -776 0
-3337 1737 777 0
3337 -1737 0
3337 -777 0
-3338 1738 778 0
3338 -1738 0
3338 -778 0
-3339 1739 779 0
3339 -1739 0
3339 -779 0
-3340 1740 780 0
3340 -1740 0
3340 -780 0
-3341 1741 781 0
3341 -1741 0
3341 -781 0
-3342 1742 782 0
3342 -1742 0
3342 -782 0
-3343 1743 783 0
3343 -1743 0
3343 -783 0
-3344 1744 784 0
3344 -1744 0
3344 -784 0
-3345 1745 785 0
3345 -1745 0
3345 -785 0
-3346 1746 786 0
3346 -1746 0
3346 -786 0
-3347 1747 787 0
3347 -1747 0
3347 -787 0
-3348 1748 788 0
3348 -1748 0
3348 -788 0
-3349 1749 789 0
3349 -1749 0
3349 -789 0
-3350 1750 790 0
3350 -1750 0
3350 -790 0
-3351 1751 791 0
3351 -1751 0
3351 -791 0
-3352 1752 792 0
3352 -1752 0
3352 -792 0
-3353 1753 793 0
3353 -1753 0
3353 -793 0
-3354 1754 794 0
3354 -1754 0
3354 -794 0
-3355 1755 795 0
3355 -1755 0
3355 -795 0
-3356 1756 796 0
3356 -1756 0
3356 -796 0
-3357 1757 797 0
3357 -1757 0
3357 -797 0
-3358 1758 798 0
3358 -1758 0
3358 -798 0
-3359 1759 799 0
3359 -1759 0
3359 -799 0
-3360 1760 800 0
3360 -1760 0
3360 -800 0
-3361 1761 801 0
3361 -1761 0
3361 -801 0
-3362 1762 802 0
3362 -1762 0
3362 -802 0
-3363 1763 803 0
3363 -1763 0
3363 -803 0
-3364 1764 804 0
3364 -1764 0
3364 -804 0
-3365 1765 805 0
3365 -1765 0
3365 -805 0
-3366 1766 806 0
3366 -1766 0
3366 -806 0
-3367 1767 807 0
3367 -1767 0
3367 -807 0
-3368 1768 808 0
3368 -1768 0
3368 -808 0
-3369 1769 809 0
3369 -1769 0
3369 -809 0
-3370 1770 810 0
3370 -1770 0
3370 -810 0
-3371 1771 811 0
3371 -1771 0
3371 -811 0
-3372 1772 812 0
3372 -1772 0
3372 -812 0
-3373 1773 813 0
3373 -1773 0
3373 -813 0
-3374 1774 814 0
3374 -1774 0
3374 -814 0
-3375 1775 815 0
3375 -1775 0
3375 -815 0
-3376 1776 816 0
3376 -1776 0
3376 -816 0
-3377 1777 817 0
3377 -1777 0
3377 -817 0
-3378 1778 818 0
3378 -1778 0
3378 -818 0
-3379 1779 819 0
3379 -1779 0
3379 -819 0
-3380 1780 820 0
3380 -1780 0
3380 -820 0
-3381 1781 821 0
3381 -1781 0
3381 -821 0
-3382 1782 822 0
3382 -1782 0
3382 -822 0
-3383 1783 823 0
3383 -1783 0
3383 -823 0
-3384 1784 824 0
3384 -1784 0
3384 -824 0
-3385 1785 825 0
3385 -1785 0
3385 -825 0
-3386 1786 826 0
3386 -1786 0
3386 -826 0
-3387 1787 827 0
3387 -1787 0
3387 -827 0
-3388 1788 828 0
3388 -1788 0
3388 -828 0
-3389 1789 829 0
3389 -1789 0
3389 -829 0
-3390 1790 830 0
3390 -1790 0
3390 -830 0
-3391 1791 831 0
3391 -1791 0
3391 -831 0
-3392 1792 832 0
3392 -1792 0
3392 -832 0
-3393 1793 833 0
3393 -1793 0
3393 -833 0
-3394 1794 834 0
3394 -1794 0
3394 -834 0
-3395 1795 835 0
3395 -1795 0
3395 -835 0
-3396 1796 836 0
3396 -1796 0
3396 -836 0
-3397 1797 837 0
3397 -1797 0
3397 -837 0
-3398 1798 838 0
3398 -1798 0
3398 -838 0
-3399 1799 839 0
3399 -1799 0
3399 -839 0
-3400 1800 840 0
3400 -1800 0
3400 -840 0
-3401 1801 841 0
3401 -1801 0
3401 -841 0
-3402 1802 842 0
3402 -1802 0
3402 -842 0
-3403 1803 843 0
3403 -1803 0
3403 -843 0
-3404 1804 844 0
3404 -1804 0
3404 -844 0
-3405 1805 845 0
3405 -1805 0
3405 -845 0
-3406 1806 846 0
3406 -1806 0
3406 -846 0
-3407 1807 847 0
3407 -1807 0
3407 -847 0
-3408 1808 848 0
3408 -1808 0
3408 -848 0
-3409 1809 849 0
3409 -1809 0
3409 -849 0
-3410 1810 850 0
3410 -1810 0
3410 -850 0
-3411 1811 851 0
3411 -1811 0
3411 -851 0
-3412 1812 852 0
3412 -1812 0
3412 -852 0
-3413 1813 853 0
3413 -1813 0
3413 -853 0
-3414 1814 854 0
3414 -1814 0
3414 -854 0
-3415 1815 855 0
3415 -1815 0
3415 -855 0
-3416 1816 856 0
3416 -1816 0
3416 -856 0
-3417 1817 857 0
3417 -1817 0
3417 -857 0
-3418 1818 858 0
3418 -1818 0
3418 -858 0
-3419 1819 859 0
3419 -1819 0
3419 -859 0
-3420 1820 860 0
3420 -1820 0
3420 -860 0
-3421 1821 861 0
3421 -1821 0
3421 -861 0
-3422 1822 862 0
3422 -1822 0
3422 -862 0
-3423 1823 863 0
3423 -1823 0
3423 -863 0
-3424 1824 864 0
3424 -1824 0
3424 -864 0
-3425 1825 865 0
3425 -1825 0
3425 -865 0
-3426 1826 866 0
3426 -1826 0
3426 -866 0
-3427 1827 867 0
3427 -1827 0
3427 -867 0
-3428 1828 868 0
3428 -1828 0
3428 -868 0
-3429 1829 869 0
3429 -1829 0
3429 -869 0
-3430 1830 870 0
3430 -1830 0
3430 -870 0
-3431 1831 871 0
3431 -1831 0
3431 -871 0
-3432 1832 872 0
3432 -1832 0
3432 -872 0
-3433 1833 873 0
3433 -1833 0
3433 -873 0
-3434 1834 874 0
3434 -1834 0
3434 -874 0
-3435 1835 875 0
3435 -1835 0
3435 -875 0
-3436 1836 876 0
3436 -1836 0
3436 -876 0
-3437 1837 877 0
3437 -1837 0
3437 -877 0
-3438 1838 878 0
3438 -1838 0
3438 -878 0
-3439 1839 879 0
3439 -1839 0
3439 -879 0
-3440 1840 880 0
3440 -1840 0
3440 -880 0
3521 3601 3681 3761 0
-2561 641 0
-2641 721 0
-2721 801 0
-2961 1681 0
-3041 1761 0
-3121 1841 0
-2961 -2641 0
-3601 2961 2641 0
3601 -2961 0
3601 -2641 0
-3041 -2721 0
-3681 3041 2721 0
3681 -3041 0
3681 -2721 0
-3761 3121 0
3761 -3121 0
-3521 2561 0
3521 -2561 0
3522 3602 3682 3762 0
-2562 642 0
-2642 722 0
-2722 802 0
-2962 1682 0
-3042 1762 0
-3122 1842 0
-2962 -2642 0
-3602 2962 2642 0
3602 -2962 0
3602 -2642 0
-3042 -2722 0
-3682 3042 2722 0
3682 -3042 0
3682 -2722 0
-3762 3122 0
3762 -3122 0
-3522 2562 0
3522 -2562 0
3523 3603 3683 3763 0
-2563 643 0
-2643 723 0
-2723 803 0
-2963 1683 0
-3043 1763 0
-3123 1843 0
-2963 -2643 0
-3603 2963 2643 0
3603 -2963 0
3603 -2643 0
-3043 -2723 0
-3683 3043 2723 0
3683 -3043 0
3683 -2723 0
-3763 3123 0
3763 -3123 0
-3523 2563 0
3523 -2563 0
3524 3604 3684 3764 0
-2564 644 0
-2644 724 0
-2724 804 0
-2964 1684 0
-3044 1764 0
-3124 1844 0
-2964 -2644 0
-3604 2964 2644 0
3604 -2964 0
3604 -2644 0
-3044 -2724 0
-3684 3044 2724 0
3684 -3044 0
3684 -2724 0
-3764 3124 0
3764 -3124 0
-3524 2564 0
3524 -2564 0
3525 3605 3685 3765 0
-2565 645 0
-2645 725 0
-2725 805 0
-2965 1685 0
-3045 1765 0
-3125 1845 0
-2965 -2645 0
-3605 2965 2645 0
3605 -2965 0
3605 -2645 0
-3045 -2725 0
-3685 3045 2725 0
3685 -3045 0
3685 -2725 0
-3765 3125 0
3765 -3125 0
-3525 2565 0
3525 -2565 0
3526 3606 3686 3766 0
-2566 646 0
-2646 726 0
-2726 806 0
-2966 1686 0
-3046 1766 0
-3126 1846 0
-2966 -2646 0
-3606 2966 2646 0
3606 -2966 0
3606 -2646 0
-3046 -2726 0
-3686 3046 2726 0
3686 -3046 0
3686 -2726 0
-3766 3126 0
3766 -3126 0
-3526 2566 0
3526 -2566 0
3527 3607 3687 3767 0
-2567 647 0
-2647 727 0
-2727 807 0
-2967 1687 0
-3047 1767 0
-3127 1847 0
-2967 -2647 0
-3607 2967 2647 0
3607 -2967 0
3607 -2647 0
-3047 -2727 0
-3687 3047 2727 0
3687 -3047 0
3687 -2727 0
-3767 3127 0
3767 -3127 0
-3527 2567 0
3527 -2567 0
3528 3608 3688 3768 0
-2568 648 0
-2648 728 0
-2728 808 0
-2968 1688 0
-3048 1768 0
-3128 1848 0
-2968 -2648 0
-3608 2968 2648 0
3608 -2968 0
3608 -2648 0
-3048 -2728 0
-3688 3048 2728 0
3688 -3048 0
3688 -2728 0
-3768 3128 0
3768 -3128 0
-3528 2568 0
3528 -2568 0
3529 3609 3689 3769 0
-2569 649 0
-2649 729 0
-2729 809 0
-2969 1689 0
-3049 1769 0
-3129 1849 0
-2969 -2649 0
-3609 2969 2649 0
3609 -2969 0
3609 -2649 0
-3049 -2729 0
-3689 3049 2729 0
3689 -3049 0
3689 -2729 0
-3769 3129 0
3769 -3129 0
-3529 2569 0
3529 -2569 0
3530 3610 3690 3770 0
-2570 650 0
-2650 730 0
-2730 810 0
-2970 1690 0
-3050 1770 0
-3130 1850 0
-2970 -2650 0
-3610 2970 2650 0
3610 -2970 0
3610 -2650 0
-3050 -2730 0
-3690 3050 2730 0
3690 -3050 0
3690 -2730 0
-3770 3130 0
3770 -3130 0
-3530 2570 0
3530 -2570 0
3531 3611 3691 3771 0
-2571 651 0
-2651 731 0
-2731 811 0
-2971 1691 0
-3051 1771 0
-3131 1851 0
-2971 -2651 0
-3611 2971 2651 0
3611 -2971 0
3611 -2651 0
-3051 -2731 0
-3691 3051 2731 0
3691 -3051 0
3691 -2731 0
-3771 3131 0
3771 -3131 0
-3531 2571 0
3531 -2571 0
3532 3612 3692 3772 0
-2572 652 0
-2652 732 0
-2732 812 0
-2972 1692 0
-3052 1772 0
-3132 1852 0
-2972 -2652 0
-3612 2972 2652 0
3612 -2972 0
3612 -2652 0
-3052 -2732 0
-3692 3052 2732 0
3692 -3052 0
3692 -2732 0
-3772 3132 0
3772 -3132 0
-3532 2572 0
3532 -2572 0
3533 3613 3693 3773 0
-2573 653 0
-2653 733 0
-2733 813 0
-2973 1693 0
-3053 1773 0
-3133 1853 0
-2973 -2653 0
-3613 2973 2653 0
3613 -2973 0
3613 -2653 0
-3053 -2733 0
-3693 3053 2733 0
3693 -3053 0
3693 -2733 0
-3773 3133 0
3773 -3133 0
-3533 2573 0
3533 -2573 0
3534 3614 3694 3774 0
-2574 654 0
-2654 734 0
-2734 814 0
-2974 1694 0
-3054 1774 0
-3134 1854 0
-2974 -2654 0
-3614 2974 2654 0
3614 -2974 0
3614 -2654 0
-3054 -2734 0
-3694 3054 2734 0
3694 -3054 0
3694 -2734 0
-3774 3134 0
3774 -3134 0
-3534 2574 0
3534 -2574 0
3535 3615 3695 3775 0
-2575 655 0
-2655 735 0
-2735 815 0
-2975 1695 0
-3055 1775 0
-3135 1855 0
-2975 -2655 0
-3615 2975 2655 0
3615 -2975 0
3615 -2655 0
-3055 -2735 0
-3695 3055 2735 0
3695 -3055 0
3695 -2735 0
-3775 3135 0
3775 -3135 0
-3535 2575 0
3535 -2575 0
3536 3616 3696 3776 0
-2576 656 0
-2656 736 0
-2736 816 0
-2976 1696 0
-3056 1776 0
-3136 1856 0
-2976 -2656 0
-3616 2976 2656 0
3616 -2976 0
3616 -2656 0
-3056 -2736 0
-3696 3056 2736 0
3696 -3056 0
3696 -2736 0
-3776 3136 0
3776 -3136 0
-3536 2576 0
3536 -2576 0
3537 3617 3697 3777 0
-2577 657 0
-2657 737 0
-2737 817 0
-2977 1697 0
-3057 1777 0
-3137 1857 0
-2977 -2657 0
-3617 2977 2657 0
3617 -2977 0
3617 -2657 0
-3057 -2737 0
-3697 3057 2737 0
3697 -3057 0
3697 -2737 0
-3777 3137 0
3777 -3137 0
-3537 2577 0
3537 -2577 0
3538 3618 3698 3778 0
-2578 658 0
-2658 738 0
-2738 818 0
-2978 1698 0
-3058 1778 0
-3138 1858 0
-2978 -2658 0
-3618 2978 2658 0
3618 -2978 0
3618 -2658 0
-3058 -2738 0
-3698 3058 2738 0
3698 -3058 0
3698 -2738 0
-3778 3138 0
3778 -3138 0
-3538 2578 0
3538 -2578 0
3539 3619 3699 3779 0
-2579 659 0
-2659 739 0
-2739 819 0
-2979 1699 0
-3059 1779 0
-3139 1859 0
-2979 -2659 0
-3619 2979 2659 0
3619 -2979 0
3619 -2659 0
-3059 -2739 0
-3699 3059 2739 0
3699 -3059 0
3699 -2739 0
-3779 3139 0
3779 -3139 0
-3539 2579 0
3539 -2579 0
3540 3620 3700 3780 0
-2580 660 0
-2660 740 0
-2740 820 0
-2980 1700 0
-3060 1780 0
-3140 1860 0
-2980 -2660 0
-3620 2980 2660 0
3620 -2980 0
3620 -2660 0
-3060 -2740 0
-3700 3060 2740 0
3700 -3060 0
3700 -2740 0
-3780 3140 0
3780 -3140 0
-3540 2580 0
3540 -2580 0
3541 3621 3701 3781 0
-2581 661 0
-2661 741 0
-2741 821 0
-2981 1701 0
-3061 1781 0
-3141 1861 0
-2981 -2661 0
-3621 2981 2661 0
3621 -2981 0
3621 -2661 0
-3061 -2741 0
-3701 3061 2741 0
3701 -3061 0
3701 -2741 0
-3781 3141 0
3781 -3141 0
-3541 2581 0
3541 -2581 0
3542 3622 3702 3782 0
-2582 662 0
-2662 742 0
-2742 822 0
-2982 1702 0
-3062 1782 0
-3142 1862 0
-2982 -2662 0
-3622 2982 2662 0
3622 -2982 0
3622 -2662 0
-3062 -2742 0
-3702 3062 2742 0
3702 -3062 0
3702 -2742 0
-3782 3142 0
3782 -3142 0
-3542 2582 0
3542 -2582 0
3543 3623 3703 3783 0
-2583 663 0
-2663 743 0
-2743 823 0
-2983 1703 0
-3063 1783 0
-3143 1863 0
-2983 -2663 0
-3623 2983 2663 0
3623 -2983 0
3623 -2663 0
-3063 -2743 0
-3703 3063 2743 0
3703 -3063 0
3703 -2743 0
-3783 3143 0
3783 -3143 0
-3543 2583 0
3543 -2583 0
3544 3624 3704 3784 0
-2584 664 0
-2664 744 0
-2744 824 0
-2984 1704 0
-3064 1784 0
-3144 1864 0
-2984 -2664 0
-3624 2984 2664 0
3624 -2984 0
3624 -2664 0
-3064 -2744 0
-3704 3064 2744 0
3704 -3064 0
3704 -2744 0
-3784 3144 0
3784 -3144 0
-3544 2584 0
3544 -2584 0
3545 3625 3705 3785 0
-2585 665 0
-2665 745 0
-2745 825 0
-2985 1705 0
-3065 1785 0
-3145 1865 0
-2985 -2665 0
-3625 2985 2665 0
3625 -2985 0
3625 -2665 0
-3065 -2745 0
-3705 3065 2745 0
3705 -3065 0
3705 -2745 0
-3785 3145 0
3785 -3145 0
-3545 2585 0
3545 -2585 0
3546 3626 3706 3786 0
-2586 666 0
-2666 746 0
-2746 826 0
-2986 1706 0
-3066 1786 0
-3146 1866 0
-2986 -2666 0
-3626 2986 2666 0
3626 -2986 0
3626 -2666 0
-3066 -2746 0
-3706 3066 2746 0
3706 -3066 0
3706 -2746 0
-3786 3146 0
3786 -3146 0
-3546 2586 0
3546 -2586 0
3547 3627 3707 3787 0
-2587 667 0
-2667 747 0
-2747 827 0
-2987 1707 0
-3067 1787 0
-3147 1867 0
-2987 -2667 0
-3627 2987 2667 0
3627 -2987 0
3627 -2667 0
-3067 -2747 0
-3707 3067 2747 0
3707 -3067 0
3707 -2747 0
-3787 3147 0
3787 -3147 0
-3547 2587 0
3547 -2587 0
3548 3628 3708 3788 0
-2588 668 0
-2668 748 0
-2748 828 0
-2988 1708 0
-3068 1788 0
-3148 1868 0
-2988 -2668 0
-3628 2988 2668 0
3628 -2988 0
3628 -2668 0
-3068 -2748 0
-3708 3068 2748 0
3708 -3068 0
3708 -2748 0
-3788 3148 0
3788 -3148 0
-3548 2588 0
3548 -2588 0
3549 3629 3709 3789 0
-2589 669 0
-2669 749 0
-2749 829 0
-2989 1709 0
-3069 1789 0
-3149 1869 0
-2989 -2669 0
-3629 2989 2669 0
3629 -2989 0
3629 -2669 0
-3069 -2749 0
-3709 3069 2749 0
3709 -3069 0
3709 -2749 0
-3789 3149 0
3789 -3149 0
-3549 2589 0
3549 -2589 0
3550 3630 3710 3790 0
-2590 670 0
-2670 750 0
-2750 830 0
-2990 1710 0
-3070 1790 0
-3150 1870 0
-2990 -2670 0
-3630 2990 2670 0
3630 -2990 0
3630 -2670 0
-3070 -2750 0
-3710 3070 2750 0
3710 -3070 0
3710 -2750 0
-3790 3150 0
3790 -3150 0
-3550 2590 0
3550 -2590 0
3551 3631 3711 3791 0
-2591 671 0
-2671 751 0
-2751 831 0
-2991 1711 0
-3071 1791 0
-3151 1871 0
-2991 -2671 0
-3631 2991 2671 0
3631 -2991 0
3631 -2671 0
-3071 -2751 0
-3711 3071 2751 0
3711 -3071 0
3711 -2751 0
-3791 3151 0
3791 -3151 0
-3551 2591 0
3551 -2591 0
3552 3632 3712 3792 0
-2592 672 0
-2672 752 0
-2752 832 0
-2992 1712 0
-3072 1792 0
-3152 1872 0
-2992 -2672 0
-3632 2992 2672 0
3632 -2992 0
3632 -2672 0
-3072 -2752 0
-3712 3072 2752 0
3712 -3072 0
3712 -2752 0
-3792 3152 0
3792 -3152 0
-3552 2592 0
3552 -2592 0
3553 3633 3713 3793 0
-2593 673 0
-2673 753 0
-2753 833 0
-2993 1713 0
-3073 1793 0
-3153 1873 0
-2993 -2673 0
-3633 2993 2673 0
3633 -2993 0
3633 -2673 0
-3073 -2753 0
-3713 3073 2753 0
3713 -3073 0
3713 -2753 0
-3793 3153 0
3793 -3153 0
-3553 2593 0
3553 -2593 0
3554 3634 3714 3794 0
-2594 674 0
-2674 754 0
-2754 834 0
-2994 1714 0
-3074 1794 0
-3154 1874 0
-2994 -2674 0
-3634 2994 2674 0
3634 -2994 0
3634 -2674 0
-3074 -2754 0
-3714 3074 2754 0
3714 -3074 0
3714 -2754 0
-3794 3154 0
3794 -3154 0
-3554 2594 0
3554 -2594 0
3555 3635 3715 3795 0
-2595 675 0
-2675 755 0
-2755 835 0
-2995 1715 0
-3075 1795 0
-3155 1875 0
-2995 -2675 0
-3635 2995 2675 0
3635 -2995 0
3635 -2675 0
-3075 -2755 0
-3715 3075 2755 0
3715 -3075 0
3715 -2755 0
-3795 3155 0
3795 -3155 0
-3555 2595 0
3555 -2595 0
3556 3636 3716 3796 0
-2596 676 0
-2676 756 0
-2756 836 0
-2996 1716 0
-3076 1796 0
-3156 1876 0
-2996 -2676 0
-3636 2996 2676 0
3636 -2996 0
3636 -2676 0
-3076 -2756 0
-3716 3076 2756 0
3716 -3076 0
3716 -2756 0
-3796 3156 0
3796 -3156 0
-3556 2596 0
3556 -2596 0
3557 3637 3717 3797 0
-2597 677 0
-2677 757 0
-2757 837 0
-2997 1717 0
-3077 1797 0
-3157 1877 0
-2997 -2677 0
-3637 2997 2677 0
3637 -2997 0
3637 -2677 0
-3077 -2757 0
-3717 3077 2757 0
3717 -3077 0
3717 -2757 0
-3797 3157 0
3797 -3157 0
-3557 2597 0
3557 -2597 0
3558 3638 3718 3798 0
-2598 678 0
-2678 758 0
-2758 838 0
-2998 1718 0
-3078 1798 0
-3158 1878 0
-2998 -2678 0
-3638 2998 2678 0
3638 -2998 0
3638 -2678 0
-3078 -2758 0
-3718 3078 2758 0
3718 -3078 0
3718 -2758 0
-3798 3158 0
3798 -3158 0
-3558 2598 0
3558 -2598 0
3559 3639 3719 3799 0
-2599 679 0
-2679 759 0
-2759 839 0
-2999 1719 0
-3079 1799 0
-3159 1879 0
-2999 -2679 0
-3639 2999 2679 0
3639 -2999 0
3639 -2679 0
-3079 -2759 0
-3719 3079 2759 0
3719 -3079 0
3719 -2759 0
-3799 3159 0
3799 -3159 0
-3559 2599 0
3559 -2599 0
3560 3640 3720 3800 0
-2600 680 0
-2680 760 0
-2760 840 0
-3000 1720 0
-3080 1800 0
-3160 1880 0
-3000 -2680 0
-3640 3000 2680 0
3640 -3000 0
3640 -2680 0
-3080 -2760 0
-3720 3080 2760 0
3720 -3080 0
3720 -2760 0
-3800 3160 0
3800 -3160 0
-3560 2600 0
3560 -2600 0
3561 3641 3721 3801 0
-2601 681 0
-2681 761 0
-2761 841 0
-3001 1721 0
-3081 1801 0
-3161 1881 0
-3001 -2681 0
-3641 3001 2681 0
3641 -3001 0
3641 -2681 0
-3081 -2761 0
-3721 3081 2761 0
3721 -3081 0
3721 -2761 0
-3801 3161 0
3801 -3161 0
-3561 2601 0
3561 -2601 0
3562 3642 3722 3802 0
-2602 682 0
-2682 762 0
-2762 842 0
-3002 1722 0
-3082 1802 0
-3162 1882 0
-3002 -2682 0
-3642 3002 2682 0
3642 -3002 0
3642 -2682 0
-3082 -2762 0
-3722 3082 2762 0
3722 -3082 0
3722 -2762 0
-3802 3162 0
3802 -3162 0
-3562 2602 0
3562 -2602 0
3563 3643 3723 3803 0
-2603 683 0
-2683 763 0
-2763 843 0
-3003 1723 0
-3083 1803 0
-3163 1883 0
-3003 -2683 0
-3643 3003 2683 0
3643 -3003 0
3643 -2683 0
-3083 -2763 0
-3723 3083 2763 0
3723 -3083 0
3723 -2763 0
-3803 3163 0
3803 -3163 0
-3563 2603 0
3563 -2603 0
3564 3644 3724 3804 0
-2604 684 0
-2684 764 0
-2764 844 0
-3004 1724 0
-3084 1804 0
-3164 1884 0
-3004 -2684 0
-3644 3004 2684 0
3644 -3004 0
3644 -2684 0
-3084 -2764 0
-3724 3084 2764 0
3724 -3084 0
3724 -2764 0
-3804 3164 0
3804 -3164 0
-3564 2604 0
3564 -2604 0
3565 3645 3725 3805 0
-2605 685 0
-2685 765 0
-2765 845 0
-3005 1725 0
-3085 1805 0
-3165 1885 0
-3005 -2685 0
-3645 3005 2685 0
3645 -3005 0
3645 -2685 0
-3085 -2765 0
-3725 3085 2765 0
3725 -3085 0
3725 -2765 0
-3805 3165 0
3805 -3165 0
-3565 2605 0
3565 -2605 0
3566 3646 3726 3806 0
-2606 686 0
-2686 766 0
-2766 846 0
-3006 1726 0
-3086 1806 0
-3166 1886 0
-3006 -2686 0
-3646 3006 2686 0
3646 -3006 0
3646 -2686 0
-3086 -2766 0
-3726 3086 2766 0
3726 -3086 0
3726 -2766 0
-3806 3166 0
3806 -3166 0
-3566 2606 0
3566 -2606 0
3567 3647 3727 3807 0
-2607 687 0
-2687 767 0
-2767 847 0
-3007 1727 0
-3087 1807 0
-3167 1887 0
-3007 -2687 0
-3647 3007 2687 0
3647 -3007 0
3647 -2687 0
-3087 -2767 0
-3727 3087 2767 0
3727 -3087 0
3727 -2767 0
-3807 3167 0
3807 -3167 0
-3567 2607 0
3567 -2607 0
3568 3648 3728 3808 0
-2608 688 0
-2688 768 0
-2768 848 0
-3008 1728 0
-3088 1808 0
-3168 1888 0
-3008 -2688 0
-3648 3008 2688 0
3648 -3008 0
3648 -2688 0
-3088 -2768 0
-3728 3088 2768 0
3728 -3088 0
3728 -2768 0
-3808 3168 0
3808 -3168 0
-3568 2608 0
3568 -2608 0
3569 3649 3729 3809 0
-2609 689 0
-2689 769 0
-2769 849 0
-3009 1729 0
-3089 1809 0
-3169 1889 0
-3009 -2689 0
-3649 3009 2689 0
3649 -3009 0
3649 -2689 0
-3089 -2769 0
-3729 3089 2769 0
3729 -3089 0
3729 -2769 0
-3809 3169 0
3809 -3169 0
-3569 2609 0
3569 -2609 0
3570 3650 3730 3810 0
-2610 690 0
-2690 770 0
-2770 850 0
-3010 1730 0
-3090 1810 0
-3170 1890 0
-3010 -2690 0
-3650 3010 2690 0
3650 -3010 0
3650 -2690 0
-3090 -2770 0
-3730 3090 2770 0
3730 -3090 0
3730 -2770 0
-3810 3170 0
3810 -3170 0
-3570 2610 0
3570 -2610 0
3571 3651 3731 3811 0
-2611 691 0
-2691 771 0
-2771 851 0
-3011 1731 0
-3091 1811 0
-3171 1891 0
-3011 -2691 0
-3651 3011 2691 0
3651 -3011 0
3651 -2691 0
-3091 -2771 0
-3731 3091 2771 0
3731 -3091 0
3731 -2771 0
-3811 3171 0
3811 -3171 0
-3571 2611 0
3571 -2611 0
3572 3652 3732 3812 0
-2612 692 0
-2692 772 0
-2772 852 0
-3012 1732 0
-3092 1812 0
-3172 1892 0
-3012 -2692 0
-3652 3012 2692 0
3652 -3012 0
3652 -2692 0
-3092 -2772 0
-3732 3092 2772 0
3732 -3092 0
3732 -2772 0
-3812 3172 0
3812 -3172 0
-3572 2612 0
3572 -2612 0
3573 3653 3733 3813 0
-2613 693 0
-2693 773 0
-2773 853 0
-3013 1733 0
-3093 1813 0
-3173 1893 0
-3013 -2693 0
-3653 3013 2693 0
3653 -3013 0
3653 -2693 0
-3093 -2773 0
-3733 3093 2773 0
3733 -3093 0
3733 -2773 0
-3813 3173 0
3813 -3173 0
-3573 2613 0
3573 -2613 0
3574 3654 3734 3814 0
-2614 694 0
-2694 774 0
-2774 854 0
-3014 1734 0
-3094 1814 0
-3174 1894 0
-3014 -2694 0
-3654 3014 2694 0
3654 -3014 0
3654 -2694 0
-3094 -2774 0
-3734 3094 2774 0
3734 -3094 0
3734 -2774 0
-3814 3174 0
3814 -3174 0
-3574 2614 0
3574 -2614 0
3575 3655 3735 3815 0
-2615 695 0
-2695 775 0
-2775 855 0
-3015 1735 0
-3095 1815 0
-3175 1895 0
-3015 -2695 0
-3655 3015 2695 0
3655 -3015 0
3655 -2695 0
-3095 -2775 0
-3735 3095 2775 0
3735 -3095 0
3735 -2775 0
-3815 3175 0
3815 -3175 0
-3575 2615 0
3575 -2615 0
3576 3656 3736 3816 0
-2616 696 0
-2696 776 0
-2776 856 0
-3016 1736 0
-3096 1816 0
-3176 1896 0
-3016 -2696 0
-3656 3016 2696 0
3656 -3016 0
3656 -2696 0
-3096 -2776 0
-3736 3096 2776 0
3736 -3096 0
3736 -2776 0
-3816 3176 0
3816 -3176 0
-3576 2616 0
3576 -2616 0
3577 3657 3737 3817 0
-2617 697 0
-2697 777 0
-2777 857 0
-3017 1737 0
-3097 1817 0
-3177 1897 0
-3017 -2697 0
-3657 3017 2697 0
3657 -3017 0
3657 -2697 0
-3097 -2777 0
-3737 3097 2777 0
3737 -3097 0
3737 -2777 0
-3817 3177 0
3817 -3177 0
-3577 2617 0
3577 -2617 0
3578 3658 3738 3818 0
-2618 698 0
-2698 778 0
-2778 858 0
-3018 1738 0
-3098 1818 0
-3178 1898 0
-3018 -2698 0
-3658 3018 2698 0
3658 -3018 0
3658 -2698 0
-3098 -2778 0
-3738 3098 2778 0
3738 -3098 0
3738 -2778 0
-3818 3178 0
3818 -3178 0
-3578 2618 0
3578 -2618 0
3579 3659 3739 3819 0
-2619 699 0
-2699 779 0
-2779 859 0
-3019 1739 0
-3099 1819 0
-3179 1899 0
-3019 -2699 0
-3659 3019 2699 0
3659 -3019 0
3659 -2699 0
-3099 -2779 0
-3739 3099 2779 0
3739 -3099 0
3739 -2779 0
-3819 3179 0
3819 -3179 0
-3579 2619 0
3579 -2619 0
3580 3660 3740 3820 0
-2620 700 0
-2700 780 0
-2780 860 0
-3020 1740 0
-3100 1820 0
-3180 1900 0
-3020 -2700 0
-3660 3020 2700 0
3660 -3020 0
3660 -2700 0
-3100 -2780 0
-3740 3100 2780 0
3740 -3100 0
3740 -2780 0
-3820 3180 0
3820 -3180 0
-3580 2620 0
3580 -2620 0
3581 3661 3741 3821 0
-2621 701 0
-2701 781 0
-2781 861 0
-3021 1741 0
-3101 1821 0
-3181 1901 0
-3021 -2701 0
-3661 3021 2701 0
3661 -3021 0
3661 -2701 0
-3101 -2781 0
-3741 3101 2781 0
3741 -3101 0
3741 -2781 0
-3821 3181 0
3821 -3181 0
-3581 2621 0
3581 -2621 0
3582 3662 3742 3822 0
-2622 702 0
-2702 782 0
-2782 862 0
-3022 1742 0
-3102 1822 0
-3182 1902 0
-3022 -2702 0
-3662 3022 2702 0
3662 -3022 0
3662 -2702 0
-3102 -2782 0
-3742 3102 2782 0
3742 -3102 0
3742 -2782 0
-3822 3182 0
3822 -3182 0
-3582 2622 0
3582 -2622 0
3583 3663 3743 3823 0
-2623 703 0
-2703 783 0
-2783 863 0
-3023 1743 0
-3103 1823 0
-3183 1903 0
-3023 -2703 0
-3663 3023 2703 0
3663 -3023 0
3663 -2703 0
-3103 -2783 0
-3743 3103 2783 0
3743 -3103 0
3743 -2783 0
-3823 3183 0
3823 -3183 0
-3583 2623 0
3583 -2623 0
3584 3664 3744 3824 0
-2624 704 0
-2704 784 0
-2784 864 0
-3024 1744 0
-3104 1824 0
-3184 1904 0
-3024 -2704 0
-3664 3024 2704 0
3664 -3024 0
3664 -2704 0
-3104 -2784 0
-3744 3104 2784 0
3744 -3104 0
3744 -2784 0
-3824 3184 0
3824 -3184 0
-3584 2624 0
3584 -2624 0
3585 3665 3745 3825 0
-2625 705 0
-2705 785 0
-2785 865 0
-3025 1745 0
-3105 1825 0
-3185 1905 0
-3025 -2705 0
-3665 3025 2705 0
3665 -3025 0
3665 -2705 0
-3105 -2785 0
-3745 3105 2785 0
3745 -3105 0
3745 -2785 0
-3825 3185 0
3825 -3185 0
-3585 2625 0
3585 -2625 0
3586 3666 3746 3826 0
-2626 706 0
-2706 786 0
-2786 866 0
-3026 1746 0
-3106 1826 0
-3186 1906 0
-3026 -2706 0
-3666 3026 2706 0
3666 -3026 0
3666 -2706 0
-3106 -2786 0
-3746 3106 2786 0
3746 -3106 0
3746 -2786 0
-3826 3186 0
3826 -3186 0
-3586 2626 0
3586 -2626 0
3587 3667 3747 3827 0
-2627 707 0
-2707 787 0
-2787 867 0
-3027 1747 0
-3107 1827 0
-3187 1907 0
-3027 -2707 0
-3667 3027 2707 0
3667 -3027 0
3667 -2707 0
-3107 -2787 0
-3747 3107 2787 0
3747 -3107 0
3747 -2787 0
-3827 3187 0
3827 -3187 0
-3587 2627 0
3587 -2627 0
3588 3668 3748 3828 0
-2628 708 0
-2708 788 0
-2788 868 0
-3028 1748 0
-3108 1828 0
-3188 1908 0
-3028 -2708 0
-3668 3028 2708 0
3668 -3028 0
3668 -2708 0
-3108 -2788 0
-3748 3108 2788 0
3748 -3108 0
3748 -2788 0
-3828 3188 0
3828 -3188 0
-3588 2628 0
3588 -2628 0
3589 3669 3749 3829 0
-2629 709 0
-2709 789 0
-2789 869 0
-3029 1749 0
-3109 1829 0
-3189 1909 0
-3029 -2709 0
-3669 3029 2709 0
3669 -3029 0
3669 -2709 0
-3109 -2789 0
-3749 3109 2789 0
3749 -3109 0
3749 -2789 0
-3829 3189 0
3829 -3189 0
-3589 2629 0
3589 -2629 0
3590 3670 3750 3830 0
-2630 710 0
-2710 790 0
-2790 870 0
-3030 1750 0
-3110 1830 0
-3190 1910 0
-3030 -2710 0
-3670 3030 2710 0
3670 -3030 0
3670 -2710 0
-3110 -2790 0
-3750 3110 2790 0
3750 -3110 0
3750 -2790 0
-3830 3190 0
3830 -3190 0
-3590 2630 0
3590 -2630 0
3591 3671 3751 3831 0
-2631 711 0
-2711 791 0
-2791 871 0
-3031 1751 0
-3111 1831 0
-3191 1911 0
-3031 -2711 0
-3671 3031 2711 0
3671 -3031 0
3671 -2711 0
-3111 -2791 0
-3751 3111 2791 0
3751 -3111 0
3751 -2791 0
-3831 3191 0
3831 -3191 0
-3591 2631 0
3591 -2631 0
3592 3672 3752 3832 0
-2632 712 0
-2712 792 0
-2792 872 0
-3032 1752 0
-3112 1832 0
-3192 1912 0
-3032 -2712 0
-3672 3032 2712 0
3672 -3032 0
3672 -2712 0
-3112 -2792 0
-3752 3112 2792 0
3752 -3112 0
3752 -2792 0
-3832 3192 0
3832 -3192 0
-3592 2632 0
3592 -2632 0
3593 3673 3753 3833 0
-2633 713 0
-2713 793 0
-2793 873 0
-3033 1753 0
-3113 1833 0
-3193 1913 0
-3033 -2713 0
-3673 3033 2713 0
3673 -3033 0
3673 -2713 0
-3113 -2793 0
-3753 3113 2793 0
3753 -3113 0
3753 -2793 0
-3833 3193 0
3833 -3193 0
-3593 2633 0
3593 -2633 0
3594 3674 3754 3834 0
-2634 714 0
-2714 794 0
-2794 874 0
-3034 1754 0
-3114 1834 0
-3194 1914 0
-3034 -2714 0
-3674 3034 2714 0
3674 -3034 0
3674 -2714 0
-3114 -2794 0
-3754 3114 2794 0
3754 -3114 0
3754 -2794 0
-3834 3194 0
3834 -3194 0
-3594 2634 0
3594 -2634 0
3595 3675 3755 3835 0
-2635 715 0
-2715 795 0
-2795 875 0
-3035 1755 0
-3115 1835 0
-3195 1915 0
-3035 -2715 0
-3675 3035 2715 0
3675 -3035 0
3675 -2715 0
-3115 -2795 0
-3755 3115 2795 0
3755 -3115 0
3755 -2795 0
-3835 3195 0
3835 -3195 0
-3595 2635 0
3595 -2635 0
3596 3676 3756 3836 0
-2636 716 0
-2716 796 0
-2796 876 0
-3036 1756 0
-3116 1836 0
-3196 1916 0
-3036 -2716 0
-3676 3036 2716 0
3676 -3036 0
3676 -2716 0
-3116 -2796 0
-3756 3116 2796 0
3756 -3116 0
3756 -2796 0
-3836 3196 0
3836 -3196 0
-3596 2636 0
3596 -2636 0
3597 3677 3757 3837 0
-2637 717 0
-2717 797 0
-2797 877 0
-3037 1757 0
-3117 1837 0
-3197 1917 0
-3037 -2717 0
-3677 3037 2717 0
3677 -3037 0
3677 -2717 0
-3117 -2797 0
-3757 3117 2797 0
3757 -3117 0
3757 -2797 0
-3837 3197 0
3837 -3197 0
-3597 2637 0
3597 -2637 0
3598 3678 3758 3838 0
-2638 718 0
-2718 798 0
-2798 878 0
-3038 1758 0
-3118 1838 0
-3198 1918 0
-3038 -2718 0
-3678 3038 2718 0
3678 -3038 0
3678 -2718 0
-3118 -2798 0
-3758 3118 2798 0
3758 -3118 0
3758 -2798 0
-3838 3198 0
3838 -3198 0
-3598 2638 0
3598 -2638 0
3599 3679 3759 3839 0
-2639 719 0
-2719 799 0
-2799 879 0
-3039 1759 0
-3119 1839 0
-3199 1919 0
-3039 -2719 0
-3679 3039 2719 0
3679 -3039 0
3679 -2719 0
-3119 -2799 0
-3759 3119 2799 0
3759 -3119 0
3759 -2799 0
-3839 3199 0
3839 -3199 0
-3599 2639 0
3599 -2639 0
3201 3840 0
3281 3840 0
3201 3281 3841 0
3361 3842 0
3441 3842 0
3361 3441 3843 0
-3840 3844 0
-3842 3844 0
-3840 -3842 3845 0
-3841 3846 0
-3843 3846 0
-3841 -3843 3847 0
-3845 3848 0
-3846 3848 0
-3845 -3846 3849 0
-3849 0
3842 3843 3844 3845 3846 3847 3848 3849 3850 3851 3852 3853 3854 3855 3856 3857 3858 3859 3860 3861 3862 3863 3864 3865 3866 3867 3868 3869 3870 3871 3872 3873 3874 3875 3876 3877 3878 3879 3880 3881 3882 3883 3884 3885 3886 3887 3888 3889 3890 3891 3892 3893 3894 3895 3896 3897 3898 3899 3900 3901 3902 3903 3904 3905 3906 3907 3908 3909 3910 3911 3912 3913 3914 3915 3916 3917 3918 3919 3920 0
3922 -3842 0
4242 -3842 0
-3922 -4242 3842 0
-3922 4562 0
-3922 5202 0
3922 -4562 -5202 0
-4242 4882 0
-4242 5522 0
4242 -4882 -5522 0
-1 2 -4562 0
1 4562 0
-2 4562 0
-321 322 -4882 0
321 4882 0
-322 4882 0
1 -2 -5202 0
-1 5202 0
2 5202 0
321 -322 -5522 0
-321 5522 0
322 5522 0
4002 -3842 0
4322 -3842 0
-4002 -4322 3842 0
-4002 4642 0
-4002 5282 0
4002 -4642 -5282 0
-4322 4962 0
-4322 5602 0
4322 -4962 -5602 0
-81 82 -4642 0
81 4642 0
-82 4642 0
-401 402 -4962 0
401 4962 0
-402 4962 0
81 -82 -5282 0
-81 5282 0
82 5282 0
401 -402 -5602 0
-401 5602 0
402 5602 0
4082 -3842 0
4402 -3842 0
-4082 -4402 3842 0
-4082 4722 0
-4082 5362 0
4082 -4722 -5362 0
-4402 5042 0
-4402 5682 0
4402 -5042 -5682 0
-161 162 -4722 0
161 4722 0
-162 4722 0
-481 482 -5042 0
481 5042 0
-482 5042 0
161 -162 -5362 0
-161 5362 0
162 5362 0
481 -482 -5682 0
-481 5682 0
482 5682 0
4162 -3842 0
4482 -3842 0
-4162 -4482 3842 0
-4162 4802 0
-4162 5442 0
4162 -4802 -5442 0
-4482 5122 0
-4482 5762 0
4482 -5122 -5762 0
-241 242 -4802 0
241 4802 0
-242 4802 0
-561 562 -5122 0
561 5122 0
-562 5122 0
241 -242 -5442 0
-241 5442 0
242 5442 0
561 -562 -5762 0
-561 5762 0
562 5762 0
3923 -3843 0
4243 -3843 0
-3923 -4243 3843 0
-3923 4563 0
-3923 5203 0
3923 -4563 -5203 0
-4243 4883 0
-4243 5523 0
4243 -4883 -5523 0
-1 3 -4563 0
1 4563 0
-3 4563 0
-321 323 -4883 0
321 4883 0
-323 4883 0
1 -3 -5203 0
-1 5203 0
3 5203 0
321 -323 -5523 0
-321 5523 0
323 5523 0
4003 -3843 0
4323 -3843 0
-4003 -4323 3843 0
-4003 4643 0
-4003 5283 0
4003 -4643 -5283 0
-4323 4963 0
-4323 5603 0
4323 -4963 -5603 0
-81 83 -4643 0
81 4643 0
-83 4643 0
-401 403 -4963 0
401 4963 0
-403 4963 0
81 -83 -5283 0
-81 5283 0
83 5283 0
401 -403 -5603 0
-401 5603 0
403 5603 0
4083 -3843 0
4403 -3843 0
-4083 -4403 3843 0
-4083 4723 0
-4083 5363 0
4083 -4723 -5363 0
-4403 5043 0
-4403 5683 0
4403 -5043 -5683 0
-161 163 -4723 0
161 4723 0
-163 4723 0
-481 483 -5043 0
481 5043 0
-483 5043 0
161 -163 -5363 0
-161 5363 0
163 5363 0
481 -483 -5683 0
-481 5683 0
483 5683 0
4163 -3843 0
4483 -3843 0
-4163 -4483 3843 0
-4163 4803 0
-4163 5443 0
4163 -4803 -5443 0
-4483 5123 0
-4483 5763 0
4483 -5123 -5763 0
-241 243 -4803 0
241 4803 0
-243 4803 0
-561 563 -5123 0
561 5123 0
-563 5123 0
241 -243 -5443 0
-241 5443 0
243 5443 0
561 -563 -5763 0
-561 5763 0
563 5763 0
3924 -3844 0
4244 -3844 0
-3924 -4244 3844 0
-3924 4564 0
-3924 5204 0
3924 -4564 -5204 0
-4244 4884 0
-4244 5524 0
4244 -4884 -5524 0
-1 4 -4564 0
1 4564 0
-4 4564 0
-321 324 -4884 0
321 4884 0
-324 4884 0
1 -4 -5204 0
-1 5204 0
4 5204 0
321 -324 -5524 0
-321 5524 0
324 5524 0
4004 -3844 0
4324 -3844 0
-4004 -4324 3844 0
-4004 4644 0
-4004 5284 0
4004 -4644 -5284 0
-4324 4964 0
-4324 5604 0
4324 -4964 -5604 0
-81 84 -4644 0
81 4644 0
-84 4644 0
-401 404 -4964 0
401 4964 0
-404 4964 0
81 -84 -5284 0
-81 5284 0
84 5284 0
401 -404 -5604 0
-401 5604 0
404 5604 0
4084 -3844 0
4404 -3844 0
-4084 -4404 3844 0
-4084 4724 0
-4084 5364 0
4084 -4724 -5364 0
-4404 5044 0
-4404 5684 0
4404 -5044 -5684 0
-161 164 -4724 0
161 4724 0
-164 4724 0
-481 484 -5044 0
481 5044 0
-484 5044 0
161 -164 -5364 0
-161 5364 0
164 5364 0
481 -484 -5684 0
-481 5684 0
484 5684 0
4164 -3844 0
4484 -3844 0
-4164 -4484 3844 0
-4164 4804 0
-4164 5444 0
4164 -4804 -5444 0
-4484 5124 0
-4484 5764 0
4484 -5124 -5764 0
-241 244 -4804 0
241 4804 0
-244 4804 0
-561 564 -5124 0
561 5124 0
-564 5124 0
241 -244 -5444 0
-241 5444 0
244 5444 0
561 -564 -5764 0
-561 5764 0
564 5764 0
3925 -3845 0
4245 -3845 0
-3925 -4245 3845 0
-3925 4565 0
-3925 5205 0
3925 -4565 -5205 0
-4245 4885 0
-4245 5525 0
4245 -4885 -5525 0
-1 5 -4565 0
1 4565 0
-5 4565 0
-321 325 -4885 0
321 4885 0
-325 4885 0
1 -5 -5205 0
-1 5205 0
5 5205 0
321 -325 -5525 0
-321 5525 0
325 5525 0
4005 -3845 0
4325 -3845 0
-4005 -4325 3845 0
-4005 4645 0
-4005 5285 0
4005 -4645 -5285 0
-4325 4965 0
-4325 5605 0
4325 -4965 -5605 0
-81 85 -4645 0
81 4645 0
-85 4645 0
-401 405 -4965 0
401 4965 0
-405 4965 0
81 -85 -5285 0
-81 5285 0
85 5285 0
401 -405 -5605 0
-401 5605 0
405 5605 0
4085 -3845 0
4405 -3845 0
-4085 -4405 3845 0
-4085 4725 0
-4085 5365 0
4085 -4725 -5365 0
-4405 5045 0
-4405 5685 0
4405 -5045 -5685 0
-161 165 -4725 0
161 4725 0
-165 4725 0
-481 485 -5045 0
481 5045 0
-485 5045 0
161 -165 -5365 0
-161 5365 0
165 5365 0
481 -485 -5685 0
-481 5685 0
485 5685 0
4165 -3845 0
4485 -3845 0
-4165 -4485 3845 0
-4165 4805 0
-4165 5445 0
4165 -4805 -5445 0
-4485 5125 0
-4485 5765 0
4485 -5125 -5765 0
-241 245 -4805 0
241 4805 0
-245 4805 0
-561 565 -5125 0
561 5125 0
-565 5125 0
241 -245 -5445 0
-241 5445 0
245 5445 0
561 -565 -5765 0
-561 5765 0
565 5765 0
3926 -3846 0
4246 -3846 0
-3926 -4246 3846 0
-3926 4566 0
-3926 5206 0
3926 -4566 -5206 0
-4246 4886 0
-4246 5526 0
4246 -4886 -5526 0
-1 6 -4566 0
1 4566 0
-6 4566 0
-321 326 -4886 0
321 4886 0
-326 4886 0
1 -6 -5206 0
-1 5206 0
6 5206 0
321 -326 -5526 0
-321 5526 0
326 5526 0
4006 -3846 0
4326 -3846 0
-4006 -4326 3846 0
-4006 4646 0
-4006 5286 0
4006 -4646 -5286 0
-4326 4966 0
-4326 5606 0
4326 -4966 -5606 0
-81 86 -4646 0
81 4646 0
-86 4646 0
-401 406 -4966 0
401 4966 0
-406 4966 0
81 -86 -5286 0
-81 5286 0
86 5286 0
401 -406 -5606 0
-401 5606 0
406 5606 0
4086 -3846 0
4406 -3846 0
-4086 -4406 3846 0
-4086 4726 0
-4086 5366 0
4086 -4726 -5366 0
-4406 5046 0
-4406 5686 0
4406 -5046 -5686 0
-161 166 -4726 0
161 4726 0
-166 4726 0
-481 486 -5046 0
481 5046 0
-486 5046 0
161 -166 -5366 0
-161 5366 0
166 5366 0
481 -486 -5686 0
-481 5686 0
486 5686 0
4166 -3846 0
4486 -3846 0
-4166 -4486 3846 0
-4166 4806 0
-4166 5446 0
4166 -4806 -5446 0
-4486 5126 0
-4486 5766 0
4486 -5126 -5766 0
-241 246 -4806 0
241 4806 0
-246 4806 0
-561 566 -5126 0
561 5126 0
-566 5126 0
241 -246 -5446 0
-241 5446 0
246 5446 0
561 -566 -5766 0
-561 5766 0
566 5766 0
3927 -3847 0
4247 -3847 0
-3927 -4247 3847 0
-3927 4567 0
-3927 5207 0
3927 -4567 -5207 0
-4247 4887 0
-4247 5527 0
4247 -4887 -5527 0
-1 7 -4567 0
1 4567 0
-7 4567 0
-321 327 -4887 0
321 4887 0
-327 4887 0
1 -7 -5207 0
-1 5207 0
7 5207 0
321 -327 -5527 0
-321 5527 0
327 5527 0
4007 -3847 0
4327 -3847 0
-4007 -4327 3847 0
-4007 4647 0
-4007 5287 0
4007 -4647 -5287 0
-4327 4967 0
-4327 5607 0
4327 -4967 -5607 0
-81 87 -4647 0
81 4647 0
-87 4647 0
-401 407 -4967 0
401 4967 0
-407 4967 0
81 -87 -5287 0
-81 5287 0
87 5287 0
401 -407 -5607 0
-401 5607 0
407 5607 0
4087 -3847 0
4407 -3847 0
-4087 -4407 3847 0
-4087 4727 0
-4087 5367 0
4087 -4727 -5367 0
-4407 5047 0
-4407 5687 0
4407 -5047 -5687 0
-161 167 -4727 0
161 4727 0
-167 4727 0
-481 487 -5047 0
481 5047 0
-487 5047 0
161 -167 -5367 0
-161 5367 0
167 5367 0
481 -487 -5687 0
-481 5687 0
487 5687 0
4167 -3847 0
4487 -3847 0
-4167 -4487 3847 0
-4167 4807 0
-4167 5447 0
4167 -4807 -5447 0
-4487 5127 0
-4487 5767 0
4487 -5127 -5767 0
-241 247 -4807 0
241 4807 0
-247 4807 0
-561 567 -5127 0
561 5127 0
-567 5127 0
241 -247 -5447 0
-241 5447 0
247 5447 0
561 -567 -5767 0
-561 5767 0
567 5767 0
3928 -3848 0
4248 -3848 0
-3928 -4248 3848 0
-3928 4568 0
-3928 5208 0
3928 -4568 -5208 0
-4248 4888 0
-4248 5528 0
4248 -4888 -5528 0
-1 8 -4568 0
1 4568 0
-8 4568 0
-321 328 -4888 0
321 4888 0
-328 4888 0
1 -8 -5208 0
-1 5208 0
8 5208 0
321 -328 -5528 0
-321 5528 0
328 5528 0
4008 -3848 0
4328 -3848 0
-4008 -4328 3848 0
-4008 4648 0
-4008 5288 0
4008 -4648 -5288 0
-4328 4968 0
-4328 5608 0
4328 -4968 -5608 0
-81 88 -4648 0
81 4648 0
-88 4648 0
-401 408 -4968 0
401 4968 0
-408 4968 0
81 -88 -5288 0
-81 5288 0
88 5288 0
401 -408 -5608 0
-401 5608 0
408 5608 0
4088 -3848 0
4408 -3848 0
-4088 -4408 3848 0
-4088 4728 0
-4088 5368 0
4088 -4728 -5368 0
-4408 5048 0
-4408 5688 0
4408 -5048 -5688 0
-161 168 -4728 0
161 4728 0
-168 4728 0
-481 488 -5048 0
481 5048 0
-488 5048 0
161 -168 -5368 0
-161 5368 0
168 5368 0
481 -488 -5688 0
-481 5688 0
488 5688 0
4168 -3848 0
4488 -3848 0
-4168 -4488 3848 0
-4168 4808 0
-4168 5448 0
4168 -4808 -5448 0
-4488 5128 0
-4488 5768 0
4488 -5128 -5768 0
-241 248 -4808 0
241 4808 0
-248 4808 0
-561 568 -5128 0
561 5128 0
-568 5128 0
241 -248 -5448 0
-241 5448 0
248 5448 0
561 -568 -5768 0
-561 5768 0
568 5768 0
3929 -3849 0
4249 -3849 0
-3929 -4249 3849 0
-3929 4569 0
-3929 5209 0
3929 -4569 -5209 0
-4249 4889 0
-4249 5529 0
4249 -4889 -5529 0
-1 9 -4569 0
1 4569 0
-9 4569 0
-321 329 -4889 0
321 4889 0
-329 4889 0
1 -9 -5209 0
-1 5209 0
9 5209 0
321 -329 -5529 0
-321 5529 0
329 5529 0
4009 -3849 0
4329 -3849 0
-4009 -4329 3849 0
-4009 4649 0
-4009 5289 0
4009 -4649 -5289 0
-4329 4969 0
-4329 5609 0
4329 -4969 -5609 0
-81 89 -4649 0
81 4649 0
-89 4649 0
-401 409 -4969 0
401 4969 0
-409 4969 0
81 -89 -5289 0
-81 5289 0
89 5289 0
401 -409 -5609 0
-401 5609 0
409 5609 0
4089 -3849 0
4409 -3849 0
-4089 -4409 3849 0
-4089 4729 0
-4089 5369 0
4089 -4729 -5369 0
-4409 5049 0
-4409 5689 0
4409 -5049 -5689 0
-161 169 -4729 0
161 4729 0
-169 4729 0
-481 489 -5049 0
481 5049 0
-489 5049 0
161 -169 -5369 0
-161 5369 0
169 5369 0
481 -489 -5689 0
-481 5689 0
489 5689 0
4169 -3849 0
4489 -3849 0
-4169 -4489 3849 0
-4169 4809 0
-4169 5449 0
4169 -4809 -5449 0
-4489 5129 0
-4489 5769 0
4489 -5129 -5769 0
-241 249 -4809 0
241 4809 0
-249 4809 0
-561 569 -5129 0
561 5129 0
-569 5129 0
241 -249 -5449 0
-241 5449 0
249 5449 0
561 -569 -5769 0
-561 5769 0
569 5769 0
3930 -3850 0
4250 -3850 0
-3930 -4250 3850 0
-3930 4570 0
-3930 5210 0
3930 -4570 -5210 0
-4250 4890 0
-4250 5530 0
4250 -4890 -5530 0
-1 10 -4570 0
1 4570 0
-10 4570 0
-321 330 -4890 0
321 4890 0
-330 4890 0
1 -10 -5210 0
-1 5210 0
10 5210 0
321 -330 -5530 0
-321 5530 0
330 5530 0
4010 -3850 0
4330 -3850 0
-4010 -4330 3850 0
-4010 4650 0
-4010 5290 0
4010 -4650 -5290 0
-4330 4970 0
-4330 5610 0
4330 -4970 -5610 0
-81 90 -4650 0
81 4650 0
-90 4650 0
-401 410 -4970 0
401 4970 0
-410 4970 0
81 -90 -5290 0
-81 5290 0
90 5290 0
401 -410 -5610 0
-401 5610 0
410 5610 0
4090 -3850 0
4410 -3850 0
-4090 -4410 3850 0
-4090 4730 0
-4090 5370 0
4090 -4730 -5370 0
-4410 5050 0
-4410 5690 0
4410 -5050 -5690 0
-161 170 -4730 0
161 4730 0
-170 4730 0
-481 490 -5050 0
481 5050 0
-490 5050 0
161 -170 -5370 0
-161 5370 0
170 5370 0
481 -490 -5690 0
-481 5690 0
490 5690 0
4170 -3850 0
4490 -3850 0
-4170 -4490 3850 0
-4170 4810 0
-4170 5450 0
4170 -4810 -5450 0
-4490 5130 0
-4490 5770 0
4490 -5130 -5770 0
-241 250 -4810 0
241 4810 0
-250 4810 0
-561 570 -5130 0
561 5130 0
-570 5130 0
241 -250 -5450 0
-241 5450 0
250 5450 0
561 -570 -5770 0
-561 5770 0
570 5770 0
3931 -3851 0
4251 -3851 0
-3931 -4251 3851 0
-3931 4571 0
-3931 5211 0
3931 -4571 -5211 0
-4251 4891 0
-4251 5531 0
4251 -4891 -5531 0
-1 11 -4571 0
1 4571 0
-11 4571 0
-321 331 -4891 0
321 4891 0
-331 4891 0
1 -11 -5211 0
-1 5211 0
11 5211 0
321 -331 -5531 0
-321 5531 0
331 5531 0
4011 -3851 0
4331 -3851 0
-4011 -4331 3851 0
-4011 4651 0
-4011 5291 0
4011 -4651 -5291 0
-4331 4971 0
-4331 5611 0
4331 -4971 -5611 0
-81 91 -4651 0
81 4651 0
-91 4651 0
-401 411 -4971 0
401 4971 0
-411 4971 0
81 -91 -5291 0
-81 5291 0
91 5291 0
401 -411 -5611 0
-401 5611 0
411 5611 0
4091 -3851 0
4411 -3851 0
-4091 -4411 3851 0
-4091 4731 0
-4091 5371 0
4091 -4731 -5371 0
-4411 5051 0
-4411 5691 0
4411 -5051 -5691 0
-161 171 -4731 0
161 4731 0
-171 4731 0
-481 491 -5051 0
481 5051 0
-491 5051 0
161 -171 -5371 0
-161 5371 0
171 5371 0
481 -491 -5691 0
-481 5691 0
491 5691 0
4171 -3851 0
4491 -3851 0
-4171 -4491 3851 0
-4171 4811 0
-4171 5451 0
4171 -4811 -5451 0
-4491 5131 0
-4491 5771 0
4491 -5131 -5771 0
-241 251 -4811 0
241 4811 0
-251 4811 0
-561 571 -5131 0
561 5131 0
-571 5131 0
241 -251 -5451 0
-241 5451 0
251 5451 0
561 -571 -5771 0
-561 5771 0
571 5771 0
3932 -3852 0
4252 -3852 0
-3932 -4252 3852 0
-3932 4572 0
-3932 5212 0
3932 -4572 -5212 0
-4252 4892 0
-4252 5532 0
4252 -4892 -5532 0
-1 12 -4572 0
1 4572 0
-12 4572 0
-321 332 -4892 0
321 4892 0
-332 4892 0
1 -12 -5212 0
-1 5212 0
12 5212 0
321 -332 -5532 0
-321 5532 0
332 5532 0
4012 -3852 0
4332 -3852 0
-4012 -4332 3852 0
-4012 4652 0
-4012 5292 0
4012 -4652 -5292 0
-4332 4972 0
-4332 5612 0
4332 -4972 -5612 0
-81 92 -4652 0
81 4652 0
-92 4652 0
-401 412 -4972 0
401 4972 0
-412 4972 0
81 -92 -5292 0
-81 5292 0
92 5292 0
401 -412 -5612 0
-401 5612 0
412 5612 0
4092 -3852 0
4412 -3852 0
-4092 -4412 3852 0
-4092 4732 0
-4092 5372 0
4092 -4732 -5372 0
-4412 5052 0
-4412 5692 0
4412 -5052 -5692 0
-161 172 -4732 0
161 4732 0
-172 4732 0
-481 492 -5052 0
481 5052 0
-492 5052 0
161 -172 -5372 0
-161 5372 0
172 5372 0
481 -492 -5692 0
-481 5692 0
492 5692 0
4172 -3852 0
4492 -3852 0
-4172 -4492 3852 0
-4172 4812 0
-4172 5452 0
4172 -4812 -5452 0
-4492 5132 0
-4492 5772 0
4492 -5132 -5772 0
-241 252 -4812 0
241 4812 0
-252 4812 0
-561 572 -5132 0
561 5132 0
-572 5132 0
241 -252 -5452 0
-241 5452 0
252 5452 0
561 -572 -5772 0
-561 5772 0
572 5772 0
3933 -3853 0
4253 -3853 0
-3933 -4253 3853 0
-3933 4573 0
-3933 5213 0
3933 -4573 -5213 0
-4253 4893 0
-4253 5533 0
4253 -4893 -5533 0
-1 13 -4573 0
1 4573 0
-13 4573 0
-321 333 -4893 0
321 4893 0
-333 4893 0
1 -13 -5213 0
-1 5213 0
13 5213 0
321 -333 -5533 0
-321 5533 0
333 5533 0
4013 -3853 0
4333 -3853 0
-4013 -4333 3853 0
-4013 4653 0
-4013 5293 0
4013 -4653 -5293 0
-4333 4973 0
-4333 5613 0
4333 -4973 -5613 0
-81 93 -4653 0
81 4653 0
-93 4653 0
-401 413 -4973 0
401 4973 0
-413 4973 0
81 -93 -5293 0
-81 5293 0
93 5293 0
401 -413 -5613 0
-401 5613 0
413 5613 0
4093 -3853 0
4413 -3853 0
-4093 -4413 3853 0
-4093 4733 0
-4093 5373 0
4093 -4733 -5373 0
-4413 5053 0
-4413 5693 0
4413 -5053 -5693 0
-161 173 -4733 0
161 4733 0
-173 4733 0
-481 493 -5053 0
481 5053 0
-493 5053 0
161 -173 -5373 0
-161 5373 0
173 5373 0
481 -493 -5693 0
-481 5693 0
493 5693 0
4173 -3853 0
4493 -3853 0
-4173 -4493 3853 0
-4173 4813 0
-4173 5453 0
4173 -4813 -5453 0
-4493 5133 0
-4493 5773 0
4493 -5133 -5773 0
-241 253 -4813 0
241 4813 0
-253 4813 0
-561 573 -5133 0
561 5133 0
-573 5133 0
241 -253 -5453 0
-241 5453 0
253 5453 0
561 -573 -5773 0
-561 5773 0
573 5773 0
3934 -3854 0
4254 -3854 0
-3934 -4254 3854 0
-3934 4574 0
-3934 5214 0
3934 -4574 -5214 0
-4254 4894 0
-4254 5534 0
4254 -4894 -5534 0
-1 14 -4574 0
1 4574 0
-14 4574 0
-321 334 -4894 0
321 4894 0
-334 4894 0
1 -14 -5214 0
-1 5214 0
14 5214 0
321 -334 -5534 0
-321 5534 0
334 5534 0
4014 -3854 0
4334 -3854 0
-4014 -4334 3854 0
-4014 4654 0
-4014 5294 0
4014 -4654 -5294 0
-4334 4974 0
-4334 5614 0
4334 -4974 -5614 0
-81 94 -4654 0
81 4654 0
-94 4654 0
-401 414 -4974 0
401 4974 0
-414 4974 0
81 -94 -5294 0
-81 5294 0
94 5294 0
401 -414 -5614 0
-401 5614 0
414 5614 0
4094 -3854 0
4414 -3854 0
-4094 -4414 3854 0
-4094 4734 0
-4094 5374 0
4094 -4734 -5374 0
-4414 5054 0
-4414 5694 0
4414 -5054 -5694 0
-161 174 -4734 0
161 4734 0
-174 4734 0
-481 494 -5054 0
481 5054 0
-494 5054 0
161 -174 -5374 0
-161 5374 0
174 5374 0
481 -494 -5694 0
-481 5694 0
494 5694 0
4174 -3854 0
4494 -3854 0
-4174 -4494 3854 0
-4174 4814 0
-4174 5454 0
4174 -4814 -5454 0
-4494 5134 0
-4494 5774 0
4494 -5134 -5774 0
-241 254 -4814 0
241 4814 0
-254 4814 0
-561 574 -5134 0
561 5134 0
-574 5134 0
241 -254 -5454 0
-241 5454 0
254 5454 0
561 -574 -5774 0
-561 5774 0
574 5774 0
3935 -3855 0
4255 -3855 0
-3935 -4255 3855 0
-3935 4575 0
-3935 5215 0
3935 -4575 -5215 0
-4255 4895 0
-4255 5535 0
4255 -4895 -5535 0
-1 15 -4575 0
1 4575 0
-15 4575 0
-321 335 -4895 0
321 4895 0
-335 4895 0
1 -15 -5215 0
-1 5215 0
15 5215 0
321 -335 -5535 0
-321 5535 0
335 5535 0
4015 -3855 0
4335 -3855 0
-4015 -4335 3855 0
-4015 4655 0
-4015 5295 0
4015 -4655 -5295 0
-4335 4975 0
-4335 5615 0
4335 -4975 -5615 0
-81 95 -4655 0
81 4655 0
-95 4655 0
-401 415 -4975 0
401 4975 0
-415 4975 0
81 -95 -5295 0
-81 5295 0
95 5295 0
401 -415 -5615 0
-401 5615 0
415 5615 0
4095 -3855 0
4415 -3855 0
-4095 -4415 3855 0
-4095 4735 0
-4095 5375 0
4095 -4735 -5375 0
-4415 5055 0
-4415 5695 0
4415 -5055 -5695 0
-161 175 -4735 0
161 4735 0
-175 4735 0
-481 495 -5055 0
481 5055 0
-495 5055 0
161 -175 -5375 0
-161 5375 0
175 5375 0
481 -495 -5695 0
-481 5695 0
495 5695 0
4175 -3855 0
4495 -3855 0
-4175 -4495 3855 0
-4175 4815 0
-4175 5455 0
4175 -4815 -5455 0
-4495 5135 0
-4495 5775 0
4495 -5135 -5775 0
-241 255 -4815 0
241 4815 0
-255 4815 0
-561 575 -5135 0
561 5135 0
-575 5135 0
241 -255 -5455 0
-241 5455 0
255 5455 0
561 -575 -5775 0
-561 5775 0
575 5775 0
3936 -3856 0
4256 -3856 0
-3936 -4256 3856 0
-3936 4576 0
-3936 5216 0
3936 -4576 -5216 0
-4256 4896 0
-4256 5536 0
4256 -4896 -5536 0
-1 16 -4576 0
1 4576 0
-16 4576 0
-321 336 -4896 0
321 4896 0
-336 4896 0
1 -16 -5216 0
-1 5216 0
16 5216 0
321 -336 -5536 0
-321 5536 0
336 5536 0
4016 -3856 0
4336 -3856 0
-4016 -4336 3856 0
-4016 4656 0
-4016 5296 0
4016 -4656 -5296 0
-4336 4976 0
-4336 5616 0
4336 -4976 -5616 0
-81 96 -4656 0
81 4656 0
-96 4656 0
-401 416 -4976 0
401 4976 0
-416 4976 0
81 -96 -5296 0
-81 5296 0
96 5296 0
401 -416 -5616 0
-401 5616 0
416 5616 0
4096 -3856 0
4416 -3856 0
-4096 -4416 3856 0
-4096 4736 0
-4096 5376 0
4096 -4736 -5376 0
-4416 5056 0
-4416 5696 0
4416 -5056 -5696 0
-161 176 -4736 0
161 4736 0
-176 4736 0
-481 496 -5056 0
481 5056 0
-496 5056 0
161 -176 -5376 0
-161 5376 0
176 5376 0
481 -496 -5696 0
-481 5696 0
496 5696 0
4176 -3856 0
4496 -3856 0
-4176 -4496 3856 0
-4176 4816 0
-4176 5456 0
4176 -4816 -5456 0
-4496 5136 0
-4496 5776 0
4496 -5136 -5776 0
-241 256 -4816 0
241 4816 0
-256 4816 0
-561 576 -5136 0
561 5136 0
-576 5136 0
241 -256 -5456 0
-241 5456 0
256 5456 0
561 -576 -5776 0
-561 5776 0
576 5776 0
3937 -3857 0
4257 -3857 0
-3937 -4257 3857 0
-3937 4577 0
-3937 5217 0
3937 -4577 -5217 0
-4257 4897 0
-4257 5537 0
4257 -4897 -5537 0
-1 17 -4577 0
1 4577 0
-17 4577 0
-321 337 -4897 0
321 4897 0
-337 4897 0
1 -17 -5217 0
-1 5217 0
17 5217 0
321 -337 -5537 0
-321 5537 0
337 5537 0
4017 -3857 0
4337 -3857 0
-4017 -4337 3857 0
-4017 4657 0
-4017 5297 0
4017 -4657 -5297 0
-4337 4977 0
-4337 5617 0
4337 -4977 -5617 0
-81 97 -4657 0
81 4657 0
-97 4657 0
-401 417 -4977 0
401 4977 0
-417 4977 0
81 -97 -5297 0
-81 5297 0
97 5297 0
401 -417 -5617 0
-401 5617 0
417 5617 0
4097 -3857 0
4417 -3857 0
-4097 -4417 3857 0
-4097 4737 0
-4097 5377 0
4097 -4737 -5377 0
-4417 5057 0
-4417 5697 0
4417 -5057 -5697 0
-161 177 -4737 0
161 4737 0
-177 4737 0
-481 497 -5057 0
481 5057 0
-497 5057 0
161 -177 -5377 0
-161 5377 0
177 5377 0
481 -497 -5697 0
-481 5697 0
497 5697 0
4177 -3857 0
4497 -3857 0
-4177 -4497 3857 0
-4177 4817 0
-4177 5457 0
4177 -4817 -5457 0
-4497 5137 0
-4497 5777 0
4497 -5137 -5777 0
-241 257 -4817 0
241 4817 0
-257 4817 0
-561 577 -5137 0
561 5137 0
-577 5137 0
241 -257 -5457 0
-241 5457 0
257 5457 0
561 -577 -5777 0
-561 5777 0
577 5777 0
3938 -3858 0
4258 -3858 0
-3938 -4258 3858 0
-3938 4578 0
-3938 5218 0
3938 -4578 -5218 0
-4258 4898 0
-4258 5538 0
4258 -4898 -5538 0
-1 18 -4578 0
1 4578 0
-18 4578 0
-321 338 -4898 0
321 4898 0
-338 4898 0
1 -18 -5218 0
-1 5218 0
18 5218 0
321 -338 -5538 0
-321 5538 0
338 5538 0
4018 -3858 0
4338 -3858 0
-4018 -4338 3858 0
-4018 4658 0
-4018 5298 0
4018 -4658 -5298 0
-4338 4978 0
-4338 5618 0
4338 -4978 -5618 0
-81 98 -4658 0
81 4658 0
-98 4658 0
-401 418 -4978 0
401 4978 0
-418 4978 0
81 -98 -5298 0
-81 5298 0
98 5298 0
401 -418 -5618 0
-401 5618 0
418 5618 0
4098 -3858 0
4418 -3858 0
-4098 -4418 3858 0
-4098 4738 0
-4098 5378 0
4098 -4738 -5378 0
-4418 5058 0
-4418 5698 0
4418 -5058 -5698 0
-161 178 -4738 0
161 4738 0
-178 4738 0
-481 498 -5058 0
481 5058 0
-498 5058 0
161 -178 -5378 0
-161 5378 0
178 5378 0
481 -498 -5698 0
-481 5698 0
498 5698 0
4178 -3858 0
4498 -3858 0
-4178 -4498 3858 0
-4178 4818 0
-4178 5458 0
4178 -4818 -5458 0
-4498 5138 0
-4498 5778 0
4498 -5138 -5778 0
-241 258 -4818 0
241 4818 0
-258 4818 0
-561 578 -5138 0
561 5138 0
-578 5138 0
241 -258 -5458 0
-241 5458 0
258 5458 0
561 -578 -5778 0
-561 5778 0
578 5778 0
3939 -3859 0
4259 -3859 0
-3939 -4259 3859 0
-3939 4579 0
-3939 5219 0
3939 -4579 -5219 0
-4259 4899 0
-4259 5539 0
4259 -4899 -5539 0
-1 19 -4579 0
1 4579 0
-19 4579 0
-321 339 -4899 0
321 4899 0
-339 4899 0
1 -19 -5219 0
-1 5219 0
19 5219 0
321 -339 -5539 0
-321 5539 0
339 5539 0
4019 -3859 0
4339 -3859 0
-4019 -4339 3859 0
-4019 4659 0
-4019 5299 0
4019 -4659 -5299 0
-4339 4979 0
-4339 5619 0
4339 -4979 -5619 0
-81 99 -4659 0
81 4659 0
-99 4659 0
-401 419 -4979 0
401 4979 0
-419 4979 0
81 -99 -5299 0
-81 5299 0
99 5299 0
401 -419 -5619 0
-401 5619 0
419 5619 0
4099 -3859 0
4419 -3859 0
-4099 -4419 3859 0
-4099 4739 0
-4099 5379 0
4099 -4739 -5379 0
-4419 5059 0
-4419 5699 0
4419 -5059 -5699 0
-161 179 -4739 0
161 4739 0
-179 4739 0
-481 499 -5059 0
481 5059 0
-499 5059 0
161 -179 -5379 0
-161 5379 0
179 5379 0
481 -499 -5699 0
-481 5699 0
499 5699 0
4179 -3859 0
4499 -3859 0
-4179 -4499 3859 0
-4179 4819 0
-4179 5459 0
4179 -4819 -5459 0
-4499 5139 0
-4499 5779 0
4499 -5139 -5779 0
-241 259 -4819 0
241 4819 0
-259 4819 0
-561 579 -5139 0
561 5139 0
-579 5139 0
241 -259 -5459 0
-241 5459 0
259 5459 0
561 -579 -5779 0
-561 5779 0
579 5779 0
3940 -3860 0
4260 -3860 0
-3940 -4260 3860 0
-3940 4580 0
-3940 5220 0
3940 -4580 -5220 0
-4260 4900 0
-4260 5540 0
4260 -4900 -5540 0
-1 20 -4580 0
1 4580 0
-20 4580 0
-321 340 -4900 0
321 4900 0
-340 4900 0
1 -20 -5220 0
-1 5220 0
20 5220 0
321 -340 -5540 0
-321 5540 0
340 5540 0
4020 -3860 0
4340 -3860 0
-4020 -4340 3860 0
-4020 4660 0
-4020 5300 0
4020 -4660 -5300 0
-4340 4980 0
-4340 5620 0
4340 -4980 -5620 0
-81 100 -4660 0
81 4660 0
-100 4660 0
-401 420 -4980 0
401 4980 0
-420 4980 0
81 -100 -5300 0
-81 5300 0
100 5300 0
401 -420 -5620 0
-401 5620 0
420 5620 0
4100 -3860 0
4420 -3860 0
-4100 -4420 3860 0
-4100 4740 0
-4100 5380 0
4100 -4740 -5380 0
-4420 5060 0
-4420 5700 0
4420 -5060 -5700 0
-161 180 -4740 0
161 4740 0
-180 4740 0
-481 500 -5060 0
481 5060 0
-500 5060 0
161 -180 -5380 0
-161 5380 0
180 5380 0
481 -500 -5700 0
-481 5700 0
500 5700 0
4180 -3860 0
4500 -3860 0
-4180 -4500 3860 0
-4180 4820 0
-4180 5460 0
4180 -4820 -5460 0
-4500 5140 0
-4500 5780 0
4500 -5140 -5780 0
-241 260 -4820 0
241 4820 0
-260 4820 0
-561 580 -5140 0
561 5140 0
-580 5140 0
241 -260 -5460 0
-241 5460 0
260 5460 0
561 -580 -5780 0
-561 5780 0
580 5780 0
3941 -3861 0
4261 -3861 0
-3941 -4261 3861 0
-3941 4581 0
-3941 5221 0
3941 -4581 -5221 0
-4261 4901 0
-4261 5541 0
4261 -4901 -5541 0
-1 21 -4581 0
1 4581 0
-21 4581 0
-321 341 -4901 0
321 4901 0
-341 4901 0
1 -21 -5221 0
-1 5221 0
21 5221 0
321 -341 -5541 0
-321 5541 0
341 5541 0
4021 -3861 0
4341 -3861 0
-4021 -4341 3861 0
-4021 4661 0
-4021 5301 0
4021 -4661 -5301 0
-4341 4981 0
-4341 5621 0
4341 -4981 -5621 0
-81 101 -4661 0
81 4661 0
-101 4661 0
-401 421 -4981 0
401 4981 0
-421 4981 0
81 -101 -5301 0
-81 5301 0
101 5301 0
401 -421 -5621 0
-401 5621 0
421 5621 0
4101 -3861 0
4421 -3861 0
-4101 -4421 3861 0
-4101 4741 0
-4101 5381 0
4101 -4741 -5381 0
-4421 5061 0
-4421 5701 0
4421 -5061 -5701 0
-161 181 -4741 0
161 4741 0
-181 4741 0
-481 501 -5061 0
481 5061 0
-501 5061 0
161 -181 -5381 0
-161 5381 0
181 5381 0
481 -501 -5701 0
-481 5701 0
501 5701 0
4181 -3861 0
4501 -3861 0
-4181 -4501 3861 0
-4181 4821 0
-4181 5461 0
4181 -4821 -5461 0
-4501 5141 0
-4501 5781 0
4501 -5141 -5781 0
-241 261 -4821 0
241 4821 0
-261 4821 0
-561 581 -5141 0
561 5141 0
-581 5141 0
241 -261 -5461 0
-241 5461 0
261 5461 0
561 -581 -5781 0
-561 5781 0
581 5781 0
3942 -3862 0
4262 -3862 0
-3942 -4262 3862 0
-3942 4582 0
-3942 5222 0
3942 -4582 -5222 0
-4262 4902 0
-4262 5542 0
4262 -4902 -5542 0
-1 22 -4582 0
1 4582 0
-22 4582 0
-321 342 -4902 0
321 4902 0
-342 4902 0
1 -22 -5222 0
-1 5222 0
22 5222 0
321 -342 -5542 0
-321 5542 0
342 5542 0
4022 -3862 0
4342 -3862 0
-4022 -4342 3862 0
-4022 4662 0
-4022 5302 0
4022 -4662 -5302 0
-4342 4982 0
-4342 5622 0
4342 -4982 -5622 0
-81 102 -4662 0
81 4662 0
-102 4662 0
-401 422 -4982 0
401 4982 0
-422 4982 0
81 -102 -5302 0
-81 5302 0
102 5302 0
401 -422 -5622 0
-401 5622 0
422 5622 0
4102 -3862 0
4422 -3862 0
-4102 -4422 3862 0
-4102 4742 0
-4102 5382 0
4102 -4742 -5382 0
-4422 5062 0
-4422 5702 0
4422 -5062 -5702 0
-161 182 -4742 0
161 4742 0
-182 4742 0
-481 502 -5062 0
481 5062 0
-502 5062 0
161 -182 -5382 0
-161 5382 0
182 5382 0
481 -502 -5702 0
-481 5702 0
502 5702 0
4182 -3862 0
4502 -3862 0
-4182 -4502 3862 0
-4182 4822 0
-4182 5462 0
4182 -4822 -5462 0
-4502 5142 0
-4502 5782 0
4502 -5142 -5782 0
-241 262 -4822 0
241 4822 0
-262 4822 0
-561 582 -5142 0
561 5142 0
-582 5142 0
241 -262 -5462 0
-241 5462 0
262 5462 0
561 -582 -5782 0
-561 5782 0
582 5782 0
3943 -3863 0
4263 -3863 0
-3943 -4263 3863 0
-3943 4583 0
-3943 5223 0
3943 -4583 -5223 0
-4263 4903 0
-4263 5543 0
4263 -4903 -5543 0
-1 23 -4583 0
1 4583 0
-23 4583 0
-321 343 -4903 0
321 4903 0
-343 4903 0
1 -23 -5223 0
-1 5223 0
23 5223 0
321 -343 -5543 0
-321 5543 0
343 5543 0
4023 -3863 0
4343 -3863 0
-4023 -4343 3863 0
-4023 4663 0
-4023 5303 0
4023 -4663 -5303 0
-4343 4983 0
-4343 5623 0
4343 -4983 -5623 0
-81 103 -4663 0
81 4663 0
-103 4663 0
-401 423 -4983 0
401 4983 0
-423 4983 0
81 -103 -5303 0
-81 5303 0
103 5303 0
401 -423 -5623 0
-401 5623 0
423 5623 0
4103 -3863 0
4423 -3863 0
-4103 -4423 3863 0
-4103 4743 0
-4103 5383 0
4103 -4743 -5383 0
-4423 5063 0
-4423 5703 0
4423 -5063 -5703 0
-161 183 -4743 0
161 4743 0
-183 4743 0
-481 503 -5063 0
481 5063 0
-503 5063 0
161 -183 -5383 0
-161 5383 0
183 5383 0
481 -503 -5703 0
-481 5703 0
503 5703 0
4183 -3863 0
4503 -3863 0
-4183 -4503 3863 0
-4183 4823 0
-4183 5463 0
4183 -4823 -5463 0
-4503 5143 0
-4503 5783 0
4503 -5143 -5783 0
-241 263 -4823 0
241 4823 0
-263 4823 0
-561 583 -5143 0
561 5143 0
-583 5143 0
241 -263 -5463 0
-241 5463 0
263 5463 0
561 -583 -5783 0
-561 5783 0
583 5783 0
3944 -3864 0
4264 -3864 0
-3944 -4264 3864 0
-3944 4584 0
-3944 5224 0
3944 -4584 -5224 0
-4264 4904 0
-4264 5544 0
4264 -4904 -5544 0
-1 24 -4584 0
1 4584 0
-24 4584 0
-321 344 -4904 0
321 4904 0
-344 4904 0
1 -24 -5224 0
-1 5224 0
24 5224 0
321 -344 -5544 0
-321 5544 0
344 5544 0
4024 -3864 0
4344 -3864 0
-4024 -4344 3864 0
-4024 4664 0
-4024 5304 0
4024 -4664 -5304 0
-4344 4984 0
-4344 5624 0
4344 -4984 -5624 0
-81 104 -4664 0
81 4664 0
-104 4664 0
-401 424 -4984 0
401 4984 0
-424 4984 0
81 -104 -5304 0
-81 5304 0
104 5304 0
401 -424 -5624 0
-401 5624 0
424 5624 0
4104 -3864 0
4424 -3864 0
-4104 -4424 3864 0
-4104 4744 0
-4104 5384 0
4104 -4744 -5384 0
-4424 5064 0
-4424 5704 0
4424 -5064 -5704 0
-161 184 -4744 0
161 4744 0
-184 4744 0
-481 504 -5064 0
481 5064 0
-504 5064 0
161 -184 -5384 0
-161 5384 0
184 5384 0
481 -504 -5704 0
-481 5704 0
504 5704 0
4184 -3864 0
4504 -3864 0
-4184 -4504 3864 0
-4184 4824 0
-4184 5464 0
4184 -4824 -5464 0
-4504 5144 0
-4504 5784 0
4504 -5144 -5784 0
-241 264 -4824 0
241 4824 0
-264 4824 0
-561 584 -5144 0
561 5144 0
-584 5144 0
241 -264 -5464 0
-241 5464 0
264 5464 0
561 -584 -5784 0
-561 5784 0
584 5784 0
3945 -3865 0
4265 -3865 0
-3945 -4265 3865 0
-3945 4585 0
-3945 5225 0
3945 -4585 -5225 0
-4265 4905 0
-4265 5545 0
4265 -4905 -5545 0
-1 25 -4585 0
1 4585 0
-25 4585 0
-321 345 -4905 0
321 4905 0
-345 4905 0
1 -25 -5225 0
-1 5225 0
25 5225 0
321 -345 -5545 0
-321 5545 0
345 5545 0
4025 -3865 0
4345 -3865 0
-4025 -4345 3865 0
-4025 4665 0
-4025 5305 0
4025 -4665 -5305 0
-4345 4985 0
-4345 5625 0
4345 -4985 -5625 0
-81 105 -4665 0
81 4665 0
-105 4665 0
-401 425 -4985 0
401 4985 0
-425 4985 0
81 -105 -5305 0
-81 5305 0
105 5305 0
401 -425 -5625 0
-401 5625 0
425 5625 0
4105 -3865 0
4425 -3865 0
-4105 -4425 3865 0
-4105 4745 0
-4105 5385 0
4105 -4745 -5385 0
-4425 5065 0
-4425 5705 0
4425 -5065 -5705 0
-161 185 -4745 0
161 4745 0
-185 4745 0
-481 505 -5065 0
481 5065 0
-505 5065 0
161 -185 -5385 0
-161 5385 0
185 5385 0
481 -505 -5705 0
-481 5705 0
505 5705 0
4185 -3865 0
4505 -3865 0
-4185 -4505 3865 0
-4185 4825 0
-4185 5465 0
4185 -4825 -5465 0
-4505 5145 0
-4505 5785 0
4505 -5145 -5785 0
-241 265 -4825 0
241 4825 0
-265 4825 0
-561 585 -5145 0
561 5145 0
-585 5145 0
241 -265 -5465 0
-241 5465 0
265 5465 0
561 -585 -5785 0
-561 5785 0
585 5785 0
3946 -3866 0
4266 -3866 0
-3946 -4266 3866 0
-3946 4586 0
-3946 5226 0
3946 -4586 -5226 0
-4266 4906 0
-4266 5546 0
4266 -4906 -5546 0
-1 26 -4586 0
1 4586 0
-26 4586 0
-321 346 -4906 0
321 4906 0
-346 4906 0
1 -26 -5226 0
-1 5226 0
26 5226 0
321 -346 -5546 0
-321 5546 0
346 5546 0
4026 -3866 0
4346 -3866 0
-4026 -4346 3866 0
-4026 4666 0
-4026 5306 0
4026 -4666 -5306 0
-4346 4986 0
-4346 5626 0
4346 -4986 -5626 0
-81 106 -4666 0
81 4666 0
-106 4666 0
-401 426 -4986 0
401 4986 0
-426 4986 0
81 -106 -5306 0
-81 5306 0
106 5306 0
401 -426 -5626 0
-401 5626 0
426 5626 0
4106 -3866 0
4426 -3866 0
-4106 -4426 3866 0
-4106 4746 0
-4106 5386 0
4106 -4746 -5386 0
-4426 5066 0
-4426 5706 0
4426 -5066 -5706 0
-161 186 -4746 0
161 4746 0
-186 4746 0
-481 506 -5066 0
481 5066 0
-506 5066 0
161 -186 -5386 0
-161 5386 0
186 5386 0
481 -506 -5706 0
-481 5706 0
506 5706 0
4186 -3866 0
4506 -3866 0
-4186 -4506 3866 0
-4186 4826 0
-4186 5466 0
4186 -4826 -5466 0
-4506 5146 0
-4506 5786 0
4506 -5146 -5786 0
-241 266 -4826 0
241 4826 0
-266 4826 0
-561 586 -5146 0
561 5146 0
-586 5146 0
241 -266 -5466 0
-241 5466 0
266 5466 0
561 -586 -5786 0
-561 5786 0
586 5786 0
3947 -3867 0
4267 -3867 0
-3947 -4267 3867 0
-3947 4587 0
-3947 5227 0
3947 -4587 -5227 0
-4267 4907 0
-4267 5547 0
4267 -4907 -5547 0
-1 27 -4587 0
1 4587 0
-27 4587 0
-321 347 -4907 0
321 4907 0
-347 4907 0
1 -27 -5227 0
-1 5227 0
27 5227 0
321 -347 -5547 0
-321 5547 0
347 5547 0
4027 -3867 0
4347 -3867 0
-4027 -4347 3867 0
-4027 4667 0
-4027 5307 0
4027 -4667 -5307 0
-4347 4987 0
-4347 5627 0
4347 -4987 -5627 0
-81 107 -4667 0
81 4667 0
-107 4667 0
-401 427 -4987 0
401 4987 0
-427 4987 0
81 -107 -5307 0
-81 5307 0
107 5307 0
401 -427 -5627 0
-401 5627 0
427 5627 0
4107 -3867 0
4427 -3867 0
-4107 -4427 3867 0
-4107 4747 0
-4107 5387 0
4107 -4747 -5387 0
-4427 5067 0
-4427 5707 0
4427 -5067 -5707 0
-161 187 -4747 0
161 4747 0
-187 4747 0
-481 507 -5067 0
481 5067 0
-507 5067 0
161 -187 -5387 0
-161 5387 0
187 5387 0
481 -507 -5707 0
-481 5707 0
507 5707 0
4187 -3867 0
4507 -3867 0
-4187 -4507 3867 0
-4187 4827 0
-4187 5467 0
4187 -4827 -5467 0
-4507 5147 0
-4507 5787 0
4507 -5147 -5787 0
-241 267 -4827 0
241 4827 0
-267 4827 0
-561 587 -5147 0
561 5147 0
-587 5147 0
241 -267 -5467 0
-241 5467 0
267 5467 0
561 -587 -5787 0
-561 5787 0
587 5787 0
3948 -3868 0
4268 -3868 0
-3948 -4268 3868 0
-3948 4588 0
-3948 5228 0
3948 -4588 -5228 0
-4268 4908 0
-4268 5548 0
4268 -4908 -5548 0
-1 28 -4588 0
1 4588 0
-28 4588 0
-321 348 -4908 0
321 4908 0
-348 4908 0
1 -28 -5228 0
-1 5228 0
28 5228 0
321 -348 -5548 0
-321 5548 0
348 5548 0
4028 -3868 0
4348 -3868 0
-4028 -4348 3868 0
-4028 4668 0
-4028 5308 0
4028 -4668 -5308 0
-4348 4988 0
-4348 5628 0
4348 -4988 -5628 0
-81 108 -4668 0
81 4668 0
-108 4668 0
-401 428 -4988 0
401 4988 0
-428 4988 0
81 -108 -5308 0
-81 5308 0
108 5308 0
401 -428 -5628 0
-401 5628 0
428 5628 0
4108 -3868 0
4428 -3868 0
-4108 -4428 3868 0
-4108 4748 0
-4108 5388 0
4108 -4748 -5388 0
-4428 5068 0
-4428 5708 0
4428 -5068 -5708 0
-161 188 -4748 0
161 4748 0
-188 4748 0
-481 508 -5068 0
481 5068 0
-508 5068 0
161 -188 -5388 0
-161 5388 0
188 5388 0
481 -508 -5708 0
-481 5708 0
508 5708 0
4188 -3868 0
4508 -3868 0
-4188 -4508 3868 0
-4188 4828 0
-4188 5468 0
4188 -4828 -5468 0
-4508 5148 0
-4508 5788 0
4508 -5148 -5788 0
-241 268 -4828 0
241 4828 0
-268 4828 0
-561 588 -5148 0
561 5148 0
-588 5148 0
241 -268 -5468 0
-241 5468 0
268 5468 0
561 -588 -5788 0
-561 5788 0
588 5788 0
3949 -3869 0
4269 -3869 0
-3949 -4269 3869 0
-3949 4589 0
-3949 5229 0
3949 -4589 -5229 0
-4269 4909 0
-4269 5549 0
4269 -4909 -5549 0
-1 29 -4589 0
1 4589 0
-29 4589 0
-321 349 -4909 0
321 4909 0
-349 4909 0
1 -29 -5229 0
-1 5229 0
29 5229 0
321 -349 -5549 0
-321 5549 0
349 5549 0
4029 -3869 0
4349 -3869 0
-4029 -4349 3869 0
-4029 4669 0
-4029 5309 0
4029 -4669 -5309 0
-4349 4989 0
-4349 5629 0
4349 -4989 -5629 0
-81 109 -4669 0
81 4669 0
-109 4669 0
-401 429 -4989 0
401 4989 0
-429 4989 0
81 -109 -5309 0
-81 5309 0
109 5309 0
401 -429 -5629 0
-401 5629 0
429 5629 0
4109 -3869 0
4429 -3869 0
-4109 -4429 3869 0
-4109 4749 0
-4109 5389 0
4109 -4749 -5389 0
-4429 5069 0
-4429 5709 0
4429 -5069 -5709 0
-161 189 -4749 0
161 4749 0
-189 4749 0
-481 509 -5069 0
481 5069 0
-509 5069 0
161 -189 -5389 0
-161 5389 0
189 5389 0
481 -509 -5709 0
-481 5709 0
509 5709 0
4189 -3869 0
4509 -3869 0
-4189 -4509 3869 0
-4189 4829 0
-4189 5469 0
4189 -4829 -5469 0
-4509 5149 0
-4509 5789 0
4509 -5149 -5789 0
-241 269 -4829 0
241 4829 0
-269 4829 0
-561 589 -5149 0
561 5149 0
-589 5149 0
241 -269 -5469 0
-241 5469 0
269 5469 0
561 -589 -5789 0
-561 5789 0
589 5789 0
3950 -3870 0
4270 -3870 0
-3950 -4270 3870 0
-3950 4590 0
-3950 5230 0
3950 -4590 -5230 0
-4270 4910 0
-4270 5550 0
4270 -4910 -5550 0
-1 30 -4590 0
1 4590 0
-30 4590 0
-321 350 -4910 0
321 4910 0
-350 4910 0
1 -30 -5230 0
-1 5230 0
30 5230 0
321 -350 -5550 0
-321 5550 0
350 5550 0
4030 -3870 0
4350 -3870 0
-4030 -4350 3870 0
-4030 4670 0
-4030 5310 0
4030 -4670 -5310 0
-4350 4990 0
-4350 5630 0
4350 -4990 -5630 0
-81 110 -4670 0
81 4670 0
-110 4670 0
-401 430 -4990 0
401 4990 0
-430 4990 0
81 -110 -5310 0
-81 5310 0
110 5310 0
401 -430 -5630 0
-401 5630 0
430 5630 0
4110 -3870 0
4430 -3870 0
-4110 -4430 3870 0
-4110 4750 0
-4110 5390 0
4110 -4750 -5390 0
-4430 5070 0
-4430 5710 0
4430 -5070 -5710 0
-161 190 -4750 0
161 4750 0
-190 4750 0
-481 510 -5070 0
481 5070 0
-510 5070 0
161 -190 -5390 0
-161 5390 0
190 5390 0
481 -510 -5710 0
-481 5710 0
510 5710 0
4190 -3870 0
4510 -3870 0
-4190 -4510 3870 0
-4190 4830 0
-4190 5470 0
4190 -4830 -5470 0
-4510 5150 0
-4510 5790 0
4510 -5150 -5790 0
-241 270 -4830 0
241 4830 0
-270 4830 0
-561 590 -5150 0
561 5150 0
-590 5150 0
241 -270 -5470 0
-241 5470 0
270 5470 0
561 -590 -5790 0
-561 5790 0
590 5790 0
3951 -3871 0
4271 -3871 0
-3951 -4271 3871 0
-3951 4591 0
-3951 5231 0
3951 -4591 -5231 0
-4271 4911 0
-4271 5551 0
4271 -4911 -5551 0
-1 31 -4591 0
1 4591 0
-31 4591 0
-321 351 -4911 0
321 4911 0
-351 4911 0
1 -31 -5231 0
-1 5231 0
31 5231 0
321 -351 -5551 0
-321 5551 0
351 5551 0
4031 -3871 0
4351 -3871 0
-4031 -4351 3871 0
-4031 4671 0
-4031 5311 0
4031 -4671 -5311 0
-4351 4991 0
-4351 5631 0
4351 -4991 -5631 0
-81 111 -4671 0
81 4671 0
-111 4671 0
-401 431 -4991 0
401 4991 0
-431 4991 0
81 -111 -5311 0
-81 5311 0
111 5311 0
401 -431 -5631 0
-401 5631 0
431 5631 0
4111 -3871 0
4431 -3871 0
-4111 -4431 3871 0
-4111 4751 0
-4111 5391 0
4111 -4751 -5391 0
-4431 5071 0
-4431 5711 0
4431 -5071 -5711 0
-161 191 -4751 0
161 4751 0
-191 4751 0
-481 511 -5071 0
481 5071 0
-511 5071 0
161 -191 -5391 0
-161 5391 0
191 5391 0
481 -511 -5711 0
-481 5711 0
511 5711 0
4191 -3871 0
4511 -3871 0
-4191 -4511 3871 0
-4191 4831 0
-4191 5471 0
4191 -4831 -5471 0
-4511 5151 0
-4511 5791 0
4511 -5151 -5791 0
-241 271 -4831 0
241 4831 0
-271 4831 0
-561 591 -5151 0
561 5151 0
-591 5151 0
241 -271 -5471 0
-241 5471 0
271 5471 0
561 -591 -5791 0
-561 5791 0
591 5791 0
3952 -3872 0
4272 -3872 0
-3952 -4272 3872 0
-3952 4592 0
-3952 5232 0
3952 -4592 -5232 0
-4272 4912 0
-4272 5552 0
4272 -4912 -5552 0
-1 32 -4592 0
1 4592 0
-32 4592 0
-321 352 -4912 0
321 4912 0
-352 4912 0
1 -32 -5232 0
-1 5232 0
32 5232 0
321 -352 -5552 0
-321 5552 0
352 5552 0
4032 -3872 0
4352 -3872 0
-4032 -4352 3872 0
-4032 4672 0
-4032 5312 0
4032 -4672 -5312 0
-4352 4992 0
-4352 5632 0
4352 -4992 -5632 0
-81 112 -4672 0
81 4672 0
-112 4672 0
-401 432 -4992 0
401 4992 0
-432 4992 0
81 -112 -5312 0
-81 5312 0
112 5312 0
401 -432 -5632 0
-401 5632 0
432 5632 0
4112 -3872 0
4432 -3872 0
-4112 -4432 3872 0
-4112 4752 0
-4112 5392 0
4112 -4752 -5392 0
-4432 5072 0
-4432 5712 0
4432 -5072 -5712 0
-161 192 -4752 0
161 4752 0
-192 4752 0
-481 512 -5072 0
481 5072 0
-512 5072 0
161 -192 -5392 0
-161 5392 0
192 5392 0
481 -512 -5712 0
-481 5712 0
512 5712 0
4192 -3872 0
4512 -3872 0
-4192 -4512 3872 0
-4192 4832 0
-4192 5472 0
4192 -4832 -5472 0
-4512 5152 0
-4512 5792 0
4512 -5152 -5792 0
-241 272 -4832 0
241 4832 0
-272 4832 0
-561 592 -5152 0
561 5152 0
-592 5152 0
241 -272 -5472 0
-241 5472 0
272 5472 0
561 -592 -5792 0
-561 5792 0
592 5792 0
3953 -3873 0
4273 -3873 0
-3953 -4273 3873 0
-3953 4593 0
-3953 5233 0
3953 -4593 -5233 0
-4273 4913 0
-4273 5553 0
4273 -4913 -5553 0
-1 33 -4593 0
1 4593 0
-33 4593 0
-321 353 -4913 0
321 4913 0
-353 4913 0
1 -33 -5233 0
-1 5233 0
33 5233 0
321 -353 -5553 0
-321 5553 0
353 5553 0
4033 -3873 0
4353 -3873 0
-4033 -4353 3873 0
-4033 4673 0
-4033 5313 0
4033 -4673 -5313 0
-4353 4993 0
-4353 5633 0
4353 -4993 -5633 0
-81 113 -4673 0
81 4673 0
-113 4673 0
-401 433 -4993 0
401 4993 0
-433 4993 0
81 -113 -5313 0
-81 5313 0
113 5313 0
401 -433 -5633 0
-401 5633 0
433 5633 0
4113 -3873 0
4433 -3873 0
-4113 -4433 3873 0
-4113 4753 0
-4113 5393 0
4113 -4753 -5393 0
-4433 5073 0
-4433 5713 0
4433 -5073 -5713 0
-161 193 -4753 0
161 4753 0
-193 4753 0
-481 513 -5073 0
481 5073 0
-513 5073 0
161 -193 -5393 0
-161 5393 0
193 5393 0
481 -513 -5713 0
-481 5713 0
513 5713 0
4193 -3873 0
4513 -3873 0
-4193 -4513 3873 0
-4193 4833 0
-4193 5473 0
4193 -4833 -5473 0
-4513 5153 0
-4513 5793 0
4513 -5153 -5793 0
-241 273 -4833 0
241 4833 0
-273 4833 0
-561 593 -5153 0
561 5153 0
-593 5153 0
241 -273 -5473 0
-241 5473 0
273 5473 0
561 -593 -5793 0
-561 5793 0
593 5793 0
3954 -3874 0
4274 -3874 0
-3954 -4274 3874 0
-3954 4594 0
-3954 5234 0
3954 -4594 -5234 0
-4274 4914 0
-4274 5554 0
4274 -4914 -5554 0
-1 34 -4594 0
1 4594 0
-34 4594 0
-321 354 -4914 0
321 4914 0
-354 4914 0
1 -34 -5234 0
-1 5234 0
34 5234 0
321 -354 -5554 0
-321 5554 0
354 5554 0
4034 -3874 0
4354 -3874 0
-4034 -4354 3874 0
-4034 4674 0
-4034 5314 0
4034 -4674 -5314 0
-4354 4994 0
-4354 5634 0
4354 -4994 -5634 0
-81 114 -4674 0
81 4674 0
-114 4674 0
-401 434 -4994 0
401 4994 0
-434 4994 0
81 -114 -5314 0
-81 5314 0
114 5314 0
401 -434 -5634 0
-401 5634 0
434 5634 0
4114 -3874 0
4434 -3874 0
-4114 -4434 3874 0
-4114 4754 0
-4114 5394 0
4114 -4754 -5394 0
-4434 5074 0
-4434 5714 0
4434 -5074 -5714 0
-161 194 -4754 0
161 4754 0
-194 4754 0
-481 514 -5074 0
481 5074 0
-514 5074 0
161 -194 -5394 0
-161 5394 0
194 5394 0
481 -514 -5714 0
-481 5714 0
514 5714 0
4194 -3874 0
4514 -3874 0
-4194 -4514 3874 0
-4194 4834 0
-4194 5474 0
4194 -4834 -5474 0
-4514 5154 0
-4514 5794 0
4514 -5154 -5794 0
-241 274 -4834 0
241 4834 0
-274 4834 0
-561 594 -5154 0
561 5154 0
-594 5154 0
241 -274 -5474 0
-241 5474 0
274 5474 0
561 -594 -5794 0
-561 5794 0
594 5794 0
3955 -3875 0
4275 -3875 0
-3955 -4275 3875 0
-3955 4595 0
-3955 5235 0
3955 -4595 -5235 0
-4275 4915 0
-4275 5555 0
4275 -4915 -5555 0
-1 35 -4595 0
1 4595 0
-35 4595 0
-321 355 -4915 0
321 4915 0
-355 4915 0
1 -35 -5235 0
-1 5235 0
35 5235 0
321 -355 -5555 0
-321 5555 0
355 5555 0
4035 -3875 0
4355 -3875 0
-4035 -4355 3875 0
-4035 4675 0
-4035 5315 0
4035 -4675 -5315 0
-4355 4995 0
-4355 5635 0
4355 -4995 -5635 0
-81 115 -4675 0
81 4675 0
-115 4675 0
-401 435 -4995 0
401 4995 0
-435 4995 0
81 -115 -5315 0
-81 5315 0
115 5315 0
401 -435 -5635 0
-401 5635 0
435 5635 0
4115 -3875 0
4435 -3875 0
-4115 -4435 3875 0
-4115 4755 0
-4115 5395 0
4115 -4755 -5395 0
-4435 5075 0
-4435 5715 0
4435 -5075 -5715 0
-161 195 -4755 0
161 4755 0
-195 4755 0
-481 515 -5075 0
481 5075 0
-515 5075 0
161 -195 -5395 0
-161 5395 0
195 5395 0
481 -515 -5715 0
-481 5715 0
515 5715 0
4195 -3875 0
4515 -3875 0
-4195 -4515 3875 0
-4195 4835 0
-4195 5475 0
4195 -4835 -5475 0
-4515 5155 0
-4515 5795 0
4515 -5155 -5795 0
-241 275 -4835 0
241 4835 0
-275 4835 0
-561 595 -5155 0
561 5155 0
-595 5155 0
241 -275 -5475 0
-241 5475 0
275 5475 0
561 -595 -5795 0
-561 5795 0
595 5795 0
3956 -3876 0
4276 -3876 0
-3956 -4276 3876 0
-3956 4596 0
-3956 5236 0
3956 -4596 -5236 0
-4276 4916 0
-4276 5556 0
4276 -4916 -5556 0
-1 36 -4596 0
1 4596 0
-36 4596 0
-321 356 -4916 0
321 4916 0
-356 4916 0
1 -36 -5236 0
-1 5236 0
36 5236 0
321 -356 -5556 0
-321 5556 0
356 5556 0
4036 -3876 0
4356 -3876 0
-4036 -4356 3876 0
-4036 4676 0
-4036 5316 0
4036 -4676 -5316 0
-4356 4996 0
-4356 5636 0
4356 -4996 -5636 0
-81 116 -4676 0
81 4676 0
-116 4676 0
-401 436 -4996 0
401 4996 0
-436 4996 0
81 -116 -5316 0
-81 5316 0
116 5316 0
401 -436 -5636 0
-401 5636 0
436 5636 0
4116 -3876 0
4436 -3876 0
-4116 -4436 3876 0
-4116 4756 0
-4116 5396 0
4116 -4756 -5396 0
-4436 5076 0
-4436 5716 0
4436 -5076 -5716 0
-161 196 -4756 0
161 4756 0
-196 4756 0
-481 516 -5076 0
481 5076 0
-516 5076 0
161 -196 -5396 0
-161 5396 0
196 5396 0
481 -516 -5716 0
-481 5716 0
516 5716 0
4196 -3876 0
4516 -3876 0
-4196 -4516 3876 0
-4196 4836 0
-4196 5476 0
4196 -4836 -5476 0
-4516 5156 0
-4516 5796 0
4516 -5156 -5796 0
-241 276 -4836 0
241 4836 0
-276 4836 0
-561 596 -5156 0
561 5156 0
-596 5156 0
241 -276 -5476 0
-241 5476 0
276 5476 0
561 -596 -5796 0
-561 5796 0
596 5796 0
3957 -3877 0
4277 -3877 0
-3957 -4277 3877 0
-3957 4597 0
-3957 5237 0
3957 -4597 -5237 0
-4277 4917 0
-4277 5557 0
4277 -4917 -5557 0
-1 37 -4597 0
1 4597 0
-37 4597 0
-321 357 -4917 0
321 4917 0
-357 4917 0
1 -37 -5237 0
-1 5237 0
37 5237 0
321 -357 -5557 0
-321 5557 0
357 5557 0
4037 -3877 0
4357 -3877 0
-4037 -4357 3877 0
-4037 4677 0
-4037 5317 0
4037 -4677 -5317 0
-4357 4997 0
-4357 5637 0
4357 -4997 -5637 0
-81 117 -4677 0
81 4677 0
-117 4677 0
-401 437 -4997 0
401 4997 0
-437 4997 0
81 -117 -5317 0
-81 5317 0
117 5317 0
401 -437 -5637 0
-401 5637 0
437 5637 0
4117 -3877 0
4437 -3877 0
-4117 -4437 3877 0
-4117 4757 0
-4117 5397 0
4117 -4757 -5397 0
-4437 5077 0
-4437 5717 0
4437 -5077 -5717 0
-161 197 -4757 0
161 4757 0
-197 4757 0
-481 517 -5077 0
481 5077 0
-517 5077 0
161 -197 -5397 0
-161 5397 0
197 5397 0
481 -517 -5717 0
-481 5717 0
517 5717 0
4197 -3877 0
4517 -3877 0
-4197 -4517 3877 0
-4197 4837 0
-4197 5477 0
4197 -4837 -5477 0
-4517 5157 0
-4517 5797 0
4517 -5157 -5797 0
-241 277 -4837 0
241 4837 0
-277 4837 0
-561 597 -5157 0
561 5157 0
-597 5157 0
241 -277 -5477 0
-241 5477 0
277 5477 0
561 -597 -5797 0
-561 5797 0
597 5797 0
3958 -3878 0
4278 -3878 0
-3958 -4278 3878 0
-3958 4598 0
-3958 5238 0
3958 -4598 -5238 0
-4278 4918 0
-4278 5558 0
4278 -4918 -5558 0
-1 38 -4598 0
1 4598 0
-38 4598 0
-321 358 -4918 0
321 4918 0
-358 4918 0
1 -38 -5238 0
-1 5238 0
38 5238 0
321 -358 -5558 0
-321 5558 0
358 5558 0
4038 -3878 0
4358 -3878 0
-4038 -4358 3878 0
-4038 4678 0
-4038 5318 0
4038 -4678 -5318 0
-4358 4998 0
-4358 5638 0
4358 -4998 -5638 0
-81 118 -4678 0
81 4678 0
-118 4678 0
-401 438 -4998 0
401 4998 0
-438 4998 0
81 -118 -5318 0
-81 5318 0
118 5318 0
401 -438 -5638 0
-401 5638 0
438 5638 0
4118 -3878 0
4438 -3878 0
-4118 -4438 3878 0
-4118 4758 0
-4118 5398 0
4118 -4758 -5398 0
-4438 5078 0
-4438 5718 0
4438 -5078 -5718 0
-161 198 -4758 0
161 4758 0
-198 4758 0
-481 518 -5078 0
481 5078 0
-518 5078 0
161 -198 -5398 0
-161 5398 0
198 5398 0
481 -518 -5718 0
-481 5718 0
518 5718 0
4198 -3878 0
4518 -3878 0
-4198 -4518 3878 0
-4198 4838 0
-4198 5478 0
4198 -4838 -5478 0
-4518 5158 0
-4518 5798 0
4518 -5158 -5798 0
-241 278 -4838 0
241 4838 0
-278 4838 0
-561 598 -5158 0
561 5158 0
-598 5158 0
241 -278 -5478 0
-241 5478 0
278 5478 0
561 -598 -5798 0
-561 5798 0
598 5798 0
3959 -3879 0
4279 -3879 0
-3959 -4279 3879 0
-3959 4599 0
-3959 5239 0
3959 -4599 -5239 0
-4279 4919 0
-4279 5559 0
4279 -4919 -5559 0
-1 39 -4599 0
1 4599 0
-39 4599 0
-321 359 -4919 0
321 4919 0
-359 4919 0
1 -39 -5239 0
-1 5239 0
39 5239 0
321 -359 -5559 0
-321 5559 0
359 5559 0
4039 -3879 0
4359 -3879 0
-4039 -4359 3879 0
-4039 4679 0
-4039 5319 0
4039 -4679 -5319 0
-4359 4999 0
-4359 5639 0
4359 -4999 -5639 0
-81 119 -4679 0
81 4679 0
-119 4679 0
-401 439 -4999 0
401 4999 0
-439 4999 0
81 -119 -5319 0
-81 5319 0
119 5319 0
401 -439 -5639 0
-401 5639 0
439 5639 0
4119 -3879 0
4439 -3879 0
-4119 -4439 3879 0
-4119 4759 0
-4119 5399 0
4119 -4759 -5399 0
-4439 5079 0
-4439 5719 0
4439 -5079 -5719 0
-161 199 -4759 0
161 4759 0
-199 4759 0
-481 519 -5079 0
481 5079 0
-519 5079 0
161 -199 -5399 0
-161 5399 0
199 5399 0
481 -519 -5719 0
-481 5719 0
519 5719 0
4199 -3879 0
4519 -3879 0
-4199 -4519 3879 0
-4199 4839 0
-4199 5479 0
4199 -4839 -5479 0
-4519 5159 0
-4519 5799 0
4519 -5159 -5799 0
-241 279 -4839 0
241 4839 0
-279 4839 0
-561 599 -5159 0
561 5159 0
-599 5159 0
241 -279 -5479 0
-241 5479 0
279 5479 0
561 -599 -5799 0
-561 5799 0
599 5799 0
3960 -3880 0
4280 -3880 0
-3960 -4280 3880 0
-3960 4600 0
-3960 5240 0
3960 -4600 -5240 0
-4280 4920 0
-4280 5560 0
4280 -4920 -5560 0
-1 40 -4600 0
1 4600 0
-40 4600 0
-321 360 -4920 0
321 4920 0
-360 4920 0
1 -40 -5240 0
-1 5240 0
40 5240 0
321 -360 -5560 0
-321 5560 0
360 5560 0
4040 -3880 0
4360 -3880 0
-4040 -4360 3880 0
-4040 4680 0
-4040 5320 0
4040 -4680 -5320 0
-4360 5000 0
-4360 5640 0
4360 -5000 -5640 0
-81 120 -4680 0
81 4680 0
-120 4680 0
-401 440 -5000 0
401 5000 0
-440 5000 0
81 -120 -5320 0
-81 5320 0
120 5320 0
401 -440 -5640 0
-401 5640 0
440 5640 0
4120 -3880 0
4440 -3880 0
-4120 -4440 3880 0
-4120 4760 0
-4120 5400 0
4120 -4760 -5400 0
-4440 5080 0
-4440 5720 0
4440 -5080 -5720 0
-161 200 -4760 0
161 4760 0
-200 4760 0
-481 520 -5080 0
481 5080 0
-520 5080 0
161 -200 -5400 0
-161 5400 0
200 5400 0
481 -520 -5720 0
-481 5720 0
520 5720 0
4200 -3880 0
4520 -3880 0
-4200 -4520 3880 0
-4200 4840 0
-4200 5480 0
4200 -4840 -5480 0
-4520 5160 0
-4520 5800 0
4520 -5160 -5800 0
-241 280 -4840 0
241 4840 0
-280 4840 0
-561 600 -5160 0
561 5160 0
-600 5160 0
241 -280 -5480 0
-241 5480 0
280 5480 0
561 -600 -5800 0
-561 5800 0
600 5800 0
3961 -3881 0
4281 -3881 0
-3961 -4281 3881 0
-3961 4601 0
-3961 5241 0
3961 -4601 -5241 0
-4281 4921 0
-4281 5561 0
4281 -4921 -5561 0
-1 41 -4601 0
1 4601 0
-41 4601 0
-321 361 -4921 0
321 4921 0
-361 4921 0
1 -41 -5241 0
-1 5241 0
41 5241 0
321 -361 -5561 0
-321 5561 0
361 5561 0
4041 -3881 0
4361 -3881 0
-4041 -4361 3881 0
-4041 4681 0
-4041 5321 0
4041 -4681 -5321 0
-4361 5001 0
-4361 5641 0
4361 -5001 -5641 0
-81 121 -4681 0
81 4681 0
-121 4681 0
-401 441 -5001 0
401 5001 0
-441 5001 0
81 -121 -5321 0
-81 5321 0
121 5321 0
401 -441 -5641 0
-401 5641 0
441 5641 0
4121 -3881 0
4441 -3881 0
-4121 -4441 3881 0
-4121 4761 0
-4121 5401 0
4121 -4761 -5401 0
-4441 5081 0
-4441 5721 0
4441 -5081 -5721 0
-161 201 -4761 0
161 4761 0
-201 4761 0
-481 521 -5081 0
481 5081 0
-521 5081 0
161 -201 -5401 0
-161 5401 0
201 5401 0
481 -521 -5721 0
-481 5721 0
521 5721 0
4201 -3881 0
4521 -3881 0
-4201 -4521 3881 0
-4201 4841 0
-4201 5481 0
4201 -4841 -5481 0
-4521 5161 0
-4521 5801 0
4521 -5161 -5801 0
-241 281 -4841 0
241 4841 0
-281 4841 0
-561 601 -5161 0
561 5161 0
-601 5161 0
241 -281 -5481 0
-241 5481 0
281 5481 0
561 -601 -5801 0
-561 5801 0
601 5801 0
3962 -3882 0
4282 -3882 0
-3962 -4282 3882 0
-3962 4602 0
-3962 5242 0
3962 -4602 -5242 0
-4282 4922 0
-4282 5562 0
4282 -4922 -5562 0
-1 42 -4602 0
1 4602 0
-42 4602 0
-321 362 -4922 0
321 4922 0
-362 4922 0
1 -42 -5242 0
-1 5242 0
42 5242 0
321 -362 -5562 0
-321 5562 0
362 5562 0
4042 -3882 0
4362 -3882 0
-4042 -4362 3882 0
-4042 4682 0
-4042 5322 0
4042 -4682 -5322 0
-4362 5002 0
-4362 5642 0
4362 -5002 -5642 0
-81 122 -4682 0
81 4682 0
-122 4682 0
-401 442 -5002 0
401 5002 0
-442 5002 0
81 -122 -5322 0
-81 5322 0
122 5322 0
401 -442 -5642 0
-401 5642 0
442 5642 0
4122 -3882 0
4442 -3882 0
-4122 -4442 3882 0
-4122 4762 0
-4122 5402 0
4122 -4762 -5402 0
-4442 5082 0
-4442 5722 0
4442 -5082 -5722 0
-161 202 -4762 0
161 4762 0
-202 4762 0
-481 522 -5082 0
481 5082 0
-522 5082 0
161 -202 -5402 0
-161 5402 0
202 5402 0
481 -522 -5722 0
-481 5722 0
522 5722 0
4202 -3882 0
4522 -3882 0
-4202 -4522 3882 0
-4202 4842 0
-4202 5482 0
4202 -4842 -5482 0
-4522 5162 0
-4522 5802 0
4522 -5162 -5802 0
-241 282 -4842 0
241 4842 0
-282 4842 0
-561 602 -5162 0
561 5162 0
-602 5162 0
241 -282 -5482 0
-241 5482 0
282 5482 0
561 -602 -5802 0
-561 5802 0
602 5802 0
3963 -3883 0
4283 -3883 0
-3963 -4283 3883 0
-3963 4603 0
-3963 5243 0
3963 -4603 -5243 0
-4283 4923 0
-4283 5563 0
4283 -4923 -5563 0
-1 43 -4603 0
1 4603 0
-43 4603 0
-321 363 -4923 0
321 4923 0
-363 4923 0
1 -43 -5243 0
-1 5243 0
43 5243 0
321 -363 -5563 0
-321 5563 0
363 5563 0
4043 -3883 0
4363 -3883 0
-4043 -4363 3883 0
-4043 4683 0
-4043 5323 0
4043 -4683 -5323 0
-4363 5003 0
-4363 5643 0
4363 -5003 -5643 0
-81 123 -4683 0
81 4683 0
-123 4683 0
-401 443 -5003 0
401 5003 0
-443 5003 0
81 -123 -5323 0
-81 5323 0
123 5323 0
401 -443 -5643 0
-401 5643 0
443 5643 0
4123 -3883 0
4443 -3883 0
-4123 -4443 3883 0
-4123 4763 0
-4123 5403 0
4123 -4763 -5403 0
-4443 5083 0
-4443 5723 0
4443 -5083 -5723 0
-161 203 -4763 0
161 4763 0
-203 4763 0
-481 523 -5083 0
481 5083 0
-523 5083 0
161 -203 -5403 0
-161 5403 0
203 5403 0
481 -523 -5723 0
-481 5723 0
523 5723 0
4203 -3883 0
4523 -3883 0
-4203 -4523 3883 0
-4203 4843 0
-4203 5483 0
4203 -4843 -5483 0
-4523 5163 0
-4523 5803 0
4523 -5163 -5803 0
-241 283 -4843 0
241 4843 0
-283 4843 0
-561 603 -5163 0
561 5163 0
-603 5163 0
241 -283 -5483 0
-241 5483 0
283 5483 0
561 -603 -5803 0
-561 5803 0
603 5803 0
3964 -3884 0
4284 -3884 0
-3964 -4284 3884 0
-3964 4604 0
-3964 5244 0
3964 -4604 -5244 0
-4284 4924 0
-4284 5564 0
4284 -4924 -5564 0
-1 44 -4604 0
1 4604 0
-44 4604 0
-321 364 -4924 0
321 4924 0
-364 4924 0
1 -44 -5244 0
-1 5244 0
44 5244 0
321 -364 -5564 0
-321 5564 0
364 5564 0
4044 -3884 0
4364 -3884 0
-4044 -4364 3884 0
-4044 4684 0
-4044 5324 0
4044 -4684 -5324 0
-4364 5004 0
-4364 5644 0
4364 -5004 -5644 0
-81 124 -4684 0
81 4684 0
-124 4684 0
-401 444 -5004 0
401 5004 0
-444 5004 0
81 -124 -5324 0
-81 5324 0
124 5324 0
401 -444 -5644 0
-401 5644 0
444 5644 0
4124 -3884 0
4444 -3884 0
-4124 -4444 3884 0
-4124 4764 0
-4124 5404 0
4124 -4764 -5404 0
-4444 5084 0
-4444 5724 0
4444 -5084 -5724 0
-161 204 -4764 0
161 4764 0
-204 4764 0
-481 524 -5084 0
481 5084 0
-524 5084 0
161 -204 -5404 0
-161 5404 0
204 5404 0
481 -524 -5724 0
-481 5724 0
524 5724 0
4204 -3884 0
4524 -3884 0
-4204 -4524 3884 0
-4204 4844 0
-4204 5484 0
4204 -4844 -5484 0
-4524 5164 0
-4524 5804 0
4524 -5164 -5804 0
-241 284 -4844 0
241 4844 0
-284 4844 0
-561 604 -5164 0
561 5164 0
-604 5164 0
241 -284 -5484 0
-241 5484 0
284 5484 0
561 -604 -5804 0
-561 5804 0
604 5804 0
3965 -3885 0
4285 -3885 0
-3965 -4285 3885 0
-3965 4605 0
-3965 5245 0
3965 -4605 -5245 0
-4285 4925 0
-4285 5565 0
4285 -4925 -5565 0
-1 45 -4605 0
1 4605 0
-45 4605 0
-321 365 -4925 0
321 4925 0
-365 4925 0
1 -45 -5245 0
-1 5245 0
45 5245 0
321 -365 -5565 0
-321 5565 0
365 5565 0
4045 -3885 0
4365 -3885 0
-4045 -4365 3885 0
-4045 4685 0
-4045 5325 0
4045 -4685 -5325 0
-4365 5005 0
-4365 5645 0
4365 -5005 -5645 0
-81 125 -4685 0
81 4685 0
-125 4685 0
-401 445 -5005 0
401 5005 0
-445 5005 0
81 -125 -5325 0
-81 5325 0
125 5325 0
401 -445 -5645 0
-401 5645 0
445 5645 0
4125 -3885 0
4445 -3885 0
-4125 -4445 3885 0
-4125 4765 0
-4125 5405 0
4125 -4765 -5405 0
-4445 5085 0
-4445 5725 0
4445 -5085 -5725 0
-161 205 -4765 0
161 4765 0
-205 4765 0
-481 525 -5085 0
481 5085 0
-525 5085 0
161 -205 -5405 0
-161 5405 0
205 5405 0
481 -525 -5725 0
-481 5725 0
525 5725 0
4205 -3885 0
4525 -3885 0
-4205 -4525 3885 0
-4205 4845 0
-4205 5485 0
4205 -4845 -5485 0
-4525 5165 0
-4525 5805 0
4525 -5165 -5805 0
-241 285 -4845 0
241 4845 0
-285 4845 0
-561 605 -5165 0
561 5165 0
-605 5165 0
241 -285 -5485 0
-241 5485 0
285 5485 0
561 -605 -5805 0
-561 5805 0
605 5805 0
3966 -3886 0
4286 -3886 0
-3966 -4286 3886 0
-3966 4606 0
-3966 5246 0
3966 -4606 -5246 0
-4286 4926 0
-4286 5566 0
4286 -4926 -5566 0
-1 46 -4606 0
1 4606 0
-46 4606 0
-321 366 -4926 0
321 4926 0
-366 4926 0
1 -46 -5246 0
-1 5246 0
46 5246 0
321 -366 -5566 0
-321 5566 0
366 5566 0
4046 -3886 0
4366 -3886 0
-4046 -4366 3886 0
-4046 4686 0
-4046 5326 0
4046 -4686 -5326 0
-4366 5006 0
-4366 5646 0
4366 -5006 -5646 0
-81 126 -4686 0
81 4686 0
-126 4686 0
-401 446 -5006 0
401 5006 0
-446 5006 0
81 -126 -5326 0
-81 5326 0
126 5326 0
401 -446 -5646 0
-401 5646 0
446 5646 0
4126 -3886 0
4446 -3886 0
-4126 -4446 3886 0
-4126 4766 0
-4126 5406 0
4126 -4766 -5406 0
-4446 5086 0
-4446 5726 0
4446 -5086 -5726 0
-161 206 -4766 0
161 4766 0
-206 4766 0
-481 526 -5086 0
481 5086 0
-526 5086 0
161 -206 -5406 0
-161 5406 0
206 5406 0
481 -526 -5726 0
-481 5726 0
526 5726 0
4206 -3886 0
4526 -3886 0
-4206 -4526 3886 0
-4206 4846 0
-4206 5486 0
4206 -4846 -5486 0
-4526 5166 0
-4526 5806 0
4526 -5166 -5806 0
-241 286 -4846 0
241 4846 0
-286 4846 0
-561 606 -5166 0
561 5166 0
-606 5166 0
241 -286 -5486 0
-241 5486 0
286 5486 0
561 -606 -5806 0
-561 5806 0
606 5806 0
3967 -3887 0
4287 -3887 0
-3967 -4287 3887 0
-3967 4607 0
-3967 5247 0
3967 -4607 -5247 0
-4287 4927 0
-4287 5567 0
4287 -4927 -5567 0
-1 47 -4607 0
1 4607 0
-47 4607 0
-321 367 -4927 0
321 4927 0
-367 4927 0
1 -47 -5247 0
-1 5247 0
47 5247 0
321 -367 -5567 0
-321 5567 0
367 5567 0
4047 -3887 0
4367 -3887 0
-4047 -4367 3887 0
-4047 4687 0
-4047 5327 0
4047 -4687 -5327 0
-4367 5007 0
-4367 5647 0
4367 -5007 -5647 0
-81 127 -4687 0
81 4687 0
-127 4687 0
-401 447 -5007 0
401 5007 0
-447 5007 0
81 -127 -5327 0
-81 5327 0
127 5327 0
401 -447 -5647 0
-401 5647 0
447 5647 0
4127 -3887 0
4447 -3887 0
-4127 -4447 3887 0
-4127 4767 0
-4127 5407 0
4127 -4767 -5407 0
-4447 5087 0
-4447 5727 0
4447 -5087 -5727 0
-161 207 -4767 0
161 4767 0
-207 4767 0
-481 527 -5087 0
481 5087 0
-527 5087 0
161 -207 -5407 0
-161 5407 0
207 5407 0
481 -527 -5727 0
-481 5727 0
527 5727 0
4207 -3887 0
4527 -3887 0
-4207 -4527 3887 0
-4207 4847 0
-4207 5487 0
4207 -4847 -5487 0
-4527 5167 0
-4527 5807 0
4527 -5167 -5807 0
-241 287 -4847 0
241 4847 0
-287 4847 0
-561 607 -5167 0
561 5167 0
-607 5167 0
241 -287 -5487 0
-241 5487 0
287 5487 0
561 -607 -5807 0
-561 5807 0
607 5807 0
3968 -3888 0
4288 -3888 0
-3968 -4288 3888 0
-3968 4608 0
-3968 5248 0
3968 -4608 -5248 0
-4288 4928 0
-4288 5568 0
4288 -4928 -5568 0
-1 48 -4608 0
1 4608 0
-48 4608 0
-321 368 -4928 0
321 4928 0
-368 4928 0
1 -48 -5248 0
-1 5248 0
48 5248 0
321 -368 -5568 0
-321 5568 0
368 5568 0
4048 -3888 0
4368 -3888 0
-4048 -4368 3888 0
-4048 4688 0
-4048 5328 0
4048 -4688 -5328 0
-4368 5008 0
-4368 5648 0
4368 -5008 -5648 0
-81 128 -4688 0
81 4688 0
-128 4688 0
-401 448 -5008 0
401 5008 0
-448 5008 0
81 -128 -5328 0
-81 5328 0
128 5328 0
401 -448 -5648 0
-401 5648 0
448 5648 0
4128 -3888 0
4448 -3888 0
-4128 -4448 3888 0
-4128 4768 0
-4128 5408 0
4128 -4768 -5408 0
-4448 5088 0
-4448 5728 0
4448 -5088 -5728 0
-161 208 -4768 0
161 4768 0
-208 4768 0
-481 528 -5088 0
481 5088 0
-528 5088 0
161 -208 -5408 0
-161 5408 0
208 5408 0
481 -528 -5728 0
-481 5728 0
528 5728 0
4208 -3888 0
4528 -3888 0
-4208 -4528 3888 0
-4208 4848 0
-4208 5488 0
4208 -4848 -5488 0
-4528 5168 0
-4528 5808 0
4528 -5168 -5808 0
-241 288 -4848 0
241 4848 0
-288 4848 0
-561 608 -5168 0
561 5168 0
-608 5168 0
241 -288 -5488 0
-241 5488 0
288 5488 0
561 -608 -5808 0
-561 5808 0
608 5808 0
3969 -3889 0
4289 -3889 0
-3969 -4289 3889 0
-3969 4609 0
-3969 5249 0
3969 -4609 -5249 0
-4289 4929 0
-4289 5569 0
4289 -4929 -5569 0
-1 49 -4609 0
1 4609 0
-49 4609 0
-321 369 -4929 0
321 4929 0
-369 4929 0
1 -49 -5249 0
-1 5249 0
49 5249 0
321 -369 -5569 0
-321 5569 0
369 5569 0
4049 -3889 0
4369 -3889 0
-4049 -4369 3889 0
-4049 4689 0
-4049 5329 0
4049 -4689 -5329 0
-4369 5009 0
-4369 5649 0
4369 -5009 -5649 0
-81 129 -4689 0
81 4689 0
-129 4689 0
-401 449 -5009 0
401 5009 0
-449 5009 0
81 -129 -5329 0
-81 5329 0
129 5329 0
401 -449 -5649 0
-401 5649 0
449 5649 0
4129 -3889 0
4449 -3889 0
-4129 -4449 3889 0
-4129 4769 0
-4129 5409 0
4129 -4769 -5409 0
-4449 5089 0
-4449 5729 0
4449 -5089 -5729 0
-161 209 -4769 0
161 4769 0
-209 4769 0
-481 529 -5089 0
481 5089 0
-529 5089 0
161 -209 -5409 0
-161 5409 0
209 5409 0
481 -529 -5729 0
-481 5729 0
529 5729 0
4209 -3889 0
4529 -3889 0
-4209 -4529 3889 0
-4209 4849 0
-4209 5489 0
4209 -4849 -5489 0
-4529 5169 0
-4529 5809 0
4529 -5169 -5809 0
-241 289 -4849 0
241 4849 0
-289 4849 0
-561 609 -5169 0
561 5169 0
-609 5169 0
241 -289 -5489 0
-241 5489 0
289 5489 0
561 -609 -5809 0
-561 5809 0
609 5809 0
3970 -3890 0
4290 -3890 0
-3970 -4290 3890 0
-3970 4610 0
-3970 5250 0
3970 -4610 -5250 0
-4290 4930 0
-4290 5570 0
4290 -4930 -5570 0
-1 50 -4610 0
1 4610 0
-50 4610 0
-321 370 -4930 0
321 4930 0
-370 4930 0
1 -50 -5250 0
-1 5250 0
50 5250 0
321 -370 -5570 0
-321 5570 0
370 5570 0
4050 -3890 0
4370 -3890 0
-4050 -4370 3890 0
-4050 4690 0
-4050 5330 0
4050 -4690 -5330 0
-4370 5010 0
-4370 5650 0
4370 -5010 -5650 0
-81 130 -4690 0
81 4690 0
-130 4690 0
-401 450 -5010 0
401 5010 0
-450 5010 0
81 -130 -5330 0
-81 5330 0
130 5330 0
401 -450 -5650 0
-401 5650 0
450 5650 0
4130 -3890 0
4450 -3890 0
-4130 -4450 3890 0
-4130 4770 0
-4130 5410 0
4130 -4770 -5410 0
-4450 5090 0
-4450 5730 0
4450 -5090 -5730 0
-161 210 -4770 0
161 4770 0
-210 4770 0
-481 530 -5090 0
481 5090 0
-530 5090 0
161 -210 -5410 0
-161 5410 0
210 5410 0
481 -530 -5730 0
-481 5730 0
530 5730 0
4210 -3890 0
4530 -3890 0
-4210 -4530 3890 0
-4210 4850 0
-4210 5490 0
4210 -4850 -5490 0
-4530 5170 0
-4530 5810 0
4530 -5170 -5810 0
-241 290 -4850 0
241 4850 0
-290 4850 0
-561 610 -5170 0
561 5170 0
-610 5170 0
241 -290 -5490 0
-241 5490 0
290 5490 0
561 -610 -5810 0
-561 5810 0
610 5810 0
3971 -3891 0
4291 -3891 0
-3971 -4291 3891 0
-3971 4611 0
-3971 5251 0
3971 -4611 -5251 0
-4291 4931 0
-4291 5571 0
4291 -4931 -5571 0
-1 51 -4611 0
1 4611 0
-51 4611 0
-321 371 -4931 0
321 4931 0
-371 4931 0
1 -51 -5251 0
-1 5251 0
51 5251 0
321 -371 -5571 0
-321 5571 0
371 5571 0
4051 -3891 0
4371 -3891 0
-4051 -4371 3891 0
-4051 4691 0
-4051 5331 0
4051 -4691 -5331 0
-4371 5011 0
-4371 5651 0
4371 -5011 -5651 0
-81 131 -4691 0
81 4691 0
-131 4691 0
-401 451 -5011 0
401 5011 0
-451 5011 0
81 -131 -5331 0
-81 5331 0
131 5331 0
401 -451 -5651 0
-401 5651 0
451 5651 0
4131 -3891 0
4451 -3891 0
-4131 -4451 3891 0
-4131 4771 0
-4131 5411 0
4131 -4771 -5411 0
-4451 5091 0
-4451 5731 0
4451 -5091 -5731 0
-161 211 -4771 0
161 4771 0
-211 4771 0
-481 531 -5091 0
481 5091 0
-531 5091 0
161 -211 -5411 0
-161 5411 0
211 5411 0
481 -531 -5731 0
-481 5731 0
531 5731 0
4211 -3891 0
4531 -3891 0
-4211 -4531 3891 0
-4211 4851 0
-4211 5491 0
4211 -4851 -5491 0
-4531 5171 0
-4531 5811 0
4531 -5171 -5811 0
-241 291 -4851 0
241 4851 0
-291 4851 0
-561 611 -5171 0
561 5171 0
-611 5171 0
241 -291 -5491 0
-241 5491 0
291 5491 0
561 -611 -5811 0
-561 5811 0
611 5811 0
3972 -3892 0
4292 -3892 0
-3972 -4292 3892 0
-3972 4612 0
-3972 5252 0
3972 -4612 -5252 0
-4292 4932 0
-4292 5572 0
4292 -4932 -5572 0
-1 52 -4612 0
1 4612 0
-52 4612 0
-321 372 -4932 0
321 4932 0
-372 4932 0
1 -52 -5252 0
-1 5252 0
52 5252 0
321 -372 -5572 0
-321 5572 0
372 5572 0
4052 -3892 0
4372 -3892 0
-4052 -4372 3892 0
-4052 4692 0
-4052 5332 0
4052 -4692 -5332 0
-4372 5012 0
-4372 5652 0
4372 -5012 -5652 0
-81 132 -4692 0
81 4692 0
-132 4692 0
-401 452 -5012 0
401 5012 0
-452 5012 0
81 -132 -5332 0
-81 5332 0
132 5332 0
401 -452 -5652 0
-401 5652 0
452 5652 0
4132 -3892 0
4452 -3892 0
-4132 -4452 3892 0
-4132 4772 0
-4132 5412 0
4132 -4772 -5412 0
-4452 5092 0
-4452 5732 0
4452 -5092 -5732 0
-161 212 -4772 0
161 4772 0
-212 4772 0
-481 532 -5092 0
481 5092 0
-532 5092 0
161 -212 -5412 0
-161 5412 0
212 5412 0
481 -532 -5732 0
-481 5732 0
532 5732 0
4212 -3892 0
4532 -3892 0
-4212 -4532 3892 0
-4212 4852 0
-4212 5492 0
4212 -4852 -5492 0
-4532 5172 0
-4532 5812 0
4532 -5172 -5812 0
-241 292 -4852 0
241 4852 0
-292 4852 0
-561 612 -5172 0
561 5172 0
-612 5172 0
241 -292 -5492 0
-241 5492 0
292 5492 0
561 -612 -5812 0
-561 5812 0
612 5812 0
3973 -3893 0
4293 -3893 0
-3973 -4293 3893 0
-3973 4613 0
-3973 5253 0
3973 -4613 -5253 0
-4293 4933 0
-4293 5573 0
4293 -4933 -5573 0
-1 53 -4613 0
1 4613 0
-53 4613 0
-321 373 -4933 0
321 4933 0
-373 4933 0
1 -53 -5253 0
-1 5253 0
53 5253 0
321 -373 -5573 0
-321 5573 0
373 5573 0
4053 -3893 0
4373 -3893 0
-4053 -4373 3893 0
-4053 4693 0
-4053 5333 0
4053 -4693 -5333 0
-4373 5013 0
-4373 5653 0
4373 -5013 -5653 0
-81 133 -4693 0
81 4693 0
-133 4693 0
-401 453 -5013 0
401 5013 0
-453 5013 0
81 -133 -5333 0
-81 5333 0
133 5333 0
401 -453 -5653 0
-401 5653 0
453 5653 0
4133 -3893 0
4453 -3893 0
-4133 -4453 3893 0
-4133 4773 0
-4133 5413 0
4133 -4773 -5413 0
-4453 5093 0
-4453 5733 0
4453 -5093 -5733 0
-161 213 -4773 0
161 4773 0
-213 4773 0
-481 533 -5093 0
481 5093 0
-533 5093 0
161 -213 -5413 0
-161 5413 0
213 5413 0
481 -533 -5733 0
-481 5733 0
533 5733 0
4213 -3893 0
4533 -3893 0
-4213 -4533 3893 0
-4213 4853 0
-4213 5493 0
4213 -4853 -5493 0
-4533 5173 0
-4533 5813 0
4533 -5173 -5813 0
-241 293 -4853 0
241 4853 0
-293 4853 0
-561 613 -5173 0
561 5173 0
-613 5173 0
241 -293 -5493 0
-241 5493 0
293 5493 0
561 -613 -5813 0
-561 5813 0
613 5813 0
3974 -3894 0
4294 -3894 0
-3974 -4294 3894 0
-3974 4614 0
-3974 5254 0
3974 -4614 -5254 0
-4294 4934 0
-4294 5574 0
4294 -4934 -5574 0
-1 54 -4614 0
1 4614 0
-54 4614 0
-321 374 -4934 0
321 4934 0
-374 4934 0
1 -54 -5254 0
-1 5254 0
54 5254 0
321 -374 -5574 0
-321 5574 0
374 5574 0
4054 -3894 0
4374 -3894 0
-4054 -4374 3894 0
-4054 4694 0
-4054 5334 0
4054 -4694 -5334 0
-4374 5014 0
-4374 5654 0
4374 -5014 -5654 0
-81 134 -4694 0
81 4694 0
-134 4694 0
-401 454 -5014 0
401 5014 0
-454 5014 0
81 -134 -5334 0
-81 5334 0
134 5334 0
401 -454 -5654 0
-401 5654 0
454 5654 0
4134 -3894 0
4454 -3894 0
-4134 -4454 3894 0
-4134 4774 0
-4134 5414 0
4134 -4774 -5414 0
-4454 5094 0
-4454 5734 0
4454 -5094 -5734 0
-161 214 -4774 0
161 4774 0
-214 4774 0
-481 534 -5094 0
481 5094 0
-534 5094 0
161 -214 -5414 0
-161 5414 0
214 5414 0
481 -534 -5734 0
-481 5734 0
534 5734 0
4214 -3894 0
4534 -3894 0
-4214 -4534 3894 0
-4214 4854 0
-4214 5494 0
4214 -4854 -5494 0
-4534 5174 0
-4534 5814 0
4534 -5174 -5814 0
-241 294 -4854 0
241 4854 0
-294 4854 0
-561 614 -5174 0
561 5174 0
-614 5174 0
241 -294 -5494 0
-241 5494 0
294 5494 0
561 -614 -5814 0
-561 5814 0
614 5814 0
3975 -3895 0
4295 -3895 0
-3975 -4295 3895 0
-3975 4615 0
-3975 5255 0
3975 -4615 -5255 0
-4295 4935 0
-4295 5575 0
4295 -4935 -5575 0
-1 55 -4615 0
1 4615 0
-55 4615 0
-321 375 -4935 0
321 4935 0
-375 4935 0
1 -55 -5255 0
-1 5255 0
55 5255 0
321 -375 -5575 0
-321 5575 0
375 5575 0
4055 -3895 0
4375 -3895 0
-4055 -4375 3895 0
-4055 4695 0
-4055 5335 0
4055 -4695 -5335 0
-4375 5015 0
-4375 5655 0
4375 -5015 -5655 0
-81 135 -4695 0
81 4695 0
-135 4695 0
-401 455 -5015 0
401 5015 0
-455 5015 0
81 -135 -5335 0
-81 5335 0
135 5335 0
401 -455 -5655 0
-401 5655 0
455 5655 0
4135 -3895 0
4455 -3895 0
-4135 -4455 3895 0
-4135 4775 0
-4135 5415 0
4135 -4775 -5415 0
-4455 5095 0
-4455 5735 0
4455 -5095 -5735 0
-161 215 -4775 0
161 4775 0
-215 4775 0
-481 535 -5095 0
481 5095 0
-535 5095 0
161 -215 -5415 0
-161 5415 0
215 5415 0
481 -535 -5735 0
-481 5735 0
535 5735 0
4215 -3895 0
4535 -3895 0
-4215 -4535 3895 0
-4215 4855 0
-4215 5495 0
4215 -4855 -5495 0
-4535 5175 0
-4535 5815 0
4535 -5175 -5815 0
-241 295 -4855 0
241 4855 0
-295 4855 0
-561 615 -5175 0
561 5175 0
-615 5175 0
241 -295 -5495 0
-241 5495 0
295 5495 0
561 -615 -5815 0
-561 5815 0
615 5815 0
3976 -3896 0
4296 -3896 0
-3976 -4296 3896 0
-3976 4616 0
-3976 5256 0
3976 -4616 -5256 0
-4296 4936 0
-4296 5576 0
4296 -4936 -5576 0
-1 56 -4616 0
1 4616 0
-56 4616 0
-321 376 -4936 0
321 4936 0
-376 4936 0
1 -56 -5256 0
-1 5256 0
56 5256 0
321 -376 -5576 0
-321 5576 0
376 5576 0
4056 -3896 0
4376 -3896 0
-4056 -4376 3896 0
-4056 4696 0
-4056 5336 0
4056 -4696 -5336 0
-4376 5016 0
-4376 5656 0
4376 -5016 -5656 0
-81 136 -4696 0
81 4696 0
-136 4696 0
-401 456 -5016 0
401 5016 0
-456 5016 0
81 -136 -5336 0
-81 5336 0
136 5336 0
401 -456 -5656 0
-401 5656 0
456 5656 0
4136 -3896 0
4456 -3896 0
-4136 -4456 3896 0
-4136 4776 0
-4136 5416 0
4136 -4776 -5416 0
-4456 5096 0
-4456 5736 0
4456 -5096 -5736 0
-161 216 -4776 0
161 4776 0
-216 4776 0
-481 536 -5096 0
481 5096 0
-536 5096 0
161 -216 -5416 0
-161 5416 0
216 5416 0
481 -536 -5736 0
-481 5736 0
536 5736 0
4216 -3896 0
4536 -3896 0
-4216 -4536 3896 0
-4216 4856 0
-4216 5496 0
4216 -4856 -5496 0
-4536 5176 0
-4536 5816 0
4536 -5176 -5816 0
-241 296 -4856 0
241 4856 0
-296 4856 0
-561 616 -5176 0
561 5176 0
-616 5176 0
241 -296 -5496 0
-241 5496 0
296 5496 0
561 -616 -5816 0
-561 5816 0
616 5816 0
3977 -3897 0
4297 -3897 0
-3977 -4297 3897 0
-3977 4617 0
-3977 5257 0
3977 -4617 -5257 0
-4297 4937 0
-4297 5577 0
4297 -4937 -5577 0
-1 57 -4617 0
1 4617 0
-57 4617 0
-321 377 -4937 0
321 4937 0
-377 4937 0
1 -57 -5257 0
-1 5257 0
57 5257 0
321 -377 -5577 0
-321 5577 0
377 5577 0
4057 -3897 0
4377 -3897 0
-4057 -4377 3897 0
-4057 4697 0
-4057 5337 0
4057 -4697 -5337 0
-4377 5017 0
-4377 5657 0
4377 -5017 -5657 0
-81 137 -4697 0
81 4697 0
-137 4697 0
-401 457 -5017 0
401 5017 0
-457 5017 0
81 -137 -5337 0
-81 5337 0
137 5337 0
401 -457 -5657 0
-401 5657 0
457 5657 0
4137 -3897 0
4457 -3897 0
-4137 -4457 3897 0
-4137 4777 0
-4137 5417 0
4137 -4777 -5417 0
-4457 5097 0
-4457 5737 0
4457 -5097 -5737 0
-161 217 -4777 0
161 4777 0
-217 4777 0
-481 537 -5097 0
481 5097 0
-537 5097 0
161 -217 -5417 0
-161 5417 0
217 5417 0
481 -537 -5737 0
-481 5737 0
537 5737 0
4217 -3897 0
4537 -3897 0
-4217 -4537 3897 0
-4217 4857 0
-4217 5497 0
4217 -4857 -5497 0
-4537 5177 0
-4537 5817 0
4537 -5177 -5817 0
-241 297 -4857 0
241 4857 0
-297 4857 0
-561 617 -5177 0
561 5177 0
-617 5177 0
241 -297 -5497 0
-241 5497 0
297 5497 0
561 -617 -5817 0
-561 5817 0
617 5817 0
3978 -3898 0
4298 -3898 0
-3978 -4298 3898 0
-3978 4618 0
-3978 5258 0
3978 -4618 -5258 0
-4298 4938 0
-4298 5578 0
4298 -4938 -5578 0
-1 58 -4618 0
1 4618 0
-58 4618 0
-321 378 -4938 0
321 4938 0
-378 4938 0
1 -58 -5258 0
-1 5258 0
58 5258 0
321 -378 -5578 0
-321 5578 0
378 5578 0
4058 -3898 0
4378 -3898 0
-4058 -4378 3898 0
-4058 4698 0
-4058 5338 0
4058 -4698 -5338 0
-4378 5018 0
-4378 5658 0
4378 -5018 -5658 0
-81 138 -4698 0
81 4698 0
-138 4698 0
-401 458 -5018 0
401 5018 0
-458 5018 0
81 -138 -5338 0
-81 5338 0
138 5338 0
401 -458 -5658 0
-401 5658 0
458 5658 0
4138 -3898 0
4458 -3898 0
-4138 -4458 3898 0
-4138 4778 0
-4138 5418 0
4138 -4778 -5418 0
-4458 5098 0
-4458 5738 0
4458 -5098 -5738 0
-161 218 -4778 0
161 4778 0
-218 4778 0
-481 538 -5098 0
481 5098 0
-538 5098 0
161 -218 -5418 0
-161 5418 0
218 5418 0
481 -538 -5738 0
-481 5738 0
538 5738 0
4218 -3898 0
4538 -3898 0
-4218 -4538 3898 0
-4218 4858 0
-4218 5498 0
4218 -4858 -5498 0
-4538 5178 0
-4538 5818 0
4538 -5178 -5818 0
-241 298 -4858 0
241 4858 0
-298 4858 0
-561 618 -5178 0
561 5178 0
-618 5178 0
241 -298 -5498 0
-241 5498 0
298 5498 0
561 -618 -5818 0
-561 5818 0
618 5818 0
3979 -3899 0
4299 -3899 0
-3979 -4299 3899 0
-3979 4619 0
-3979 5259 0
3979 -4619 -5259 0
-4299 4939 0
-4299 5579 0
4299 -4939 -5579 0
-1 59 -4619 0
1 4619 0
-59 4619 0
-321 379 -4939 0
321 4939 0
-379 4939 0
1 -59 -5259 0
-1 5259 0
59 5259 0
321 -379 -5579 0
-321 5579 0
379 5579 0
4059 -3899 0
4379 -3899 0
-4059 -4379 3899 0
-4059 4699 0
-4059 5339 0
4059 -4699 -5339 0
-4379 5019 0
-4379 5659 0
4379 -5019 -5659 0
-81 139 -4699 0
81 4699 0
-139 4699 0
-401 459 -5019 0
401 5019 0
-459 5019 0
81 -139 -5339 0
-81 5339 0
139 5339 0
401 -459 -5659 0
-401 5659 0
459 5659 0
4139 -3899 0
4459 -3899 0
-4139 -4459 3899 0
-4139 4779 0
-4139 5419 0
4139 -4779 -5419 0
-4459 5099 0
-4459 5739 0
4459 -5099 -5739 0
-161 219 -4779 0
161 4779 0
-219 4779 0
-481 539 -5099 0
481 5099 0
-539 5099 0
161 -219 -5419 0
-161 5419 0
219 5419 0
481 -539 -5739 0
-481 5739 0
539 5739 0
4219 -3899 0
4539 -3899 0
-4219 -4539 3899 0
-4219 4859 0
-4219 5499 0
4219 -4859 -5499 0
-4539 5179 0
-4539 5819 0
4539 -5179 -5819 0
-241 299 -4859 0
241 4859 0
-299 4859 0
-561 619 -5179 0
561 5179 0
-619 5179 0
241 -299 -5499 0
-241 5499 0
299 5499 0
561 -619 -5819 0
-561 5819 0
619 5819 0
3980 -3900 0
4300 -3900 0
-3980 -4300 3900 0
-3980 4620 0
-3980 5260 0
3980 -4620 -5260 0
-4300 4940 0
-4300 5580 0
4300 -4940 -5580 0
-1 60 -4620 0
1 4620 0
-60 4620 0
-321 380 -4940 0
321 4940 0
-380 4940 0
1 -60 -5260 0
-1 5260 0
60 5260 0
321 -380 -5580 0
-321 5580 0
380 5580 0
4060 -3900 0
4380 -3900 0
-4060 -4380 3900 0
-4060 4700 0
-4060 5340 0
4060 -4700 -5340 0
-4380 5020 0
-4380 5660 0
4380 -5020 -5660 0
-81 140 -4700 0
81 4700 0
-140 4700 0
-401 460 -5020 0
401 5020 0
-460 5020 0
81 -140 -5340 0
-81 5340 0
140 5340 0
401 -460 -5660 0
-401 5660 0
460 5660 0
4140 -3900 0
4460 -3900 0
-4140 -4460 3900 0
-4140 4780 0
-4140 5420 0
4140 -4780 -5420 0
-4460 5100 0
-4460 5740 0
4460 -5100 -5740 0
-161 220 -4780 0
161 4780 0
-220 4780 0
-481 540 -5100 0
481 5100 0
-540 5100 0
161 -220 -5420 0
-161 5420 0
220 5420 0
481 -540 -5740 0
-481 5740 0
540 5740 0
4220 -3900 0
4540 -3900 0
-4220 -4540 3900 0
-4220 4860 0
-4220 5500 0
4220 -4860 -5500 0
-4540 5180 0
-4540 5820 0
4540 -5180 -5820 0
-241 300 -4860 0
241 4860 0
-300 4860 0
-561 620 -5180 0
561 5180 0
-620 5180 0
241 -300 -5500 0
-241 5500 0
300 5500 0
561 -620 -5820 0
-561 5820 0
620 5820 0
3981 -3901 0
4301 -3901 0
-3981 -4301 3901 0
-3981 4621 0
-3981 5261 0
3981 -4621 -5261 0
-4301 4941 0
-4301 5581 0
4301 -4941 -5581 0
-1 61 -4621 0
1 4621 0
-61 4621 0
-321 381 -4941 0
321 4941 0
-381 4941 0
1 -61 -5261 0
-1 5261 0
61 5261 0
321 -381 -5581 0
-321 5581 0
381 5581 0
4061 -3901 0
4381 -3901 0
-4061 -4381 3901 0
-4061 4701 0
-4061 5341 0
4061 -4701 -5341 0
-4381 5021 0
-4381 5661 0
4381 -5021 -5661 0
-81 141 -4701 0
81 4701 0
-141 4701 0
-401 461 -5021 0
401 5021 0
-461 5021 0
81 -141 -5341 0
-81 5341 0
141 5341 0
401 -461 -5661 0
-401 5661 0
461 5661 0
4141 -3901 0
4461 -3901 0
-4141 -4461 3901 0
-4141 4781 0
-4141 5421 0
4141 -4781 -5421 0
-4461 5101 0
-4461 5741 0
4461 -5101 -5741 0
-161 221 -4781 0
161 4781 0
-221 4781 0
-481 541 -5101 0
481 5101 0
-541 5101 0
161 -221 -5421 0
-161 5421 0
221 5421 0
481 -541 -5741 0
-481 5741 0
541 5741 0
4221 -3901 0
4541 -3901 0
-4221 -4541 3901 0
-4221 4861 0
-4221 5501 0
4221 -4861 -5501 0
-4541 5181 0
-4541 5821 0
4541 -5181 -5821 0
-241 301 -4861 0
241 4861 0
-301 4861 0
-561 621 -5181 0
561 5181 0
-621 5181 0
241 -301 -5501 0
-241 5501 0
301 5501 0
561 -621 -5821 0
-561 5821 0
621 5821 0
3982 -3902 0
4302 -3902 0
-3982 -4302 3902 0
-3982 4622 0
-3982 5262 0
3982 -4622 -5262 0
-4302 4942 0
-4302 5582 0
4302 -4942 -5582 0
-1 62 -4622 0
1 4622 0
-62 4622 0
-321 382 -4942 0
321 4942 0
-382 4942 0
1 -62 -5262 0
-1 5262 0
62 5262 0
321 -382 -5582 0
-321 5582 0
382 5582 0
4062 -3902 0
4382 -3902 0
-4062 -4382 3902 0
-4062 4702 0
-4062 5342 0
4062 -4702 -5342 0
-4382 5022 0
-4382 5662 0
4382 -5022 -5662 0
-81 142 -4702 0
81 4702 0
-142 4702 0
-401 462 -5022 0
401 5022 0
-462 5022 0
81 -142 -5342 0
-81 5342 0
142 5342 0
401 -462 -5662 0
-401 5662 0
462 5662 0
4142 -3902 0
4462 -3902 0
-4142 -4462 3902 0
-4142 4782 0
-4142 5422 0
4142 -4782 -5422 0
-4462 5102 0
-4462 5742 0
4462 -5102 -5742 0
-161 222 -4782 0
161 4782 0
-222 4782 0
-481 542 -5102 0
481 5102 0
-542 5102 0
161 -222 -5422 0
-161 5422 0
222 5422 0
481 -542 -5742 0
-481 5742 0
542 5742 0
4222 -3902 0
4542 -3902 0
-4222 -4542 3902 0
-4222 4862 0
-4222 5502 0
4222 -4862 -5502 0
-4542 5182 0
-4542 5822 0
4542 -5182 -5822 0
-241 302 -4862 0
241 4862 0
-302 4862 0
-561 622 -5182 0
561 5182 0
-622 5182 0
241 -302 -5502 0
-241 5502 0
302 5502 0
561 -622 -5822 0
-561 5822 0
622 5822 0
3983 -3903 0
4303 -3903 0
-3983 -4303 3903 0
-3983 4623 0
-3983 5263 0
3983 -4623 -5263 0
-4303 4943 0
-4303 5583 0
4303 -4943 -5583 0
-1 63 -4623 0
1 4623 0
-63 4623 0
-321 383 -4943 0
321 4943 0
-383 4943 0
1 -63 -5263 0
-1 5263 0
63 5263 0
321 -383 -5583 0
-321 5583 0
383 5583 0
4063 -3903 0
4383 -3903 0
-4063 -4383 3903 0
-4063 4703 0
-4063 5343 0
4063 -4703 -5343 0
-4383 5023 0
-4383 5663 0
4383 -5023 -5663 0
-81 143 -4703 0
81 4703 0
-143 4703 0
-401 463 -5023 0
401 5023 0
-463 5023 0
81 -143 -5343 0
-81 5343 0
143 5343 0
401 -463 -5663 0
-401 5663 0
463 5663 0
4143 -3903 0
4463 -3903 0
-4143 -4463 3903 0
-4143 4783 0
-4143 5423 0
4143 -4783 -5423 0
-4463 5103 0
-4463 5743 0
4463 -5103 -5743 0
-161 223 -4783 0
161 4783 0
-223 4783 0
-481 543 -5103 0
481 5103 0
-543 5103 0
161 -223 -5423 0
-161 5423 0
223 5423 0
481 -543 -5743 0
-481 5743 0
543 5743 0
4223 -3903 0
4543 -3903 0
-4223 -4543 3903 0
-4223 4863 0
-4223 5503 0
4223 -4863 -5503 0
-4543 5183 0
-4543 5823 0
4543 -5183 -5823 0
-241 303 -4863 0
241 4863 0
-303 4863 0
-561 623 -5183 0
561 5183 0
-623 5183 0
241 -303 -5503 0
-241 5503 0
303 5503 0
561 -623 -5823 0
-561 5823 0
623 5823 0
3984 -3904 0
4304 -3904 0
-3984 -4304 3904 0
-3984 4624 0
-3984 5264 0
3984 -4624 -5264 0
-4304 4944 0
-4304 5584 0
4304 -4944 -5584 0
-1 64 -4624 0
1 4624 0
-64 4624 0
-321 384 -4944 0
321 4944 0
-384 4944 0
1 -64 -5264 0
-1 5264 0
64 5264 0
321 -384 -5584 0
-321 5584 0
384 5584 0
4064 -3904 0
4384 -3904 0
-4064 -4384 3904 0
-4064 4704 0
-4064 5344 0
4064 -4704 -5344 0
-4384 5024 0
-4384 5664 0
4384 -5024 -5664 0
-81 144 -4704 0
81 4704 0
-144 4704 0
-401 464 -5024 0
401 5024 0
-464 5024 0
81 -144 -5344 0
-81 5344 0
144 5344 0
401 -464 -5664 0
-401 5664 0
464 5664 0
4144 -3904 0
4464 -3904 0
-4144 -4464 3904 0
-4144 4784 0
-4144 5424 0
4144 -4784 -5424 0
-4464 5104 0
-4464 5744 0
4464 -5104 -5744 0
-161 224 -4784 0
161 4784 0
-224 4784 0
-481 544 -5104 0
481 5104 0
-544 5104 0
161 -224 -5424 0
-161 5424 0
224 5424 0
481 -544 -5744 0
-481 5744 0
544 5744 0
4224 -3904 0
4544 -3904 0
-4224 -4544 3904 0
-4224 4864 0
-4224 5504 0
4224 -4864 -5504 0
-4544 5184 0
-4544 5824 0
4544 -5184 -5824 0
-241 304 -4864 0
241 4864 0
-304 4864 0
-561 624 -5184 0
561 5184 0
-624 5184 0
241 -304 -5504 0
-241 5504 0
304 5504 0
561 -624 -5824 0
-561 5824 0
624 5824 0
3985 -3905 0
4305 -3905 0
-3985 -4305 3905 0
-3985 4625 0
-3985 5265 0
3985 -4625 -5265 0
-4305 4945 0
-4305 5585 0
4305 -4945 -5585 0
-1 65 -4625 0
1 4625 0
-65 4625 0
-321 385 -4945 0
321 4945 0
-385 4945 0
1 -65 -5265 0
-1 5265 0
65 5265 0
321 -385 -5585 0
-321 5585 0
385 5585 0
4065 -3905 0
4385 -3905 0
-4065 -4385 3905 0
-4065 4705 0
-4065 5345 0
4065 -4705 -5345 0
-4385 5025 0
-4385 5665 0
4385 -5025 -5665 0
-81 145 -4705 0
81 4705 0
-145 4705 0
-401 465 -5025 0
401 5025 0
-465 5025 0
81 -145 -5345 0
-81 5345 0
145 5345 0
401 -465 -5665 0
-401 5665 0
465 5665 0
4145 -3905 0
4465 -3905 0
-4145 -4465 3905 0
-4145 4785 0
-4145 5425 0
4145 -4785 -5425 0
-4465 5105 0
-4465 5745 0
4465 -5105 -5745 0
-161 225 -4785 0
161 4785 0
-225 4785 0
-481 545 -5105 0
481 5105 0
-545 5105 0
161 -225 -5425 0
-161 5425 0
225 5425 0
481 -545 -5745 0
-481 5745 0
545 5745 0
4225 -3905 0
4545 -3905 0
-4225 -4545 3905 0
-4225 4865 0
-4225 5505 0
4225 -4865 -5505 0
-4545 5185 0
-4545 5825 0
4545 -5185 -5825 0
-241 305 -4865 0
241 4865 0
-305 4865 0
-561 625 -5185 0
561 5185 0
-625 5185 0
241 -305 -5505 0
-241 5505 0
305 5505 0
561 -625 -5825 0
-561 5825 0
625 5825 0
3986 -3906 0
4306 -3906 0
-3986 -4306 3906 0
-3986 4626 0
-3986 5266 0
3986 -4626 -5266 0
-4306 4946 0
-4306 5586 0
4306 -4946 -5586 0
-1 66 -4626 0
1 4626 0
-66 4626 0
-321 386 -4946 0
321 4946 0
-386 4946 0
1 -66 -5266 0
-1 5266 0
66 5266 0
321 -386 -5586 0
-321 5586 0
386 5586 0
4066 -3906 0
4386 -3906 0
-4066 -4386 3906 0
-4066 4706 0
-4066 5346 0
4066 -4706 -5346 0
-4386 5026 0
-4386 5666 0
4386 -5026 -5666 0
-81 146 -4706 0
81 4706 0
-146 4706 0
-401 466 -5026 0
401 5026 0
-466 5026 0
81 -146 -5346 0
-81 5346 0
146 5346 0
401 -466 -5666 0
-401 5666 0
466 5666 0
4146 -3906 0
4466 -3906 0
-4146 -4466 3906 0
-4146 4786 0
-4146 5426 0
4146 -4786 -5426 0
-4466 5106 0
-4466 5746 0
4466 -5106 -5746 0
-161 226 -4786 0
161 4786 0
-226 4786 0
-481 546 -5106 0
481 5106 0
-546 5106 0
161 -226 -5426 0
-161 5426 0
226 5426 0
481 -546 -5746 0
-481 5746 0
546 5746 0
4226 -3906 0
4546 -3906 0
-4226 -4546 3906 0
-4226 4866 0
-4226 5506 0
4226 -4866 -5506 0
-4546 5186 0
-4546 5826 0
4546 -5186 -5826 0
-241 306 -4866 0
241 4866 0
-306 4866 0
-561 626 -5186 0
561 5186 0
-626 5186 0
241 -306 -5506 0
-241 5506 0
306 5506 0
561 -626 -5826 0
-561 5826 0
626 5826 0
3987 -3907 0
4307 -3907 0
-3987 -4307 3907 0
-3987 4627 0
-3987 5267 0
3987 -4627 -5267 0
-4307 4947 0
-4307 5587 0
4307 -4947 -5587 0
-1 67 -4627 0
1 4627 0
-67 4627 0
-321 387 -4947 0
321 4947 0
-387 4947 0
1 -67 -5267 0
-1 5267 0
67 5267 0
321 -387 -5587 0
-321 5587 0
387 5587 0
4067 -3907 0
4387 -3907 0
-4067 -4387 3907 0
-4067 4707 0
-4067 5347 0
4067 -4707 -5347 0
-4387 5027 0
-4387 5667 0
4387 -5027 -5667 0
-81 147 -4707 0
81 4707 0
-147 4707 0
-401 467 -5027 0
401 5027 0
-467 5027 0
81 -147 -5347 0
-81 5347 0
147 5347 0
401 -467 -5667 0
-401 5667 0
467 5667 0
4147 -3907 0
4467 -3907 0
-4147 -4467 3907 0
-4147 4787 0
-4147 5427 0
4147 -4787 -5427 0
-4467 5107 0
-4467 5747 0
4467 -5107 -5747 0
-161 227 -4787 0
161 4787 0
-227 4787 0
-481 547 -5107 0
481 5107 0
-547 5107 0
161 -227 -5427 0
-161 5427 0
227 5427 0
481 -547 -5747 0
-481 5747 0
547 5747 0
4227 -3907 0
4547 -3907 0
-4227 -4547 3907 0
-4227 4867 0
-4227 5507 0
4227 -4867 -5507 0
-4547 5187 0
-4547 5827 0
4547 -5187 -5827 0
-241 307 -4867 0
241 4867 0
-307 4867 0
-561 627 -5187 0
561 5187 0
-627 5187 0
241 -307 -5507 0
-241 5507 0
307 5507 0
561 -627 -5827 0
-561 5827 0
627 5827 0
3988 -3908 0
4308 -3908 0
-3988 -4308 3908 0
-3988 4628 0
-3988 5268 0
3988 -4628 -5268 0
-4308 4948 0
-4308 5588 0
4308 -4948 -5588 0
-1 68 -4628 0
1 4628 0
-68 4628 0
-321 388 -4948 0
321 4948 0
-388 4948 0
1 -68 -5268 0
-1 5268 0
68 5268 0
321 -388 -5588 0
-321 5588 0
388 5588 0
4068 -3908 0
4388 -3908 0
-4068 -4388 3908 0
-4068 4708 0
-4068 5348 0
4068 -4708 -5348 0
-4388 5028 0
-4388 5668 0
4388 -5028 -5668 0
-81 148 -4708 0
81 4708 0
-148 4708 0
-401 468 -5028 0
401 5028 0
-468 5028 0
81 -148 -5348 0
-81 5348 0
148 5348 0
401 -468 -5668 0
-401 5668 0
468 5668 0
4148 -3908 0
4468 -3908 0
-4148 -4468 3908 0
-4148 4788 0
-4148 5428 0
4148 -4788 -5428 0
-4468 5108 0
-4468 5748 0
4468 -5108 -5748 0
-161 228 -4788 0
161 4788 0
-228 4788 0
-481 548 -5108 0
481 5108 0
-548 5108 0
161 -228 -5428 0
-161 5428 0
228 5428 0
481 -548 -5748 0
-481 5748 0
548 5748 0
4228 -3908 0
4548 -3908 0
-4228 -4548 3908 0
-4228 4868 0
-4228 5508 0
4228 -4868 -5508 0
-4548 5188 0
-4548 5828 0
4548 -5188 -5828 0
-241 308 -4868 0
241 4868 0
-308 4868 0
-561 628 -5188 0
561 5188 0
-628 5188 0
241 -308 -5508 0
-241 5508 0
308 5508 0
561 -628 -5828 0
-561 5828 0
628 5828 0
3989 -3909 0
4309 -3909 0
-3989 -4309 3909 0
-3989 4629 0
-3989 5269 0
3989 -4629 -5269 0
-4309 4949 0
-4309 5589 0
4309 -4949 -5589 0
-1 69 -4629 0
1 4629 0
-69 4629 0
-321 389 -4949 0
321 4949 0
-389 4949 0
1 -69 -5269 0
-1 5269 0
69 5269 0
321 -389 -5589 0
-321 5589 0
389 5589 0
4069 -3909 0
4389 -3909 0
-4069 -4389 3909 0
-4069 4709 0
-4069 5349 0
4069 -4709 -5349 0
-4389 5029 0
-4389 5669 0
4389 -5029 -5669 0
-81 149 -4709 0
81 4709 0
-149 4709 0
-401 469 -5029 0
401 5029 0
-469 5029 0
81 -149 -5349 0
-81 5349 0
149 5349 0
401 -469 -5669 0
-401 5669 0
469 5669 0
4149 -3909 0
4469 -3909 0
-4149 -4469 3909 0
-4149 4789 0
-4149 5429 0
4149 -4789 -5429 0
-4469 5109 0
-4469 5749 0
4469 -5109 -5749 0
-161 229 -4789 0
161 4789 0
-229 4789 0
-481 549 -5109 0
481 5109 0
-549 5109 0
161 -229 -5429 0
-161 5429 0
229 5429 0
481 -549 -5749 0
-481 5749 0
549 5749 0
4229 -3909 0
4549 -3909 0
-4229 -4549 3909 0
-4229 4869 0
-4229 5509 0
4229 -4869 -5509 0
-4549 5189 0
-4549 5829 0
4549 -5189 -5829 0
-241 309 -4869 0
241 4869 0
-309 4869 0
-561 629 -5189 0
561 5189 0
-629 5189 0
241 -309 -5509 0
-241 5509 0
309 5509 0
561 -629 -5829 0
-561 5829 0
629 5829 0
3990 -3910 0
4310 -3910 0
-3990 -4310 3910 0
-3990 4630 0
-3990 5270 0
3990 -4630 -5270 0
-4310 4950 0
-4310 5590 0
4310 -4950 -5590 0
-1 70 -4630 0
1 4630 0
-70 4630 0
-321 390 -4950 0
321 4950 0
-390 4950 0
1 -70 -5270 0
-1 5270 0
70 5270 0
321 -390 -5590 0
-321 5590 0
390 5590 0
4070 -3910 0
4390 -3910 0
-4070 -4390 3910 0
-4070 4710 0
-4070 5350 0
4070 -4710 -5350 0
-4390 5030 0
-4390 5670 0
4390 -5030 -5670 0
-81 150 -4710 0
81 4710 0
-150 4710 0
-401 470 -5030 0
401 5030 0
-470 5030 0
81 -150 -5350 0
-81 5350 0
150 5350 0
401 -470 -5670 0
-401 5670 0
470 5670 0
4150 -3910 0
4470 -3910 0
-4150 -4470 3910 0
-4150 4790 0
-4150 5430 0
4150 -4790 -5430 0
-4470 5110 0
-4470 5750 0
4470 -5110 -5750 0
-161 230 -4790 0
161 4790 0
-230 4790 0
-481 550 -5110 0
481 5110 0
-550 5110 0
161 -230 -5430 0
-161 5430 0
230 5430 0
481 -550 -5750 0
-481 5750 0
550 5750 0
4230 -3910 0
4550 -3910 0
-4230 -4550 3910 0
-4230 4870 0
-4230 5510 0
4230 -4870 -5510 0
-4550 5190 0
-4550 5830 0
4550 -5190 -5830 0
-241 310 -4870 0
241 4870 0
-310 4870 0
-561 630 -5190 0
561 5190 0
-630 5190 0
241 -310 -5510 0
-241 5510 0
310 5510 0
561 -630 -5830 0
-561 5830 0
630 5830 0
3991 -3911 0
4311 -3911 0
-3991 -4311 3911 0
-3991 4631 0
-3991 5271 0
3991 -4631 -5271 0
-4311 4951 0
-4311 5591 0
4311 -4951 -5591 0
-1 71 -4631 0
1 4631 0
-71 4631 0
-321 391 -4951 0
321 4951 0
-391 4951 0
1 -71 -5271 0
-1 5271 0
71 5271 0
321 -391 -5591 0
-321 5591 0
391 5591 0
4071 -3911 0
4391 -3911 0
-4071 -4391 3911 0
-4071 4711 0
-4071 5351 0
4071 -4711 -5351 0
-4391 5031 0
-4391 5671 0
4391 -5031 -5671 0
-81 151 -4711 0
81 4711 0
-151 4711 0
-401 471 -5031 0
401 5031 0
-471 5031 0
81 -151 -5351 0
-81 5351 0
151 5351 0
401 -471 -5671 0
-401 5671 0
471 5671 0
4151 -3911 0
4471 -3911 0
-4151 -4471 3911 0
-4151 4791 0
-4151 5431 0
4151 -4791 -5431 0
-4471 5111 0
-4471 5751 0
4471 -5111 -5751 0
-161 231 -4791 0
161 4791 0
-231 4791 0
-481 551 -5111 0
481 5111 0
-551 5111 0
161 -231 -5431 0
-161 5431 0
231 5431 0
481 -551 -5751 0
-481 5751 0
551 5751 0
4231 -3911 0
4551 -3911 0
-4231 -4551 3911 0
-4231 4871 0
-4231 5511 0
4231 -4871 -5511 0
-4551 5191 0
-4551 5831 0
4551 -5191 -5831 0
-241 311 -4871 0
241 4871 0
-311 4871 0
-561 631 -5191 0
561 5191 0
-631 5191 0
241 -311 -5511 0
-241 5511 0
311 5511 0
561 -631 -5831 0
-561 5831 0
631 5831 0
3992 -3912 0
4312 -3912 0
-3992 -4312 3912 0
-3992 4632 0
-3992 5272 0
3992 -4632 -5272 0
-4312 4952 0
-4312 5592 0
4312 -4952 -5592 0
-1 72 -4632 0
1 4632 0
-72 4632 0
-321 392 -4952 0
321 4952 0
-392 4952 0
1 -72 -5272 0
-1 5272 0
72 5272 0
321 -392 -5592 0
-321 5592 0
392 5592 0
4072 -3912 0
4392 -3912 0
-4072 -4392 3912 0
-4072 4712 0
-4072 5352 0
4072 -4712 -5352 0
-4392 5032 0
-4392 5672 0
4392 -5032 -5672 0
-81 152 -4712 0
81 4712 0
-152 4712 0
-401 472 -5032 0
401 5032 0
-472 5032 0
81 -152 -5352 0
-81 5352 0
152 5352 0
401 -472 -5672 0
-401 5672 0
472 5672 0
4152 -3912 0
4472 -3912 0
-4152 -4472 3912 0
-4152 4792 0
-4152 5432 0
4152 -4792 -5432 0
-4472 5112 0
-4472 5752 0
4472 -5112 -5752 0
-161 232 -4792 0
161 4792 0
-232 4792 0
-481 552 -5112 0
481 5112 0
-552 5112 0
161 -232 -5432 0
-161 5432 0
232 5432 0
481 -552 -5752 0
-481 5752 0
552 5752 0
4232 -3912 0
4552 -3912 0
-4232 -4552 3912 0
-4232 4872 0
-4232 5512 0
4232 -4872 -5512 0
-4552 5192 0
-4552 5832 0
4552 -5192 -5832 0
-241 312 -4872 0
241 4872 0
-312 4872 0
-561 632 -5192 0
561 5192 0
-632 5192 0
241 -312 -5512 0
-241 5512 0
312 5512 0
561 -632 -5832 0
-561 5832 0
632 5832 0
3993 -3913 0
4313 -3913 0
-3993 -4313 3913 0
-3993 4633 0
-3993 5273 0
3993 -4633 -5273 0
-4313 4953 0
-4313 5593 0
4313 -4953 -5593 0
-1 73 -4633 0
1 4633 0
-73 4633 0
-321 393 -4953 0
321 4953 0
-393 4953 0
1 -73 -5273 0
-1 5273 0
73 5273 0
321 -393 -5593 0
-321 5593 0
393 5593 0
4073 -3913 0
4393 -3913 0
-4073 -4393 3913 0
-4073 4713 0
-4073 5353 0
4073 -4713 -5353 0
-4393 5033 0
-4393 5673 0
4393 -5033 -5673 0
-81 153 -4713 0
81 4713 0
-153 4713 0
-401 473 -5033 0
401 5033 0
-473 5033 0
81 -153 -5353 0
-81 5353 0
153 5353 0
401 -473 -5673 0
-401 5673 0
473 5673 0
4153 -3913 0
4473 -3913 0
-4153 -4473 3913 0
-4153 4793 0
-4153 5433 0
4153 -4793 -5433 0
-4473 5113 0
-4473 5753 0
4473 -5113 -5753 0
-161 233 -4793 0
161 4793 0
-233 4793 0
-481 553 -5113 0
481 5113 0
-553 5113 0
161 -233 -5433 0
-161 5433 0
233 5433 0
481 -553 -5753 0
-481 5753 0
553 5753 0
4233 -3913 0
4553 -3913 0
-4233 -4553 3913 0
-4233 4873 0
-4233 5513 0
4233 -4873 -5513 0
-4553 5193 0
-4553 5833 0
4553 -5193 -5833 0
-241 313 -4873 0
241 4873 0
-313 4873 0
-561 633 -5193 0
561 5193 0
-633 5193 0
241 -313 -5513 0
-241 5513 0
313 5513 0
561 -633 -5833 0
-561 5833 0
633 5833 0
3994 -3914 0
4314 -3914 0
-3994 -4314 3914 0
-3994 4634 0
-3994 5274 0
3994 -4634 -5274 0
-4314 4954 0
-4314 5594 0
4314 -4954 -5594 0
-1 74 -4634 0
1 4634 0
-74 4634 0
-321 394 -4954 0
321 4954 0
-394 4954 0
1 -74 -5274 0
-1 5274 0
74 5274 0
321 -394 -5594 0
-321 5594 0
394 5594 0
4074 -3914 0
4394 -3914 0
-4074 -4394 3914 0
-4074 4714 0
-4074 5354 0
4074 -4714 -5354 0
-4394 5034 0
-4394 5674 0
4394 -5034 -5674 0
-81 154 -4714 0
81 4714 0
-154 4714 0
-401 474 -5034 0
401 5034 0
-474 5034 0
81 -154 -5354 0
-81 5354 0
154 5354 0
401 -474 -5674 0
-401 5674 0
474 5674 0
4154 -3914 0
4474 -3914 0
-4154 -4474 3914 0
-4154 4794 0
-4154 5434 0
4154 -4794 -5434 0
-4474 5114 0
-4474 5754 0
4474 -5114 -5754 0
-161 234 -4794 0
161 4794 0
-234 4794 0
-481 554 -5114 0
481 5114 0
-554 5114 0
161 -234 -5434 0
-161 5434 0
234 5434 0
481 -554 -5754 0
-481 5754 0
554 5754 0
4234 -3914 0
4554 -3914 0
-4234 -4554 3914 0
-4234 4874 0
-4234 5514 0
4234 -4874 -5514 0
-4554 5194 0
-4554 5834 0
4554 -5194 -5834 0
-241 314 -4874 0
241 4874 0
-314 4874 0
-561 634 -5194 0
561 5194 0
-634 5194 0
241 -314 -5514 0
-241 5514 0
314 5514 0
561 -634 -5834 0
-561 5834 0
634 5834 0
3995 -3915 0
4315 -3915 0
-3995 -4315 3915 0
-3995 4635 0
-3995 5275 0
3995 -4635 -5275 0
-4315 4955 0
-4315 5595 0
4315 -4955 -5595 0
-1 75 -4635 0
1 4635 0
-75 4635 0
-321 395 -4955 0
321 4955 0
-395 4955 0
1 -75 -5275 0
-1 5275 0
75 5275 0
321 -395 -5595 0
-321 5595 0
395 5595 0
4075 -3915 0
4395 -3915 0
-4075 -4395 3915 0
-4075 4715 0
-4075 5355 0
4075 -4715 -5355 0
-4395 5035 0
-4395 5675 0
4395 -5035 -5675 0
-81 155 -4715 0
81 4715 0
-155 4715 0
-401 475 -5035 0
401 5035 0
-475 5035 0
81 -155 -5355 0
-81 5355 0
155 5355 0
401 -475 -5675 0
-401 5675 0
475 5675 0
4155 -3915 0
4475 -3915 0
-4155 -4475 3915 0
-4155 4795 0
-4155 5435 0
4155 -4795 -5435 0
-4475 5115 0
-4475 5755 0
4475 -5115 -5755 0
-161 235 -4795 0
161 4795 0
-235 4795 0
-481 555 -5115 0
481 5115 0
-555 5115 0
161 -235 -5435 0
-161 5435 0
235 5435 0
481 -555 -5755 0
-481 5755 0
555 5755 0
4235 -3915 0
4555 -3915 0
-4235 -4555 3915 0
-4235 4875 0
-4235 5515 0
4235 -4875 -5515 0
-4555 5195 0
-4555 5835 0
4555 -5195 -5835 0
-241 315 -4875 0
241 4875 0
-315 4875 0
-561 635 -5195 0
561 5195 0
-635 5195 0
241 -315 -5515 0
-241 5515 0
315 5515 0
561 -635 -5835 0
-561 5835 0
635 5835 0
3996 -3916 0
4316 -3916 0
-3996 -4316 3916 0
-3996 4636 0
-3996 5276 0
3996 -4636 -5276 0
-4316 4956 0
-4316 5596 0
4316 -4956 -5596 0
-1 76 -4636 0
1 4636 0
-76 4636 0
-321 396 -4956 0
321 4956 0
-396 4956 0
1 -76 -5276 0
-1 5276 0
76 5276 0
321 -396 -5596 0
-321 5596 0
396 5596 0
4076 -3916 0
4396 -3916 0
-4076 -4396 3916 0
-4076 4716 0
-4076 5356 0
4076 -4716 -5356 0
-4396 5036 0
-4396 5676 0
4396 -5036 -5676 0
-81 156 -4716 0
81 4716 0
-156 4716 0
-401 476 -5036 0
401 5036 0
-476 5036 0
81 -156 -5356 0
-81 5356 0
156 5356 0
401 -476 -5676 0
-401 5676 0
476 5676 0
4156 -3916 0
4476 -3916 0
-4156 -4476 3916 0
-4156 4796 0
-4156 5436 0
4156 -4796 -5436 0
-4476 5116 0
-4476 5756 0
4476 -5116 -5756 0
-161 236 -4796 0
161 4796 0
-236 4796 0
-481 556 -5116 0
481 5116 0
-556 5116 0
161 -236 -5436 0
-161 5436 0
236 5436 0
481 -556 -5756 0
-481 5756 0
556 5756 0
4236 -3916 0
4556 -3916 0
-4236 -4556 3916 0
-4236 4876 0
-4236 5516 0
4236 -4876 -5516 0
-4556 5196 0
-4556 5836 0
4556 -5196 -5836 0
-241 316 -4876 0
241 4876 0
-316 4876 0
-561 636 -5196 0
561 5196 0
-636 5196 0
241 -316 -5516 0
-241 5516 0
316 5516 0
561 -636 -5836 0
-561 5836 0
636 5836 0
3997 -3917 0
4317 -3917 0
-3997 -4317 3917 0
-3997 4637 0
-3997 5277 0
3997 -4637 -5277 0
-4317 4957 0
-4317 5597 0
4317 -4957 -5597 0
-1 77 -4637 0
1 4637 0
-77 4637 0
-321 397 -4957 0
321 4957 0
-397 4957 0
1 -77 -5277 0
-1 5277 0
77 5277 0
321 -397 -5597 0
-321 5597 0
397 5597 0
4077 -3917 0
4397 -3917 0
-4077 -4397 3917 0
-4077 4717 0
-4077 5357 0
4077 -4717 -5357 0
-4397 5037 0
-4397 5677 0
4397 -5037 -5677 0
-81 157 -4717 0
81 4717 0
-157 4717 0
-401 477 -5037 0
401 5037 0
-477 5037 0
81 -157 -5357 0
-81 5357 0
157 5357 0
401 -477 -5677 0
-401 5677 0
477 5677 0
4157 -3917 0
4477 -3917 0
-4157 -4477 3917 0
-4157 4797 0
-4157 5437 0
4157 -4797 -5437 0
-4477 5117 0
-4477 5757 0
4477 -5117 -5757 0
-161 237 -4797 0
161 4797 0
-237 4797 0
-481 557 -5117 0
481 5117 0
-557 5117 0
161 -237 -5437 0
-161 5437 0
237 5437 0
481 -557 -5757 0
-481 5757 0
557 5757 0
4237 -3917 0
4557 -3917 0
-4237 -4557 3917 0
-4237 4877 0
-4237 5517 0
4237 -4877 -5517 0
-4557 5197 0
-4557 5837 0
4557 -5197 -5837 0
-241 317 -4877 0
241 4877 0
-317 4877 0
-561 637 -5197 0
561 5197 0
-637 5197 0
241 -317 -5517 0
-241 5517 0
317 5517 0
561 -637 -5837 0
-561 5837 0
637 5837 0
3998 -3918 0
4318 -3918 0
-3998 -4318 3918 0
-3998 4638 0
-3998 5278 0
3998 -4638 -5278 0
-4318 4958 0
-4318 5598 0
4318 -4958 -5598 0
-1 78 -4638 0
1 4638 0
-78 4638 0
-321 398 -4958 0
321 4958 0
-398 4958 0
1 -78 -5278 0
-1 5278 0
78 5278 0
321 -398 -5598 0
-321 5598 0
398 5598 0
4078 -3918 0
4398 -3918 0
-4078 -4398 3918 0
-4078 4718 0
-4078 5358 0
4078 -4718 -5358 0
-4398 5038 0
-4398 5678 0
4398 -5038 -5678 0
-81 158 -4718 0
81 4718 0
-158 4718 0
-401 478 -5038 0
401 5038 0
-478 5038 0
81 -158 -5358 0
-81 5358 0
158 5358 0
401 -478 -5678 0
-401 5678 0
478 5678 0
4158 -3918 0
4478 -3918 0
-4158 -4478 3918 0
-4158 4798 0
-4158 5438 0
4158 -4798 -5438 0
-4478 5118 0
-4478 5758 0
4478 -5118 -5758 0
-161 238 -4798 0
161 4798 0
-238 4798 0
-481 558 -5118 0
481 5118 0
-558 5118 0
161 -238 -5438 0
-161 5438 0
238 5438 0
481 -558 -5758 0
-481 5758 0
558 5758 0
4238 -3918 0
4558 -3918 0
-4238 -4558 3918 0
-4238 4878 0
-4238 5518 0
4238 -4878 -5518 0
-4558 5198 0
-4558 5838 0
4558 -5198 -5838 0
-241 318 -4878 0
241 4878 0
-318 4878 0
-561 638 -5198 0
561 5198 0
-638 5198 0
241 -318 -5518 0
-241 5518 0
318 5518 0
561 -638 -5838 0
-561 5838 0
638 5838 0
3999 -3919 0
4319 -3919 0
-3999 -4319 3919 0
-3999 4639 0
-3999 5279 0
3999 -4639 -5279 0
-4319 4959 0
-4319 5599 0
4319 -4959 -5599 0
-1 79 -4639 0
1 4639 0
-79 4639 0
-321 399 -4959 0
321 4959 0
-399 4959 0
1 -79 -5279 0
-1 5279 0
79 5279 0
321 -399 -5599 0
-321 5599 0
399 5599 0
4079 -3919 0
4399 -3919 0
-4079 -4399 3919 0
-4079 4719 0
-4079 5359 0
4079 -4719 -5359 0
-4399 5039 0
-4399 5679 0
4399 -5039 -5679 0
-81 159 -4719 0
81 4719 0
-159 4719 0
-401 479 -5039 0
401 5039 0
-479 5039 0
81 -159 -5359 0
-81 5359 0
159 5359 0
401 -479 -5679 0
-401 5679 0
479 5679 0
4159 -3919 0
4479 -3919 0
-4159 -4479 3919 0
-4159 4799 0
-4159 5439 0
4159 -4799 -5439 0
-4479 5119 0
-4479 5759 0
4479 -5119 -5759 0
-161 239 -4799 0
161 4799 0
-239 4799 0
-481 559 -5119 0
481 5119 0
-559 5119 0
161 -239 -5439 0
-161 5439 0
239 5439 0
481 -559 -5759 0
-481 5759 0
559 5759 0
4239 -3919 0
4559 -3919 0
-4239 -4559 3919 0
-4239 4879 0
-4239 5519 0
4239 -4879 -5519 0
-4559 5199 0
-4559 5839 0
4559 -5199 -5839 0
-241 319 -4879 0
241 4879 0
-319 4879 0
-561 639 -5199 0
561 5199 0
-639 5199 0
241 -319 -5519 0
-241 5519 0
319 5519 0
561 -639 -5839 0
-561 5839 0
639 5839 0
4000 -3920 0
4320 -3920 0
-4000 -4320 3920 0
-4000 4640 0
-4000 5280 0
4000 -4640 -5280 0
-4320 4960 0
-4320 5600 0
4320 -4960 -5600 0
-1 80 -4640 0
1 4640 0
-80 4640 0
-321 400 -4960 0
321 4960 0
-400 4960 0
1 -80 -5280 0
-1 5280 0
80 5280 0
321 -400 -5600 0
-321 5600 0
400 5600 0
4080 -3920 0
4400 -3920 0
-4080 -4400 3920 0
-4080 4720 0
-4080 5360 0
4080 -4720 -5360 0
-4400 5040 0
-4400 5680 0
4400 -5040 -5680 0
-81 160 -4720 0
81 4720 0
-160 4720 0
-401 480 -5040 0
401 5040 0
-480 5040 0
81 -160 -5360 0
-81 5360 0
160 5360 0
401 -480 -5680 0
-401 5680 0
480 5680 0
4160 -3920 0
4480 -3920 0
-4160 -4480 3920 0
-4160 4800 0
-4160 5440 0
4160 -4800 -5440 0
-4480 5120 0
-4480 5760 0
4480 -5120 -5760 0
-161 240 -4800 0
161 4800 0
-240 4800 0
-481 560 -5120 0
481 5120 0
-560 5120 0
161 -240 -5440 0
-161 5440 0
240 5440 0
481 -560 -5760 0
-481 5760 0
560 5760 0
4240 -3920 0
4560 -3920 0
-4240 -4560 3920 0
-4240 4880 0
-4240 5520 0
4240 -4880 -5520 0
-4560 5200 0
-4560 5840 0
4560 -5200 -5840 0
-241 320 -4880 0
241 4880 0
-320 4880 0
-561 640 -5200 0
561 5200 0
-640 5200 0
241 -320 -5520 0
-241 5520 0
320 5520 0
561 -640 -5840 0
-561 5840 0
640 5840 0
-3521 -3761 0
-3521 -3601 0
-3601 -3521 0
-3601 -3681 0
-3681 -3601 0
-3681 -3761 0
-3761 -3681 0
-3761 -3521 0
-3522 -3762 0
-3522 -3602 0
-3602 -3522 0
-3602 -3682 0
-3682 -3602 0
-3682 -3762 0
-3762 -3682 0
-3762 -3522 0
-3523 -3763 0
-3523 -3603 0
-3603 -3523 0
-3603 -3683 0
-3683 -3603 0
-3683 -3763 0
-3763 -3683 0
-3763 -3523 0
-3524 -3764 0
-3524 -3604 0
-3604 -3524 0
-3604 -3684 0
-3684 -3604 0
-3684 -3764 0
-3764 -3684 0
-3764 -3524 0
-3525 -3765 0
-3525 -3605 0
-3605 -3525 0
-3605 -3685 0
-3685 -3605 0
-3685 -3765 0
-3765 -3685 0
-3765 -3525 0
-3526 -3766 0
-3526 -3606 0
-3606 -3526 0
-3606 -3686 0
-3686 -3606 0
-3686 -3766 0
-3766 -3686 0
-3766 -3526 0
-3527 -3767 0
-3527 -3607 0
-3607 -3527 0
-3607 -3687 0
-3687 -3607 0
-3687 -3767 0
-3767 -3687 0
-3767 -3527 0
-3528 -3768 0
-3528 -3608 0
-3608 -3528 0
-3608 -3688 0
-3688 -3608 0
-3688 -3768 0
-3768 -3688 0
-3768 -3528 0
-3529 -3769 0
-3529 -3609 0
-3609 -3529 0
-3609 -3689 0
-3689 -3609 0
-3689 -3769 0
-3769 -3689 0
-3769 -3529 0
-3530 -3770 0
-3530 -3610 0
-3610 -3530 0
-3610 -3690 0
-3690 -3610 0
-3690 -3770 0
-3770 -3690 0
-3770 -3530 0
-3531 -3771 0
-3531 -3611 0
-3611 -3531 0
-3611 -3691 0
-3691 -3611 0
-3691 -3771 0
-3771 -3691 0
-3771 -3531 0
-3532 -3772 0
-3532 -3612 0
-3612 -3532 0
-3612 -3692 0
-3692 -3612 0
-3692 -3772 0
-3772 -3692 0
-3772 -3532 0
-3533 -3773 0
-3533 -3613 0
-3613 -3533 0
-3613 -3693 0
-3693 -3613 0
-3693 -3773 0
-3773 -3693 0
-3773 -3533 0
-3534 -3774 0
-3534 -3614 0
-3614 -3534 0
-3614 -3694 0
-3694 -3614 0
-3694 -3774 0
-3774 -3694 0
-3774 -3534 0
-3535 -3775 0
-3535 -3615 0
-3615 -3535 0
-3615 -3695 0
-3695 -3615 0
-3695 -3775 0
-3775 -3695 0
-3775 -3535 0
-3536 -3776 0
-3536 -3616 0
-3616 -3536 0
-3616 -3696 0
-3696 -3616 0
-3696 -3776 0
-3776 -3696 0
-3776 -3536 0
-3537 -3777 0
-3537 -3617 0
-3617 -3537 0
-3617 -3697 0
-3697 -3617 0
-3697 -3777 0
-3777 -3697 0
-3777 -3537 0
-3538 -3778 0
-3538 -3618 0
-3618 -3538 0
-3618 -3698 0
-3698 -3618 0
-3698 -3778 0
-3778 -3698 0
-3778 -3538 0
-3539 -3779 0
-3539 -3619 0
-3619 -3539 0
-3619 -3699 0
-3699 -3619 0
-3699 -3779 0
-3779 -3699 0
-3779 -3539 0
-3540 -3780 0
-3540 -3620 0
-3620 -3540 0
-3620 -3700 0
-3700 -3620 0
-3700 -3780 0
-3780 -3700 0
-3780 -3540 0
-3541 -3781 0
-3541 -3621 0
-3621 -3541 0
-3621 -3701 0
-3701 -3621 0
-3701 -3781 0
-3781 -3701 0
-3781 -3541 0
-3542 -3782 0
-3542 -3622 0
-3622 -3542 0
-3622 -3702 0
-3702 -3622 0
-3702 -3782 0
-3782 -3702 0
-3782 -3542 0
-3543 -3783 0
-3543 -3623 0
-3623 -3543 0
-3623 -3703 0
-3703 -3623 0
-3703 -3783 0
-3783 -3703 0
-3783 -3543 0
-3544 -3784 0
-3544 -3624 0
-3624 -3544 0
-3624 -3704 0
-3704 -3624 0
-3704 -3784 0
-3784 -3704 0
-3784 -3544 0
-3545 -3785 0
-3545 -3625 0
-3625 -3545 0
-3625 -3705 0
-3705 -3625 0
-3705 -3785 0
-3785 -3705 0
-3785 -3545 0
-3546 -3786 0
-3546 -3626 0
-3626 -3546 0
-3626 -3706 0
-3706 -3626 0
-3706 -3786 0
-3786 -3706 0
-3786 -3546 0
-3547 -3787 0
-3547 -3627 0
-3627 -3547 0
-3627 -3707 0
-3707 -3627 0
-3707 -3787 0
-3787 -3707 0
-3787 -3547 0
-3548 -3788 0
-3548 -3628 0
-3628 -3548 0
-3628 -3708 0
-3708 -3628 0
-3708 -3788 0
-3788 -3708 0
-3788 -3548 0
-3549 -3789 0
-3549 -3629 0
-3629 -3549 0
-3629 -3709 0
-3709 -3629 0
-3709 -3789 0
-3789 -3709 0
-3789 -3549 0
-3550 -3790 0
-3550 -3630 0
-3630 -3550 0
-3630 -3710 0
-3710 -3630 0
-3710 -3790 0
-3790 -3710 0
-3790 -3550 0
-3551 -3791 0
-3551 -3631 0
-3631 -3551 0
-3631 -3711 0
-3711 -3631 0
-3711 -3791 0
-3791 -3711 0
-3791 -3551 0
-3552 -3792 0
-3552 -3632 0
-3632 -3552 0
-3632 -3712 0
-3712 -3632 0
-3712 -3792 0
-3792 -3712 0
-3792 -3552 0
-3553 -3793 0
-3553 -3633 0
-3633 -3553 0
-3633 -3713 0
-3713 -3633 0
-3713 -3793 0
-3793 -3713 0
-3793 -3553 0
-3554 -3794 0
-3554 -3634 0
-3634 -3554 0
-3634 -3714 0
-3714 -3634 0
-3714 -3794 0
-3794 -3714 0
-3794 -3554 0
-3555 -3795 0
-3555 -3635 0
-3635 -3555 0
-3635 -3715 0
-3715 -3635 0
-3715 -3795 0
-3795 -3715 0
-3795 -3555 0
-3556 -3796 0
-3556 -3636 0
-3636 -3556 0
-3636 -3716 0
-3716 -3636 0
-3716 -3796 0
-3796 -3716 0
-3796 -3556 0
-3557 -3797 0
-3557 -3637 0
-3637 -3557 0
-3637 -3717 0
-3717 -3637 0
-3717 -3797 0
-3797 -3717 0
-3797 -3557 0
-3558 -3798 0
-3558 -3638 0
-3638 -3558 0
-3638 -3718 0
-3718 -3638 0
-3718 -3798 0
-3798 -3718 0
-3798 -3558 0
-3559 -3799 0
-3559 -3639 0
-3639 -3559 0
-3639 -3719 0
-3719 -3639 0
-3719 -3799 0
-3799 -3719 0
-3799 -3559 0
-3560 -3800 0
-3560 -3640 0
-3640 -3560 0
-3640 -3720 0
-3720 -3640 0
-3720 -3800 0
-3800 -3720 0
-3800 -3560 0
-3561 -3801 0
-3561 -3641 0
-3641 -3561 0
-3641 -3721 0
-3721 -3641 0
-3721 -3801 0
-3801 -3721 0
-3801 -3561 0
-3562 -3802 0
-3562 -3642 0
-3642 -3562 0
-3642 -3722 0
-3722 -3642 0
-3722 -3802 0
-3802 -3722 0
-3802 -3562 0
-3563 -3803 0
-3563 -3643 0
-3643 -3563 0
-3643 -3723 0
-3723 -3643 0
-3723 -3803 0
-3803 -3723 0
-3803 -3563 0
-3564 -3804 0
-3564 -3644 0
-3644 -3564 0
-3644 -3724 0
-3724 -3644 0
-3724 -3804 0
-3804 -3724 0
-3804 -3564 0
-3565 -3805 0
-3565 -3645 0
-3645 -3565 0
-3645 -3725 0
-3725 -3645 0
-3725 -3805 0
-3805 -3725 0
-3805 -3565 0
-3566 -3806 0
-3566 -3646 0
-3646 -3566 0
-3646 -3726 0
-3726 -3646 0
-3726 -3806 0
-3806 -3726 0
-3806 -3566 0
-3567 -3807 0
-3567 -3647 0
-3647 -3567 0
-3647 -3727 0
-3727 -3647 0
-3727 -3807 0
-3807 -3727 0
-3807 -3567 0
-3568 -3808 0
-3568 -3648 0
-3648 -3568 0
-3648 -3728 0
-3728 -3648 0
-3728 -3808 0
-3808 -3728 0
-3808 -3568 0
-3569 -3809 0
-3569 -3649 0
-3649 -3569 0
-3649 -3729 0
-3729 -3649 0
-3729 -3809 0
-3809 -3729 0
-3809 -3569 0
-3570 -3810 0
-3570 -3650 0
-3650 -3570 0
-3650 -3730 0
-3730 -3650 0
-3730 -3810 0
-3810 -3730 0
-3810 -3570 0
-3571 -3811 0
-3571 -3651 0
-3651 -3571 0
-3651 -3731 0
-3731 -3651 0
-3731 -3811 0
-3811 -3731 0
-3811 -3571 0
-3572 -3812 0
-3572 -3652 0
-3652 -3572 0
-3652 -3732 0
-3732 -3652 0
-3732 -3812 0
-3812 -3732 0
-3812 -3572 0
-3573 -3813 0
-3573 -3653 0
-3653 -3573 0
-3653 -3733 0
-3733 -3653 0
-3733 -3813 0
-3813 -3733 0
-3813 -3573 0
-3574 -3814 0
-3574 -3654 0
-3654 -3574 0
-3654 -3734 0
-3734 -3654 0
-3734 -3814 0
-3814 -3734 0
-3814 -3574 0
-3575 -3815 0
-3575 -3655 0
-3655 -3575 0
-3655 -3735 0
-3735 -3655 0
-3735 -3815 0
-3815 -3735 0
-3815 -3575 0
-3576 -3816 0
-3576 -3656 0
-3656 -3576 0
-3656 -3736 0
-3736 -3656 0
-3736 -3816 0
-3816 -3736 0
-3816 -3576 0
-3577 -3817 0
-3577 -3657 0
-3657 -3577 0
-3657 -3737 0
-3737 -3657 0
-3737 -3817 0
-3817 -3737 0
-3817 -3577 0
-3578 -3818 0
-3578 -3658 0
-3658 -3578 0
-3658 -3738 0
-3738 -3658 0
-3738 -3818 0
-3818 -3738 0
-3818 -3578 0
-3579 -3819 0
-3579 -3659 0
-3659 -3579 0
-3659 -3739 0
-3739 -3659 0
-3739 -3819 0
-3819 -3739 0
-3819 -3579 0
-3580 -3820 0
-3580 -3660 0
-3660 -3580 0
-3660 -3740 0
-3740 -3660 0
-3740 -3820 0
-3820 -3740 0
-3820 -3580 0
-3581 -3821 0
-3581 -3661 0
-3661 -3581 0
-3661 -3741 0
-3741 -3661 0
-3741 -3821 0
-3821 -3741 0
-3821 -3581 0
-3582 -3822 0
-3582 -3662 0
-3662 -3582 0
-3662 -3742 0
-3742 -3662 0
-3742 -3822 0
-3822 -3742 0
-3822 -3582 0
-3583 -3823 0
-3583 -3663 0
-3663 -3583 0
-3663 -3743 0
-3743 -3663 0
-3743 -3823 0
-3823 -3743 0
-3823 -3583 0
-3584 -3824 0
-3584 -3664 0
-3664 -3584 0
-3664 -3744 0
-3744 -3664 0
-3744 -3824 0
-3824 -3744 0
-3824 -3584 0
-3585 -3825 0
-3585 -3665 0
-3665 -3585 0
-3665 -3745 0
-3745 -3665 0
-3745 -3825 0
-3825 -3745 0
-3825 -3585 0
-3586 -3826 0
-3586 -3666 0
-3666 -3586 0
-3666 -3746 0
-3746 -3666 0
-3746 -3826 0
-3826 -3746 0
-3826 -3586 0
-3587 -3827 0
-3587 -3667 0
-3667 -3587 0
-3667 -3747 0
-3747 -3667 0
-3747 -3827 0
-3827 -3747 0
-3827 -3587 0
-3588 -3828 0
-3588 -3668 0
-3668 -3588 0
-3668 -3748 0
-3748 -3668 0
-3748 -3828 0
-3828 -3748 0
-3828 -3588 0
-3589 -3829 0
-3589 -3669 0
-3669 -3589 0
-3669 -3749 0
-3749 -3669 0
-3749 -3829 0
-3829 -3749 0
-3829 -3589 0
-3590 -3830 0
-3590 -3670 0
-3670 -3590 0
-3670 -3750 0
-3750 -3670 0
-3750 -3830 0
-3830 -3750 0
-3830 -3590 0
-3591 -3831 0
-3591 -3671 0
-3671 -3591 0
-3671 -3751 0
-3751 -3671 0
-3751 -3831 0
-3831 -3751 0
-3831 -3591 0
-3592 -3832 0
-3592 -3672 0
-3672 -3592 0
-3672 -3752 0
-3752 -3672 0
-3752 -3832 0
-3832 -3752 0
-3832 -3592 0
-3593 -3833 0
-3593 -3673 0
-3673 -3593 0
-3673 -3753 0
-3753 -3673 0
-3753 -3833 0
-3833 -3753 0
-3833 -3593 0
-3594 -3834 0
-3594 -3674 0
-3674 -3594 0
-3674 -3754 0
-3754 -3674 0
-3754 -3834 0
-3834 -3754 0
-3834 -3594 0
-3595 -3835 0
-3595 -3675 0
-3675 -3595 0
-3675 -3755 0
-3755 -3675 0
-3755 -3835 0
-3835 -3755 0
-3835 -3595 0
-3596 -3836 0
-3596 -3676 0
-3676 -3596 0
-3676 -3756 0
-3756 -3676 0
-3756 -3836 0
-3836 -3756 0
-3836 -3596 0
-3597 -3837 0
-3597 -3677 0
-3677 -3597 0
-3677 -3757 0
-3757 -3677 0
-3757 -3837 0
-3837 -3757 0
-3837 -3597 0
-3598 -3838 0
-3598 -3678 0
-3678 -3598 0
-3678 -3758 0
-3758 -3678 0
-3758 -3838 0
-3838 -3758 0
-3838 -3598 0
-3599 -3839 0
-3599 -3679 0
-3679 -3599 0
-3679 -3759 0
-3759 -3679 0
-3759 -3839 0
-3839 -3759 0
-3839 -3599 0
