p cnf 13080 40519
7921 -1 2 0
7921 1 -2 0
7921 -721 722 0
7921 721 -722 0
8041 -121 122 0
8041 121 -122 0
8041 -841 842 0
8041 841 -842 0
8161 -241 242 0
8161 241 -242 0
8161 -961 962 0
8161 961 -962 0
8281 -361 362 0
8281 361 -362 0
8281 -1081 1082 0
8281 1081 -1082 0
8401 -481 482 0
8401 481 -482 0
8401 -1201 1202 0
8401 1201 -1202 0
8521 -601 602 0
8521 601 -602 0
8521 -1321 1322 0
8521 1321 -1322 0
-1 -5761 -2 0
1 -5761 2 0
-5881 -842 0
-121 -5881 122 0
121 -5881 -122 0
-6601 842 0
-6001 -962 0
-241 -6001 242 0
241 -6001 -242 0
-6721 962 0
-6121 -1082 0
-361 -6121 362 0
361 -6121 -362 0
-6841 1082 0
-6241 -1202 0
-481 -6241 482 0
481 -6241 -482 0
-6961 1202 0
-121 -6601 -122 0
121 -6601 122 0
-241 -6721 -242 0
241 -6721 242 0
-361 -6841 -362 0
361 -6841 362 0
-481 -6961 -482 0
481 -6961 482 0
-601 -7081 -602 0
601 -7081 602 0
7922 -2 3 0
7922 2 -3 0
7922 -722 723 0
7922 722 -723 0
8042 -122 123 0
8042 122 -123 0
8042 -842 843 0
8042 842 -843 0
8162 -242 243 0
8162 242 -243 0
8162 -962 963 0
8162 962 -963 0
8282 -362 363 0
8282 362 -363 0
8282 -1082 1083 0
8282 1082 -1083 0
8402 -482 483 0
8402 482 -483 0
8402 -1202 1203 0
8402 1202 -1203 0
8522 -602 603 0
8522 602 -603 0
8522 -1322 1323 0
8522 1322 -1323 0
-2 -5762 -3 0
2 -5762 3 0
-5882 -843 0
-122 -5882 123 0
122 -5882 -123 0
-6602 843 0
-6002 -963 0
-242 -6002 243 0
242 -6002 -243 0
-6722 963 0
-6122 -1083 0
-362 -6122 363 0
362 -6122 -363 0
-6842 1083 0
-6242 -1203 0
-482 -6242 483 0
482 -6242 -483 0
-6962 1203 0
-122 -6602 -123 0
122 -6602 123 0
-242 -6722 -243 0
242 -6722 243 0
-362 -6842 -363 0
362 -6842 363 0
-482 -6962 -483 0
482 -6962 483 0
-602 -7082 -603 0
602 -7082 603 0
7923 -3 4 0
7923 3 -4 0
7923 -723 724 0
7923 723 -724 0
8043 -123 124 0
8043 123 -124 0
8043 -843 844 0
8043 843 -844 0
8163 -243 244 0
8163 243 -244 0
8163 -963 964 0
8163 963 -964 0
8283 -363 364 0
8283 363 -364 0
8283 -1083 1084 0
8283 1083 -1084 0
8403 -483 484 0
8403 483 -484 0
8403 -1203 1204 0
8403 1203 -1204 0
8523 -603 604 0
8523 603 -604 0
8523 -1323 1324 0
8523 1323 -1324 0
-3 -5763 -4 0
3 -5763 4 0
-5883 -844 0
-123 -5883 124 0
123 -5883 -124 0
-6603 844 0
-6003 -964 0
-243 -6003 244 0
243 -6003 -244 0
-6723 964 0
-6123 -1084 0
-363 -6123 364 0
363 -6123 -364 0
-6843 1084 0
-6243 -1204 0
-483 -6243 484 0
483 -6243 -484 0
-6963 1204 0
-123 -6603 -124 0
123 -6603 124 0
-243 -6723 -244 0
243 -6723 244 0
-363 -6843 -364 0
363 -6843 364 0
-483 -6963 -484 0
483 -6963 484 0
-603 -7083 -604 0
603 -7083 604 0
7924 -4 5 0
7924 4 -5 0
7924 -724 725 0
7924 724 -725 0
8044 -124 125 0
8044 124 -125 0
8044 -844 845 0
8044 844 -845 0
8164 -244 245 0
8164 244 -245 0
8164 -964 965 0
8164 964 -965 0
8284 -364 365 0
8284 364 -365 0
8284 -1084 1085 0
8284 1084 -1085 0
8404 -484 485 0
8404 484 -485 0
8404 -1204 1205 0
8404 1204 -1205 0
8524 -604 605 0
8524 604 -605 0
8524 -1324 1325 0
8524 1324 -1325 0
-4 -5764 -5 0
4 -5764 5 0
-5884 -845 0
-124 -5884 125 0
124 -5884 -125 0
-6604 845 0
-6004 -965 0
-244 -6004 245 0
244 -6004 -245 0
-6724 965 0
-6124 -1085 0
-364 -6124 365 0
364 -6124 -365 0
-6844 1085 0
-6244 -1205 0
-484 -6244 485 0
484 -6244 -485 0
-6964 1205 0
-124 -6604 -125 0
124 -6604 125 0
-244 -6724 -245 0
244 -6724 245 0
-364 -6844 -365 0
364 -6844 365 0
-484 -6964 -485 0
484 -6964 485 0
-604 -7084 -605 0
604 -7084 605 0
7925 -5 6 0
7925 5 -6 0
7925 -725 726 0
7925 725 -726 0
8045 -125 126 0
8045 125 -126 0
8045 -845 846 0
8045 845 -846 0
8165 -245 246 0
8165 245 -246 0
8165 -965 966 0
8165 965 -966 0
8285 -365 366 0
8285 365 -366 0
8285 -1085 1086 0
8285 1085 -1086 0
8405 -485 486 0
8405 485 -486 0
8405 -1205 1206 0
8405 1205 -1206 0
8525 -605 606 0
8525 605 -606 0
8525 -1325 1326 0
8525 1325 -1326 0
-5 -5765 -6 0
5 -5765 6 0
-5885 -846 0
-125 -5885 126 0
125 -5885 -126 0
-6605 846 0
-6005 -966 0
-245 -6005 246 0
245 -6005 -246 0
-6725 966 0
-6125 -1086 0
-365 -6125 366 0
365 -6125 -366 0
-6845 1086 0
-6245 -1206 0
-485 -6245 486 0
485 -6245 -486 0
-6965 1206 0
-125 -6605 -126 0
125 -6605 126 0
-245 -6725 -246 0
245 -6725 246 0
-365 -6845 -366 0
365 -6845 366 0
-485 -6965 -486 0
485 -6965 486 0
-605 -7085 -606 0
605 -7085 606 0
7926 -6 7 0
7926 6 -7 0
7926 -726 727 0
7926 726 -727 0
8046 -126 127 0
8046 126 -127 0
8046 -846 847 0
8046 846 -847 0
8166 -246 247 0
8166 246 -247 0
8166 -966 967 0
8166 966 -967 0
8286 -366 367 0
8286 366 -367 0
8286 -1086 1087 0
8286 1086 -1087 0
8406 -486 487 0
8406 486 -487 0
8406 -1206 1207 0
8406 1206 -1207 0
8526 -606 607 0
8526 606 -607 0
8526 -1326 1327 0
8526 1326 -1327 0
-6 -5766 -7 0
6 -5766 7 0
-5886 -847 0
-126 -5886 127 0
126 -5886 -127 0
-6606 847 0
-6006 -967 0
-246 -6006 247 0
246 -6006 -247 0
-6726 967 0
-6126 -1087 0
-366 -6126 367 0
366 -6126 -367 0
-6846 1087 0
-6246 -1207 0
-486 -6246 487 0
486 -6246 -487 0
-6966 1207 0
-126 -6606 -127 0
126 -6606 127 0
-246 -6726 -247 0
246 -6726 247 0
-366 -6846 -367 0
366 -6846 367 0
-486 -6966 -487 0
486 -6966 487 0
-606 -7086 -607 0
606 -7086 607 0
7927 -7 8 0
7927 7 -8 0
7927 -727 728 0
7927 727 -728 0
8047 -127 128 0
8047 127 -128 0
8047 -847 848 0
8047 847 -848 0
8167 -247 248 0
8167 247 -248 0
8167 -967 968 0
8167 967 -968 0
8287 -367 368 0
8287 367 -368 0
8287 -1087 1088 0
8287 1087 -1088 0
8407 -487 488 0
8407 487 -488 0
8407 -1207 1208 0
8407 1207 -1208 0
8527 -607 608 0
8527 607 -608 0
8527 -1327 1328 0
8527 1327 -1328 0
-7 -5767 -8 0
7 -5767 8 0
-5887 -848 0
-127 -5887 128 0
127 -5887 -128 0
-6607 848 0
-6007 -968 0
-247 -6007 248 0
247 -6007 -248 0
-6727 968 0
-6127 -1088 0
-367 -6127 368 0
367 -6127 -368 0
-6847 1088 0
-6247 -1208 0
-487 -6247 488 0
487 -6247 -488 0
-6967 1208 0
-127 -6607 -128 0
127 -6607 128 0
-247 -6727 -248 0
247 -6727 248 0
-367 -6847 -368 0
367 -6847 368 0
-487 -6967 -488 0
487 -6967 488 0
-607 -7087 -608 0
607 -7087 608 0
7928 -8 9 0
7928 8 -9 0
7928 -728 729 0
7928 728 -729 0
8048 -128 129 0
8048 128 -129 0
8048 -848 849 0
8048 848 -849 0
8168 -248 249 0
8168 248 -249 0
8168 -968 969 0
8168 968 -969 0
8288 -368 369 0
8288 368 -369 0
8288 -1088 1089 0
8288 1088 -1089 0
8408 -488 489 0
8408 488 -489 0
8408 -1208 1209 0
8408 1208 -1209 0
8528 -608 609 0
8528 608 -609 0
8528 -1328 1329 0
8528 1328 -1329 0
-8 -5768 -9 0
8 -5768 9 0
-5888 -849 0
-128 -5888 129 0
128 -5888 -129 0
-6608 849 0
-6008 -969 0
-248 -6008 249 0
248 -6008 -249 0
-6728 969 0
-6128 -1089 0
-368 -6128 369 0
368 -6128 -369 0
-6848 1089 0
-6248 -1209 0
-488 -6248 489 0
488 -6248 -489 0
-6968 1209 0
-128 -6608 -129 0
128 -6608 129 0
-248 -6728 -249 0
248 -6728 249 0
-368 -6848 -369 0
368 -6848 369 0
-488 -6968 -489 0
488 -6968 489 0
-608 -7088 -609 0
608 -7088 609 0
7929 -9 10 0
7929 9 -10 0
7929 -729 730 0
7929 729 -730 0
8049 -129 130 0
8049 129 -130 0
8049 -849 850 0
8049 849 -850 0
8169 -249 250 0
8169 249 -250 0
8169 -969 970 0
8169 969 -970 0
8289 -369 370 0
8289 369 -370 0
8289 -1089 1090 0
8289 1089 -1090 0
8409 -489 490 0
8409 489 -490 0
8409 -1209 1210 0
8409 1209 -1210 0
8529 -609 610 0
8529 609 -610 0
8529 -1329 1330 0
8529 1329 -1330 0
-9 -5769 -10 0
9 -5769 10 0
-5889 -850 0
-129 -5889 130 0
129 -5889 -130 0
-6609 850 0
-6009 -970 0
-249 -6009 250 0
249 -6009 -250 0
-6729 970 0
-6129 -1090 0
-369 -6129 370 0
369 -6129 -370 0
-6849 1090 0
-6249 -1210 0
-489 -6249 490 0
489 -6249 -490 0
-6969 1210 0
-129 -6609 -130 0
129 -6609 130 0
-249 -6729 -250 0
249 -6729 250 0
-369 -6849 -370 0
369 -6849 370 0
-489 -6969 -490 0
489 -6969 490 0
-609 -7089 -610 0
609 -7089 610 0
7930 -10 11 0
7930 10 -11 0
7930 -730 731 0
7930 730 -731 0
8050 -130 131 0
8050 130 -131 0
8050 -850 851 0
8050 850 -851 0
8170 -250 251 0
8170 250 -251 0
8170 -970 971 0
8170 970 -971 0
8290 -370 371 0
8290 370 -371 0
8290 -1090 1091 0
8290 1090 -1091 0
8410 -490 491 0
8410 490 -491 0
8410 -1210 1211 0
8410 1210 -1211 0
8530 -610 611 0
8530 610 -611 0
8530 -1330 1331 0
8530 1330 -1331 0
-10 -5770 -11 0
10 -5770 11 0
-5890 -851 0
-130 -5890 131 0
130 -5890 -131 0
-6610 851 0
-6010 -971 0
-250 -6010 251 0
250 -6010 -251 0
-6730 971 0
-6130 -1091 0
-370 -6130 371 0
370 -6130 -371 0
-6850 1091 0
-6250 -1211 0
-490 -6250 491 0
490 -6250 -491 0
-6970 1211 0
-130 -6610 -131 0
130 -6610 131 0
-250 -6730 -251 0
250 -6730 251 0
-370 -6850 -371 0
370 -6850 371 0
-490 -6970 -491 0
490 -6970 491 0
-610 -7090 -611 0
610 -7090 611 0
7931 -11 12 0
7931 11 -12 0
7931 -731 732 0
7931 731 -732 0
8051 -131 132 0
8051 131 -132 0
8051 -851 852 0
8051 851 -852 0
8171 -251 252 0
8171 251 -252 0
8171 -971 972 0
8171 971 -972 0
8291 -371 372 0
8291 371 -372 0
8291 -1091 1092 0
8291 1091 -1092 0
8411 -491 492 0
8411 491 -492 0
8411 -1211 1212 0
8411 1211 -1212 0
8531 -611 612 0
8531 611 -612 0
8531 -1331 1332 0
8531 1331 -1332 0
-11 -5771 -12 0
11 -5771 12 0
-5891 -852 0
-131 -5891 132 0
131 -5891 -132 0
-6611 852 0
-6011 -972 0
-251 -6011 252 0
251 -6011 -252 0
-6731 972 0
-6131 -1092 0
-371 -6131 372 0
371 -6131 -372 0
-6851 1092 0
-6251 -1212 0
-491 -6251 492 0
491 -6251 -492 0
-6971 1212 0
-131 -6611 -132 0
131 -6611 132 0
-251 -6731 -252 0
251 -6731 252 0
-371 -6851 -372 0
371 -6851 372 0
-491 -6971 -492 0
491 -6971 492 0
-611 -7091 -612 0
611 -7091 612 0
7932 -12 13 0
7932 12 -13 0
7932 -732 733 0
7932 732 -733 0
8052 -132 133 0
8052 132 -133 0
8052 -852 853 0
8052 852 -853 0
8172 -252 253 0
8172 252 -253 0
8172 -972 973 0
8172 972 -973 0
8292 -372 373 0
8292 372 -373 0
8292 -1092 1093 0
8292 1092 -1093 0
8412 -492 493 0
8412 492 -493 0
8412 -1212 1213 0
8412 1212 -1213 0
8532 -612 613 0
8532 612 -613 0
8532 -1332 1333 0
8532 1332 -1333 0
-12 -5772 -13 0
12 -5772 13 0
-5892 -853 0
-132 -5892 133 0
132 -5892 -133 0
-6612 853 0
-6012 -973 0
-252 -6012 253 0
252 -6012 -253 0
-6732 973 0
-6132 -1093 0
-372 -6132 373 0
372 -6132 -373 0
-6852 1093 0
-6252 -1213 0
-492 -6252 493 0
492 -6252 -493 0
-6972 1213 0
-132 -6612 -133 0
132 -6612 133 0
-252 -6732 -253 0
252 -6732 253 0
-372 -6852 -373 0
372 -6852 373 0
-492 -6972 -493 0
492 -6972 493 0
-612 -7092 -613 0
612 -7092 613 0
7933 -13 14 0
7933 13 -14 0
7933 -733 734 0
7933 733 -734 0
8053 -133 134 0
8053 133 -134 0
8053 -853 854 0
8053 853 -854 0
8173 -253 254 0
8173 253 -254 0
8173 -973 974 0
8173 973 -974 0
8293 -373 374 0
8293 373 -374 0
8293 -1093 1094 0
8293 1093 -1094 0
8413 -493 494 0
8413 493 -494 0
8413 -1213 1214 0
8413 1213 -1214 0
8533 -613 614 0
8533 613 -614 0
8533 -1333 1334 0
8533 1333 -1334 0
-13 -5773 -14 0
13 -5773 14 0
-5893 -854 0
-133 -5893 134 0
133 -5893 -134 0
-6613 854 0
-6013 -974 0
-253 -6013 254 0
253 -6013 -254 0
-6733 974 0
-6133 -1094 0
-373 -6133 374 0
373 -6133 -374 0
-6853 1094 0
-6253 -1214 0
-493 -6253 494 0
493 -6253 -494 0
-6973 1214 0
-133 -6613 -134 0
133 -6613 134 0
-253 -6733 -254 0
253 -6733 254 0
-373 -6853 -374 0
373 -6853 374 0
-493 -6973 -494 0
493 -6973 494 0
-613 -7093 -614 0
613 -7093 614 0
7934 -14 15 0
7934 14 -15 0
7934 -734 735 0
7934 734 -735 0
8054 -134 135 0
8054 134 -135 0
8054 -854 855 0
8054 854 -855 0
8174 -254 255 0
8174 254 -255 0
8174 -974 975 0
8174 974 -975 0
8294 -374 375 0
8294 374 -375 0
8294 -1094 1095 0
8294 1094 -1095 0
8414 -494 495 0
8414 494 -495 0
8414 -1214 1215 0
8414 1214 -1215 0
8534 -614 615 0
8534 614 -615 0
8534 -1334 1335 0
8534 1334 -1335 0
-14 -5774 -15 0
14 -5774 15 0
-5894 -855 0
-134 -5894 135 0
134 -5894 -135 0
-6614 855 0
-6014 -975 0
-254 -6014 255 0
254 -6014 -255 0
-6734 975 0
-6134 -1095 0
-374 -6134 375 0
374 -6134 -375 0
-6854 1095 0
-6254 -1215 0
-494 -6254 495 0
494 -6254 -495 0
-6974 1215 0
-134 -6614 -135 0
134 -6614 135 0
-254 -6734 -255 0
254 -6734 255 0
-374 -6854 -375 0
374 -6854 375 0
-494 -6974 -495 0
494 -6974 495 0
-614 -7094 -615 0
614 -7094 615 0
7935 -15 16 0
7935 15 -16 0
7935 -735 736 0
7935 735 -736 0
8055 -135 136 0
8055 135 -136 0
8055 -855 856 0
8055 855 -856 0
8175 -255 256 0
8175 255 -256 0
8175 -975 976 0
8175 975 -976 0
8295 -375 376 0
8295 375 -376 0
8295 -1095 1096 0
8295 1095 -1096 0
8415 -495 496 0
8415 495 -496 0
8415 -1215 1216 0
8415 1215 -1216 0
8535 -615 616 0
8535 615 -616 0
8535 -1335 1336 0
8535 1335 -1336 0
-15 -5775 -16 0
15 -5775 16 0
-5895 -856 0
-135 -5895 136 0
135 -5895 -136 0
-6615 856 0
-6015 -976 0
-255 -6015 256 0
255 -6015 -256 0
-6735 976 0
-6135 -1096 0
-375 -6135 376 0
375 -6135 -376 0
-6855 1096 0
-6255 -1216 0
-495 -6255 496 0
495 -6255 -496 0
-6975 1216 0
-135 -6615 -136 0
135 -6615 136 0
-255 -6735 -256 0
255 -6735 256 0
-375 -6855 -376 0
375 -6855 376 0
-495 -6975 -496 0
495 -6975 496 0
-615 -7095 -616 0
615 -7095 616 0
7936 -16 17 0
7936 16 -17 0
7936 -736 737 0
7936 736 -737 0
8056 -136 137 0
8056 136 -137 0
8056 -856 857 0
8056 856 -857 0
8176 -256 257 0
8176 256 -257 0
8176 -976 977 0
8176 976 -977 0
8296 -376 377 0
8296 376 -377 0
8296 -1096 1097 0
8296 1096 -1097 0
8416 -496 497 0
8416 496 -497 0
8416 -1216 1217 0
8416 1216 -1217 0
8536 -616 617 0
8536 616 -617 0
8536 -1336 1337 0
8536 1336 -1337 0
-16 -5776 -17 0
16 -5776 17 0
-5896 -857 0
-136 -5896 137 0
136 -5896 -137 0
-6616 857 0
-6016 -977 0
-256 -6016 257 0
256 -6016 -257 0
-6736 977 0
-6136 -1097 0
-376 -6136 377 0
376 -6136 -377 0
-6856 1097 0
-6256 -1217 0
-496 -6256 497 0
496 -6256 -497 0
-6976 1217 0
-136 -6616 -137 0
136 -6616 137 0
-256 -6736 -257 0
256 -6736 257 0
-376 -6856 -377 0
376 -6856 377 0
-496 -6976 -497 0
496 -6976 497 0
-616 -7096 -617 0
616 -7096 617 0
7937 -17 18 0
7937 17 -18 0
7937 -737 738 0
7937 737 -738 0
8057 -137 138 0
8057 137 -138 0
8057 -857 858 0
8057 857 -858 0
8177 -257 258 0
8177 257 -258 0
8177 -977 978 0
8177 977 -978 0
8297 -377 378 0
8297 377 -378 0
8297 -1097 1098 0
8297 1097 -1098 0
8417 -497 498 0
8417 497 -498 0
8417 -1217 1218 0
8417 1217 -1218 0
8537 -617 618 0
8537 617 -618 0
8537 -1337 1338 0
8537 1337 -1338 0
-17 -5777 -18 0
17 -5777 18 0
-5897 -858 0
-137 -5897 138 0
137 -5897 -138 0
-6617 858 0
-6017 -978 0
-257 -6017 258 0
257 -6017 -258 0
-6737 978 0
-6137 -1098 0
-377 -6137 378 0
377 -6137 -378 0
-6857 1098 0
-6257 -1218 0
-497 -6257 498 0
497 -6257 -498 0
-6977 1218 0
-137 -6617 -138 0
137 -6617 138 0
-257 -6737 -258 0
257 -6737 258 0
-377 -6857 -378 0
377 -6857 378 0
-497 -6977 -498 0
497 -6977 498 0
-617 -7097 -618 0
617 -7097 618 0
7938 -18 19 0
7938 18 -19 0
7938 -738 739 0
7938 738 -739 0
8058 -138 139 0
8058 138 -139 0
8058 -858 859 0
8058 858 -859 0
8178 -258 259 0
8178 258 -259 0
8178 -978 979 0
8178 978 -979 0
8298 -378 379 0
8298 378 -379 0
8298 -1098 1099 0
8298 1098 -1099 0
8418 -498 499 0
8418 498 -499 0
8418 -1218 1219 0
8418 1218 -1219 0
8538 -618 619 0
8538 618 -619 0
8538 -1338 1339 0
8538 1338 -1339 0
-18 -5778 -19 0
18 -5778 19 0
-5898 -859 0
-138 -5898 139 0
138 -5898 -139 0
-6618 859 0
-6018 -979 0
-258 -6018 259 0
258 -6018 -259 0
-6738 979 0
-6138 -1099 0
-378 -6138 379 0
378 -6138 -379 0
-6858 1099 0
-6258 -1219 0
-498 -6258 499 0
498 -6258 -499 0
-6978 1219 0
-138 -6618 -139 0
138 -6618 139 0
-258 -6738 -259 0
258 -6738 259 0
-378 -6858 -379 0
378 -6858 379 0
-498 -6978 -499 0
498 -6978 499 0
-618 -7098 -619 0
618 -7098 619 0
7939 -19 20 0
7939 19 -20 0
7939 -739 740 0
7939 739 -740 0
8059 -139 140 0
8059 139 -140 0
8059 -859 860 0
8059 859 -860 0
8179 -259 260 0
8179 259 -260 0
8179 -979 980 0
8179 979 -980 0
8299 -379 380 0
8299 379 -380 0
8299 -1099 1100 0
8299 1099 -1100 0
8419 -499 500 0
8419 499 -500 0
8419 -1219 1220 0
8419 1219 -1220 0
8539 -619 620 0
8539 619 -620 0
8539 -1339 1340 0
8539 1339 -1340 0
-19 -5779 -20 0
19 -5779 20 0
-5899 -860 0
-139 -5899 140 0
139 -5899 -140 0
-6619 860 0
-6019 -980 0
-259 -6019 260 0
259 -6019 -260 0
-6739 980 0
-6139 -1100 0
-379 -6139 380 0
379 -6139 -380 0
-6859 1100 0
-6259 -1220 0
-499 -6259 500 0
499 -6259 -500 0
-6979 1220 0
-139 -6619 -140 0
139 -6619 140 0
-259 -6739 -260 0
259 -6739 260 0
-379 -6859 -380 0
379 -6859 380 0
-499 -6979 -500 0
499 -6979 500 0
-619 -7099 -620 0
619 -7099 620 0
7940 -20 21 0
7940 20 -21 0
7940 -740 741 0
7940 740 -741 0
8060 -140 141 0
8060 140 -141 0
8060 -860 861 0
8060 860 -861 0
8180 -260 261 0
8180 260 -261 0
8180 -980 981 0
8180 980 -981 0
8300 -380 381 0
8300 380 -381 0
8300 -1100 1101 0
8300 1100 -1101 0
8420 -500 501 0
8420 500 -501 0
8420 -1220 1221 0
8420 1220 -1221 0
8540 -620 621 0
8540 620 -621 0
8540 -1340 1341 0
8540 1340 -1341 0
-20 -5780 -21 0
20 -5780 21 0
-5900 -861 0
-140 -5900 141 0
140 -5900 -141 0
-6620 861 0
-6020 -981 0
-260 -6020 261 0
260 -6020 -261 0
-6740 981 0
-6140 -1101 0
-380 -6140 381 0
380 -6140 -381 0
-6860 1101 0
-6260 -1221 0
-500 -6260 501 0
500 -6260 -501 0
-6980 1221 0
-140 -6620 -141 0
140 -6620 141 0
-260 -6740 -261 0
260 -6740 261 0
-380 -6860 -381 0
380 -6860 381 0
-500 -6980 -501 0
500 -6980 501 0
-620 -7100 -621 0
620 -7100 621 0
7941 -21 22 0
7941 21 -22 0
7941 -741 742 0
7941 741 -742 0
8061 -141 142 0
8061 141 -142 0
8061 -861 862 0
8061 861 -862 0
8181 -261 262 0
8181 261 -262 0
8181 -981 982 0
8181 981 -982 0
8301 -381 382 0
8301 381 -382 0
8301 -1101 1102 0
8301 1101 -1102 0
8421 -501 502 0
8421 501 -502 0
8421 -1221 1222 0
8421 1221 -1222 0
8541 -621 622 0
8541 621 -622 0
8541 -1341 1342 0
8541 1341 -1342 0
-21 -5781 -22 0
21 -5781 22 0
-5901 -862 0
-141 -5901 142 0
141 -5901 -142 0
-6621 862 0
-6021 -982 0
-261 -6021 262 0
261 -6021 -262 0
-6741 982 0
-6141 -1102 0
-381 -6141 382 0
381 -6141 -382 0
-6861 1102 0
-6261 -1222 0
-501 -6261 502 0
501 -6261 -502 0
-6981 1222 0
-141 -6621 -142 0
141 -6621 142 0
-261 -6741 -262 0
261 -6741 262 0
-381 -6861 -382 0
381 -6861 382 0
-501 -6981 -502 0
501 -6981 502 0
-621 -7101 -622 0
621 -7101 622 0
7942 -22 23 0
7942 22 -23 0
7942 -742 743 0
7942 742 -743 0
8062 -142 143 0
8062 142 -143 0
8062 -862 863 0
8062 862 -863 0
8182 -262 263 0
8182 262 -263 0
8182 -982 983 0
8182 982 -983 0
8302 -382 383 0
8302 382 -383 0
8302 -1102 1103 0
8302 1102 -1103 0
8422 -502 503 0
8422 502 -503 0
8422 -1222 1223 0
8422 1222 -1223 0
8542 -622 623 0
8542 622 -623 0
8542 -1342 1343 0
8542 1342 -1343 0
-22 -5782 -23 0
22 -5782 23 0
-5902 -863 0
-142 -5902 143 0
142 -5902 -143 0
-6622 863 0
-6022 -983 0
-262 -6022 263 0
262 -6022 -263 0
-6742 983 0
-6142 -1103 0
-382 -6142 383 0
382 -6142 -383 0
-6862 1103 0
-6262 -1223 0
-502 -6262 503 0
502 -6262 -503 0
-6982 1223 0
-142 -6622 -143 0
142 -6622 143 0
-262 -6742 -263 0
262 -6742 263 0
-382 -6862 -383 0
382 -6862 383 0
-502 -6982 -503 0
502 -6982 503 0
-622 -7102 -623 0
622 -7102 623 0
7943 -23 24 0
7943 23 -24 0
7943 -743 744 0
7943 743 -744 0
8063 -143 144 0
8063 143 -144 0
8063 -863 864 0
8063 863 -864 0
8183 -263 264 0
8183 263 -264 0
8183 -983 984 0
8183 983 -984 0
8303 -383 384 0
8303 383 -384 0
8303 -1103 1104 0
8303 1103 -1104 0
8423 -503 504 0
8423 503 -504 0
8423 -1223 1224 0
8423 1223 -1224 0
8543 -623 624 0
8543 623 -624 0
8543 -1343 1344 0
8543 1343 -1344 0
-23 -5783 -24 0
23 -5783 24 0
-5903 -864 0
-143 -5903 144 0
143 -5903 -144 0
-6623 864 0
-6023 -984 0
-263 -6023 264 0
263 -6023 -264 0
-6743 984 0
-6143 -1104 0
-383 -6143 384 0
383 -6143 -384 0
-6863 1104 0
-6263 -1224 0
-503 -6263 504 0
503 -6263 -504 0
-6983 1224 0
-143 -6623 -144 0
143 -6623 144 0
-263 -6743 -264 0
263 -6743 264 0
-383 -6863 -384 0
383 -6863 384 0
-503 -6983 -504 0
503 -6983 504 0
-623 -7103 -624 0
623 -7103 624 0
7944 -24 25 0
7944 24 -25 0
7944 -744 745 0
7944 744 -745 0
8064 -144 145 0
8064 144 -145 0
8064 -864 865 0
8064 864 -865 0
8184 -264 265 0
8184 264 -265 0
8184 -984 985 0
8184 984 -985 0
8304 -384 385 0
8304 384 -385 0
8304 -1104 1105 0
8304 1104 -1105 0
8424 -504 505 0
8424 504 -505 0
8424 -1224 1225 0
8424 1224 -1225 0
8544 -624 625 0
8544 624 -625 0
8544 -1344 1345 0
8544 1344 -1345 0
-24 -5784 -25 0
24 -5784 25 0
-5904 -865 0
-144 -5904 145 0
144 -5904 -145 0
-6624 865 0
-6024 -985 0
-264 -6024 265 0
264 -6024 -265 0
-6744 985 0
-6144 -1105 0
-384 -6144 385 0
384 -6144 -385 0
-6864 1105 0
-6264 -1225 0
-504 -6264 505 0
504 -6264 -505 0
-6984 1225 0
-144 -6624 -145 0
144 -6624 145 0
-264 -6744 -265 0
264 -6744 265 0
-384 -6864 -385 0
384 -6864 385 0
-504 -6984 -505 0
504 -6984 505 0
-624 -7104 -625 0
624 -7104 625 0
7945 -25 26 0
7945 25 -26 0
7945 -745 746 0
7945 745 -746 0
8065 -145 146 0
8065 145 -146 0
8065 -865 866 0
8065 865 -866 0
8185 -265 266 0
8185 265 -266 0
8185 -985 986 0
8185 985 -986 0
8305 -385 386 0
8305 385 -386 0
8305 -1105 1106 0
8305 1105 -1106 0
8425 -505 506 0
8425 505 -506 0
8425 -1225 1226 0
8425 1225 -1226 0
8545 -625 626 0
8545 625 -626 0
8545 -1345 1346 0
8545 1345 -1346 0
-25 -5785 -26 0
25 -5785 26 0
-5905 -866 0
-145 -5905 146 0
145 -5905 -146 0
-6625 866 0
-6025 -986 0
-265 -6025 266 0
265 -6025 -266 0
-6745 986 0
-6145 -1106 0
-385 -6145 386 0
385 -6145 -386 0
-6865 1106 0
-6265 -1226 0
-505 -6265 506 0
505 -6265 -506 0
-6985 1226 0
-145 -6625 -146 0
145 -6625 146 0
-265 -6745 -266 0
265 -6745 266 0
-385 -6865 -386 0
385 -6865 386 0
-505 -6985 -506 0
505 -6985 506 0
-625 -7105 -626 0
625 -7105 626 0
7946 -26 27 0
7946 26 -27 0
7946 -746 747 0
7946 746 -747 0
8066 -146 147 0
8066 146 -147 0
8066 -866 867 0
8066 866 -867 0
8186 -266 267 0
8186 266 -267 0
8186 -986 987 0
8186 986 -987 0
8306 -386 387 0
8306 386 -387 0
8306 -1106 1107 0
8306 1106 -1107 0
8426 -506 507 0
8426 506 -507 0
8426 -1226 1227 0
8426 1226 -1227 0
8546 -626 627 0
8546 626 -627 0
8546 -1346 1347 0
8546 1346 -1347 0
-26 -5786 -27 0
26 -5786 27 0
-5906 -867 0
-146 -5906 147 0
146 -5906 -147 0
-6626 867 0
-6026 -987 0
-266 -6026 267 0
266 -6026 -267 0
-6746 987 0
-6146 -1107 0
-386 -6146 387 0
386 -6146 -387 0
-6866 1107 0
-6266 -1227 0
-506 -6266 507 0
506 -6266 -507 0
-6986 1227 0
-146 -6626 -147 0
146 -6626 147 0
-266 -6746 -267 0
266 -6746 267 0
-386 -6866 -387 0
386 -6866 387 0
-506 -6986 -507 0
506 -6986 507 0
-626 -7106 -627 0
626 -7106 627 0
7947 -27 28 0
7947 27 -28 0
7947 -747 748 0
7947 747 -748 0
8067 -147 148 0
8067 147 -148 0
8067 -867 868 0
8067 867 -868 0
8187 -267 268 0
8187 267 -268 0
8187 -987 988 0
8187 987 -988 0
8307 -387 388 0
8307 387 -388 0
8307 -1107 1108 0
8307 1107 -1108 0
8427 -507 508 0
8427 507 -508 0
8427 -1227 1228 0
8427 1227 -1228 0
8547 -627 628 0
8547 627 -628 0
8547 -1347 1348 0
8547 1347 -1348 0
-27 -5787 -28 0
27 -5787 28 0
-5907 -868 0
-147 -5907 148 0
147 -5907 -148 0
-6627 868 0
-6027 -988 0
-267 -6027 268 0
267 -6027 -268 0
-6747 988 0
-6147 -1108 0
-387 -6147 388 0
387 -6147 -388 0
-6867 1108 0
-6267 -1228 0
-507 -6267 508 0
507 -6267 -508 0
-6987 1228 0
-147 -6627 -148 0
147 -6627 148 0
-267 -6747 -268 0
267 -6747 268 0
-387 -6867 -388 0
387 -6867 388 0
-507 -6987 -508 0
507 -6987 508 0
-627 -7107 -628 0
627 -7107 628 0
7948 -28 29 0
7948 28 -29 0
7948 -748 749 0
7948 748 -749 0
8068 -148 149 0
8068 148 -149 0
8068 -868 869 0
8068 868 -869 0
8188 -268 269 0
8188 268 -269 0
8188 -988 989 0
8188 988 -989 0
8308 -388 389 0
8308 388 -389 0
8308 -1108 1109 0
8308 1108 -1109 0
8428 -508 509 0
8428 508 -509 0
8428 -1228 1229 0
8428 1228 -1229 0
8548 -628 629 0
8548 628 -629 0
8548 -1348 1349 0
8548 1348 -1349 0
-28 -5788 -29 0
28 -5788 29 0
-5908 -869 0
-148 -5908 149 0
148 -5908 -149 0
-6628 869 0
-6028 -989 0
-268 -6028 269 0
268 -6028 -269 0
-6748 989 0
-6148 -1109 0
-388 -6148 389 0
388 -6148 -389 0
-6868 1109 0
-6268 -1229 0
-508 -6268 509 0
508 -6268 -509 0
-6988 1229 0
-148 -6628 -149 0
148 -6628 149 0
-268 -6748 -269 0
268 -6748 269 0
-388 -6868 -389 0
388 -6868 389 0
-508 -6988 -509 0
508 -6988 509 0
-628 -7108 -629 0
628 -7108 629 0
7949 -29 30 0
7949 29 -30 0
7949 -749 750 0
7949 749 -750 0
8069 -149 150 0
8069 149 -150 0
8069 -869 870 0
8069 869 -870 0
8189 -269 270 0
8189 269 -270 0
8189 -989 990 0
8189 989 -990 0
8309 -389 390 0
8309 389 -390 0
8309 -1109 1110 0
8309 1109 -1110 0
8429 -509 510 0
8429 509 -510 0
8429 -1229 1230 0
8429 1229 -1230 0
8549 -629 630 0
8549 629 -630 0
8549 -1349 1350 0
8549 1349 -1350 0
-29 -5789 -30 0
29 -5789 30 0
-5909 -870 0
-149 -5909 150 0
149 -5909 -150 0
-6629 870 0
-6029 -990 0
-269 -6029 270 0
269 -6029 -270 0
-6749 990 0
-6149 -1110 0
-389 -6149 390 0
389 -6149 -390 0
-6869 1110 0
-6269 -1230 0
-509 -6269 510 0
509 -6269 -510 0
-6989 1230 0
-149 -6629 -150 0
149 -6629 150 0
-269 -6749 -270 0
269 -6749 270 0
-389 -6869 -390 0
389 -6869 390 0
-509 -6989 -510 0
509 -6989 510 0
-629 -7109 -630 0
629 -7109 630 0
7950 -30 31 0
7950 30 -31 0
7950 -750 751 0
7950 750 -751 0
8070 -150 151 0
8070 150 -151 0
8070 -870 871 0
8070 870 -871 0
8190 -270 271 0
8190 270 -271 0
8190 -990 991 0
8190 990 -991 0
8310 -390 391 0
8310 390 -391 0
8310 -1110 1111 0
8310 1110 -1111 0
8430 -510 511 0
8430 510 -511 0
8430 -1230 1231 0
8430 1230 -1231 0
8550 -630 631 0
8550 630 -631 0
8550 -1350 1351 0
8550 1350 -1351 0
-30 -5790 -31 0
30 -5790 31 0
-5910 -871 0
-150 -5910 151 0
150 -5910 -151 0
-6630 871 0
-6030 -991 0
-270 -6030 271 0
270 -6030 -271 0
-6750 991 0
-6150 -1111 0
-390 -6150 391 0
390 -6150 -391 0
-6870 1111 0
-6270 -1231 0
-510 -6270 511 0
510 -6270 -511 0
-6990 1231 0
-150 -6630 -151 0
150 -6630 151 0
-270 -6750 -271 0
270 -6750 271 0
-390 -6870 -391 0
390 -6870 391 0
-510 -6990 -511 0
510 -6990 511 0
-630 -7110 -631 0
630 -7110 631 0
7951 -31 32 0
7951 31 -32 0
7951 -751 752 0
7951 751 -752 0
8071 -151 152 0
8071 151 -152 0
8071 -871 872 0
8071 871 -872 0
8191 -271 272 0
8191 271 -272 0
8191 -991 992 0
8191 991 -992 0
8311 -391 392 0
8311 391 -392 0
8311 -1111 1112 0
8311 1111 -1112 0
8431 -511 512 0
8431 511 -512 0
8431 -1231 1232 0
8431 1231 -1232 0
8551 -631 632 0
8551 631 -632 0
8551 -1351 1352 0
8551 1351 -1352 0
-31 -5791 -32 0
31 -5791 32 0
-5911 -872 0
-151 -5911 152 0
151 -5911 -152 0
-6631 872 0
-6031 -992 0
-271 -6031 272 0
271 -6031 -272 0
-6751 992 0
-6151 -1112 0
-391 -6151 392 0
391 -6151 -392 0
-6871 1112 0
-6271 -1232 0
-511 -6271 512 0
511 -6271 -512 0
-6991 1232 0
-151 -6631 -152 0
151 -6631 152 0
-271 -6751 -272 0
271 -6751 272 0
-391 -6871 -392 0
391 -6871 392 0
-511 -6991 -512 0
511 -6991 512 0
-631 -7111 -632 0
631 -7111 632 0
7952 -32 33 0
7952 32 -33 0
7952 -752 753 0
7952 752 -753 0
8072 -152 153 0
8072 152 -153 0
8072 -872 873 0
8072 872 -873 0
8192 -272 273 0
8192 272 -273 0
8192 -992 993 0
8192 992 -993 0
8312 -392 393 0
8312 392 -393 0
8312 -1112 1113 0
8312 1112 -1113 0
8432 -512 513 0
8432 512 -513 0
8432 -1232 1233 0
8432 1232 -1233 0
8552 -632 633 0
8552 632 -633 0
8552 -1352 1353 0
8552 1352 -1353 0
-32 -5792 -33 0
32 -5792 33 0
-5912 -873 0
-152 -5912 153 0
152 -5912 -153 0
-6632 873 0
-6032 -993 0
-272 -6032 273 0
272 -6032 -273 0
-6752 993 0
-6152 -1113 0
-392 -6152 393 0
392 -6152 -393 0
-6872 1113 0
-6272 -1233 0
-512 -6272 513 0
512 -6272 -513 0
-6992 1233 0
-152 -6632 -153 0
152 -6632 153 0
-272 -6752 -273 0
272 -6752 273 0
-392 -6872 -393 0
392 -6872 393 0
-512 -6992 -513 0
512 -6992 513 0
-632 -7112 -633 0
632 -7112 633 0
7953 -33 34 0
7953 33 -34 0
7953 -753 754 0
7953 753 -754 0
8073 -153 154 0
8073 153 -154 0
8073 -873 874 0
8073 873 -874 0
8193 -273 274 0
8193 273 -274 0
8193 -993 994 0
8193 993 -994 0
8313 -393 394 0
8313 393 -394 0
8313 -1113 1114 0
8313 1113 -1114 0
8433 -513 514 0
8433 513 -514 0
8433 -1233 1234 0
8433 1233 -1234 0
8553 -633 634 0
8553 633 -634 0
8553 -1353 1354 0
8553 1353 -1354 0
-33 -5793 -34 0
33 -5793 34 0
-5913 -874 0
-153 -5913 154 0
153 -5913 -154 0
-6633 874 0
-6033 -994 0
-273 -6033 274 0
273 -6033 -274 0
-6753 994 0
-6153 -1114 0
-393 -6153 394 0
393 -6153 -394 0
-6873 1114 0
-6273 -1234 0
-513 -6273 514 0
513 -6273 -514 0
-6993 1234 0
-153 -6633 -154 0
153 -6633 154 0
-273 -6753 -274 0
273 -6753 274 0
-393 -6873 -394 0
393 -6873 394 0
-513 -6993 -514 0
513 -6993 514 0
-633 -7113 -634 0
633 -7113 634 0
7954 -34 35 0
7954 34 -35 0
7954 -754 755 0
7954 754 -755 0
8074 -154 155 0
8074 154 -155 0
8074 -874 875 0
8074 874 -875 0
8194 -274 275 0
8194 274 -275 0
8194 -994 995 0
8194 994 -995 0
8314 -394 395 0
8314 394 -395 0
8314 -1114 1115 0
8314 1114 -1115 0
8434 -514 515 0
8434 514 -515 0
8434 -1234 1235 0
8434 1234 -1235 0
8554 -634 635 0
8554 634 -635 0
8554 -1354 1355 0
8554 1354 -1355 0
-34 -5794 -35 0
34 -5794 35 0
-5914 -875 0
-154 -5914 155 0
154 -5914 -155 0
-6634 875 0
-6034 -995 0
-274 -6034 275 0
274 -6034 -275 0
-6754 995 0
-6154 -1115 0
-394 -6154 395 0
394 -6154 -395 0
-6874 1115 0
-6274 -1235 0
-514 -6274 515 0
514 -6274 -515 0
-6994 1235 0
-154 -6634 -155 0
154 -6634 155 0
-274 -6754 -275 0
274 -6754 275 0
-394 -6874 -395 0
394 -6874 395 0
-514 -6994 -515 0
514 -6994 515 0
-634 -7114 -635 0
634 -7114 635 0
7955 -35 36 0
7955 35 -36 0
7955 -755 756 0
7955 755 -756 0
8075 -155 156 0
8075 155 -156 0
8075 -875 876 0
8075 875 -876 0
8195 -275 276 0
8195 275 -276 0
8195 -995 996 0
8195 995 -996 0
8315 -395 396 0
8315 395 -396 0
8315 -1115 1116 0
8315 1115 -1116 0
8435 -515 516 0
8435 515 -516 0
8435 -1235 1236 0
8435 1235 -1236 0
8555 -635 636 0
8555 635 -636 0
8555 -1355 1356 0
8555 1355 -1356 0
-35 -5795 -36 0
35 -5795 36 0
-5915 -876 0
-155 -5915 156 0
155 -5915 -156 0
-6635 876 0
-6035 -996 0
-275 -6035 276 0
275 -6035 -276 0
-6755 996 0
-6155 -1116 0
-395 -6155 396 0
395 -6155 -396 0
-6875 1116 0
-6275 -1236 0
-515 -6275 516 0
515 -6275 -516 0
-6995 1236 0
-155 -6635 -156 0
155 -6635 156 0
-275 -6755 -276 0
275 -6755 276 0
-395 -6875 -396 0
395 -6875 396 0
-515 -6995 -516 0
515 -6995 516 0
-635 -7115 -636 0
635 -7115 636 0
7956 -36 37 0
7956 36 -37 0
7956 -756 757 0
7956 756 -757 0
8076 -156 157 0
8076 156 -157 0
8076 -876 877 0
8076 876 -877 0
8196 -276 277 0
8196 276 -277 0
8196 -996 997 0
8196 996 -997 0
8316 -396 397 0
8316 396 -397 0
8316 -1116 1117 0
8316 1116 -1117 0
8436 -516 517 0
8436 516 -517 0
8436 -1236 1237 0
8436 1236 -1237 0
8556 -636 637 0
8556 636 -637 0
8556 -1356 1357 0
8556 1356 -1357 0
-36 -5796 -37 0
36 -5796 37 0
-5916 -877 0
-156 -5916 157 0
156 -5916 -157 0
-6636 877 0
-6036 -997 0
-276 -6036 277 0
276 -6036 -277 0
-6756 997 0
-6156 -1117 0
-396 -6156 397 0
396 -6156 -397 0
-6876 1117 0
-6276 -1237 0
-516 -6276 517 0
516 -6276 -517 0
-6996 1237 0
-156 -6636 -157 0
156 -6636 157 0
-276 -6756 -277 0
276 -6756 277 0
-396 -6876 -397 0
396 -6876 397 0
-516 -6996 -517 0
516 -6996 517 0
-636 -7116 -637 0
636 -7116 637 0
7957 -37 38 0
7957 37 -38 0
7957 -757 758 0
7957 757 -758 0
8077 -157 158 0
8077 157 -158 0
8077 -877 878 0
8077 877 -878 0
8197 -277 278 0
8197 277 -278 0
8197 -997 998 0
8197 997 -998 0
8317 -397 398 0
8317 397 -398 0
8317 -1117 1118 0
8317 1117 -1118 0
8437 -517 518 0
8437 517 -518 0
8437 -1237 1238 0
8437 1237 -1238 0
8557 -637 638 0
8557 637 -638 0
8557 -1357 1358 0
8557 1357 -1358 0
-37 -5797 -38 0
37 -5797 38 0
-5917 -878 0
-157 -5917 158 0
157 -5917 -158 0
-6637 878 0
-6037 -998 0
-277 -6037 278 0
277 -6037 -278 0
-6757 998 0
-6157 -1118 0
-397 -6157 398 0
397 -6157 -398 0
-6877 1118 0
-6277 -1238 0
-517 -6277 518 0
517 -6277 -518 0
-6997 1238 0
-157 -6637 -158 0
157 -6637 158 0
-277 -6757 -278 0
277 -6757 278 0
-397 -6877 -398 0
397 -6877 398 0
-517 -6997 -518 0
517 -6997 518 0
-637 -7117 -638 0
637 -7117 638 0
7958 -38 39 0
7958 38 -39 0
7958 -758 759 0
7958 758 -759 0
8078 -158 159 0
8078 158 -159 0
8078 -878 879 0
8078 878 -879 0
8198 -278 279 0
8198 278 -279 0
8198 -998 999 0
8198 998 -999 0
8318 -398 399 0
8318 398 -399 0
8318 -1118 1119 0
8318 1118 -1119 0
8438 -518 519 0
8438 518 -519 0
8438 -1238 1239 0
8438 1238 -1239 0
8558 -638 639 0
8558 638 -639 0
8558 -1358 1359 0
8558 1358 -1359 0
-38 -5798 -39 0
38 -5798 39 0
-5918 -879 0
-158 -5918 159 0
158 -5918 -159 0
-6638 879 0
-6038 -999 0
-278 -6038 279 0
278 -6038 -279 0
-6758 999 0
-6158 -1119 0
-398 -6158 399 0
398 -6158 -399 0
-6878 1119 0
-6278 -1239 0
-518 -6278 519 0
518 -6278 -519 0
-6998 1239 0
-158 -6638 -159 0
158 -6638 159 0
-278 -6758 -279 0
278 -6758 279 0
-398 -6878 -399 0
398 -6878 399 0
-518 -6998 -519 0
518 -6998 519 0
-638 -7118 -639 0
638 -7118 639 0
7959 -39 40 0
7959 39 -40 0
7959 -759 760 0
7959 759 -760 0
8079 -159 160 0
8079 159 -160 0
8079 -879 880 0
8079 879 -880 0
8199 -279 280 0
8199 279 -280 0
8199 -999 1000 0
8199 999 -1000 0
8319 -399 400 0
8319 399 -400 0
8319 -1119 1120 0
8319 1119 -1120 0
8439 -519 520 0
8439 519 -520 0
8439 -1239 1240 0
8439 1239 -1240 0
8559 -639 640 0
8559 639 -640 0
8559 -1359 1360 0
8559 1359 -1360 0
-39 -5799 -40 0
39 -5799 40 0
-5919 -880 0
-159 -5919 160 0
159 -5919 -160 0
-6639 880 0
-6039 -1000 0
-279 -6039 280 0
279 -6039 -280 0
-6759 1000 0
-6159 -1120 0
-399 -6159 400 0
399 -6159 -400 0
-6879 1120 0
-6279 -1240 0
-519 -6279 520 0
519 -6279 -520 0
-6999 1240 0
-159 -6639 -160 0
159 -6639 160 0
-279 -6759 -280 0
279 -6759 280 0
-399 -6879 -400 0
399 -6879 400 0
-519 -6999 -520 0
519 -6999 520 0
-639 -7119 -640 0
639 -7119 640 0
7960 -40 41 0
7960 40 -41 0
7960 -760 761 0
7960 760 -761 0
8080 -160 161 0
8080 160 -161 0
8080 -880 881 0
8080 880 -881 0
8200 -280 281 0
8200 280 -281 0
8200 -1000 1001 0
8200 1000 -1001 0
8320 -400 401 0
8320 400 -401 0
8320 -1120 1121 0
8320 1120 -1121 0
8440 -520 521 0
8440 520 -521 0
8440 -1240 1241 0
8440 1240 -1241 0
8560 -640 641 0
8560 640 -641 0
8560 -1360 1361 0
8560 1360 -1361 0
-40 -5800 -41 0
40 -5800 41 0
-5920 -881 0
-160 -5920 161 0
160 -5920 -161 0
-6640 881 0
-6040 -1001 0
-280 -6040 281 0
280 -6040 -281 0
-6760 1001 0
-6160 -1121 0
-400 -6160 401 0
400 -6160 -401 0
-6880 1121 0
-6280 -1241 0
-520 -6280 521 0
520 -6280 -521 0
-7000 1241 0
-160 -6640 -161 0
160 -6640 161 0
-280 -6760 -281 0
280 -6760 281 0
-400 -6880 -401 0
400 -6880 401 0
-520 -7000 -521 0
520 -7000 521 0
-640 -7120 -641 0
640 -7120 641 0
7961 -41 42 0
7961 41 -42 0
7961 -761 762 0
7961 761 -762 0
8081 -161 162 0
8081 161 -162 0
8081 -881 882 0
8081 881 -882 0
8201 -281 282 0
8201 281 -282 0
8201 -1001 1002 0
8201 1001 -1002 0
8321 -401 402 0
8321 401 -402 0
8321 -1121 1122 0
8321 1121 -1122 0
8441 -521 522 0
8441 521 -522 0
8441 -1241 1242 0
8441 1241 -1242 0
8561 -641 642 0
8561 641 -642 0
8561 -1361 1362 0
8561 1361 -1362 0
-41 -5801 -42 0
41 -5801 42 0
-5921 -882 0
-161 -5921 162 0
161 -5921 -162 0
-6641 882 0
-6041 -1002 0
-281 -6041 282 0
281 -6041 -282 0
-6761 1002 0
-6161 -1122 0
-401 -6161 402 0
401 -6161 -402 0
-6881 1122 0
-6281 -1242 0
-521 -6281 522 0
521 -6281 -522 0
-7001 1242 0
-161 -6641 -162 0
161 -6641 162 0
-281 -6761 -282 0
281 -6761 282 0
-401 -6881 -402 0
401 -6881 402 0
-521 -7001 -522 0
521 -7001 522 0
-641 -7121 -642 0
641 -7121 642 0
7962 -42 43 0
7962 42 -43 0
7962 -762 763 0
7962 762 -763 0
8082 -162 163 0
8082 162 -163 0
8082 -882 883 0
8082 882 -883 0
8202 -282 283 0
8202 282 -283 0
8202 -1002 1003 0
8202 1002 -1003 0
8322 -402 403 0
8322 402 -403 0
8322 -1122 1123 0
8322 1122 -1123 0
8442 -522 523 0
8442 522 -523 0
8442 -1242 1243 0
8442 1242 -1243 0
8562 -642 643 0
8562 642 -643 0
8562 -1362 1363 0
8562 1362 -1363 0
-42 -5802 -43 0
42 -5802 43 0
-5922 -883 0
-162 -5922 163 0
162 -5922 -163 0
-6642 883 0
-6042 -1003 0
-282 -6042 283 0
282 -6042 -283 0
-6762 1003 0
-6162 -1123 0
-402 -6162 403 0
402 -6162 -403 0
-6882 1123 0
-6282 -1243 0
-522 -6282 523 0
522 -6282 -523 0
-7002 1243 0
-162 -6642 -163 0
162 -6642 163 0
-282 -6762 -283 0
282 -6762 283 0
-402 -6882 -403 0
402 -6882 403 0
-522 -7002 -523 0
522 -7002 523 0
-642 -7122 -643 0
642 -7122 643 0
7963 -43 44 0
7963 43 -44 0
7963 -763 764 0
7963 763 -764 0
8083 -163 164 0
8083 163 -164 0
8083 -883 884 0
8083 883 -884 0
8203 -283 284 0
8203 283 -284 0
8203 -1003 1004 0
8203 1003 -1004 0
8323 -403 404 0
8323 403 -404 0
8323 -1123 1124 0
8323 1123 -1124 0
8443 -523 524 0
8443 523 -524 0
8443 -1243 1244 0
8443 1243 -1244 0
8563 -643 644 0
8563 643 -644 0
8563 -1363 1364 0
8563 1363 -1364 0
-43 -5803 -44 0
43 -5803 44 0
-5923 -884 0
-163 -5923 164 0
163 -5923 -164 0
-6643 884 0
-6043 -1004 0
-283 -6043 284 0
283 -6043 -284 0
-6763 1004 0
-6163 -1124 0
-403 -6163 404 0
403 -6163 -404 0
-6883 1124 0
-6283 -1244 0
-523 -6283 524 0
523 -6283 -524 0
-7003 1244 0
-163 -6643 -164 0
163 -6643 164 0
-283 -6763 -284 0
283 -6763 284 0
-403 -6883 -404 0
403 -6883 404 0
-523 -7003 -524 0
523 -7003 524 0
-643 -7123 -644 0
643 -7123 644 0
7964 -44 45 0
7964 44 -45 0
7964 -764 765 0
7964 764 -765 0
8084 -164 165 0
8084 164 -165 0
8084 -884 885 0
8084 884 -885 0
8204 -284 285 0
8204 284 -285 0
8204 -1004 1005 0
8204 1004 -1005 0
8324 -404 405 0
8324 404 -405 0
8324 -1124 1125 0
8324 1124 -1125 0
8444 -524 525 0
8444 524 -525 0
8444 -1244 1245 0
8444 1244 -1245 0
8564 -644 645 0
8564 644 -645 0
8564 -1364 1365 0
8564 1364 -1365 0
-44 -5804 -45 0
44 -5804 45 0
-5924 -885 0
-164 -5924 165 0
164 -5924 -165 0
-6644 885 0
-6044 -1005 0
-284 -6044 285 0
284 -6044 -285 0
-6764 1005 0
-6164 -1125 0
-404 -6164 405 0
404 -6164 -405 0
-6884 1125 0
-6284 -1245 0
-524 -6284 525 0
524 -6284 -525 0
-7004 1245 0
-164 -6644 -165 0
164 -6644 165 0
-284 -6764 -285 0
284 -6764 285 0
-404 -6884 -405 0
404 -6884 405 0
-524 -7004 -525 0
524 -7004 525 0
-644 -7124 -645 0
644 -7124 645 0
7965 -45 46 0
7965 45 -46 0
7965 -765 766 0
7965 765 -766 0
8085 -165 166 0
8085 165 -166 0
8085 -885 886 0
8085 885 -886 0
8205 -285 286 0
8205 285 -286 0
8205 -1005 1006 0
8205 1005 -1006 0
8325 -405 406 0
8325 405 -406 0
8325 -1125 1126 0
8325 1125 -1126 0
8445 -525 526 0
8445 525 -526 0
8445 -1245 1246 0
8445 1245 -1246 0
8565 -645 646 0
8565 645 -646 0
8565 -1365 1366 0
8565 1365 -1366 0
-45 -5805 -46 0
45 -5805 46 0
-5925 -886 0
-165 -5925 166 0
165 -5925 -166 0
-6645 886 0
-6045 -1006 0
-285 -6045 286 0
285 -6045 -286 0
-6765 1006 0
-6165 -1126 0
-405 -6165 406 0
405 -6165 -406 0
-6885 1126 0
-6285 -1246 0
-525 -6285 526 0
525 -6285 -526 0
-7005 1246 0
-165 -6645 -166 0
165 -6645 166 0
-285 -6765 -286 0
285 -6765 286 0
-405 -6885 -406 0
405 -6885 406 0
-525 -7005 -526 0
525 -7005 526 0
-645 -7125 -646 0
645 -7125 646 0
7966 -46 47 0
7966 46 -47 0
7966 -766 767 0
7966 766 -767 0
8086 -166 167 0
8086 166 -167 0
8086 -886 887 0
8086 886 -887 0
8206 -286 287 0
8206 286 -287 0
8206 -1006 1007 0
8206 1006 -1007 0
8326 -406 407 0
8326 406 -407 0
8326 -1126 1127 0
8326 1126 -1127 0
8446 -526 527 0
8446 526 -527 0
8446 -1246 1247 0
8446 1246 -1247 0
8566 -646 647 0
8566 646 -647 0
8566 -1366 1367 0
8566 1366 -1367 0
-46 -5806 -47 0
46 -5806 47 0
-5926 -887 0
-166 -5926 167 0
166 -5926 -167 0
-6646 887 0
-6046 -1007 0
-286 -6046 287 0
286 -6046 -287 0
-6766 1007 0
-6166 -1127 0
-406 -6166 407 0
406 -6166 -407 0
-6886 1127 0
-6286 -1247 0
-526 -6286 527 0
526 -6286 -527 0
-7006 1247 0
-166 -6646 -167 0
166 -6646 167 0
-286 -6766 -287 0
286 -6766 287 0
-406 -6886 -407 0
406 -6886 407 0
-526 -7006 -527 0
526 -7006 527 0
-646 -7126 -647 0
646 -7126 647 0
7967 -47 48 0
7967 47 -48 0
7967 -767 768 0
7967 767 -768 0
8087 -167 168 0
8087 167 -168 0
8087 -887 888 0
8087 887 -888 0
8207 -287 288 0
8207 287 -288 0
8207 -1007 1008 0
8207 1007 -1008 0
8327 -407 408 0
8327 407 -408 0
8327 -1127 1128 0
8327 1127 -1128 0
8447 -527 528 0
8447 527 -528 0
8447 -1247 1248 0
8447 1247 -1248 0
8567 -647 648 0
8567 647 -648 0
8567 -1367 1368 0
8567 1367 -1368 0
-47 -5807 -48 0
47 -5807 48 0
-5927 -888 0
-167 -5927 168 0
167 -5927 -168 0
-6647 888 0
-6047 -1008 0
-287 -6047 288 0
287 -6047 -288 0
-6767 1008 0
-6167 -1128 0
-407 -6167 408 0
407 -6167 -408 0
-6887 1128 0
-6287 -1248 0
-527 -6287 528 0
527 -6287 -528 0
-7007 1248 0
-167 -6647 -168 0
167 -6647 168 0
-287 -6767 -288 0
287 -6767 288 0
-407 -6887 -408 0
407 -6887 408 0
-527 -7007 -528 0
527 -7007 528 0
-647 -7127 -648 0
647 -7127 648 0
7968 -48 49 0
7968 48 -49 0
7968 -768 769 0
7968 768 -769 0
8088 -168 169 0
8088 168 -169 0
8088 -888 889 0
8088 888 -889 0
8208 -288 289 0
8208 288 -289 0
8208 -1008 1009 0
8208 1008 -1009 0
8328 -408 409 0
8328 408 -409 0
8328 -1128 1129 0
8328 1128 -1129 0
8448 -528 529 0
8448 528 -529 0
8448 -1248 1249 0
8448 1248 -1249 0
8568 -648 649 0
8568 648 -649 0
8568 -1368 1369 0
8568 1368 -1369 0
-48 -5808 -49 0
48 -5808 49 0
-5928 -889 0
-168 -5928 169 0
168 -5928 -169 0
-6648 889 0
-6048 -1009 0
-288 -6048 289 0
288 -6048 -289 0
-6768 1009 0
-6168 -1129 0
-408 -6168 409 0
408 -6168 -409 0
-6888 1129 0
-6288 -1249 0
-528 -6288 529 0
528 -6288 -529 0
-7008 1249 0
-168 -6648 -169 0
168 -6648 169 0
-288 -6768 -289 0
288 -6768 289 0
-408 -6888 -409 0
408 -6888 409 0
-528 -7008 -529 0
528 -7008 529 0
-648 -7128 -649 0
648 -7128 649 0
7969 -49 50 0
7969 49 -50 0
7969 -769 770 0
7969 769 -770 0
8089 -169 170 0
8089 169 -170 0
8089 -889 890 0
8089 889 -890 0
8209 -289 290 0
8209 289 -290 0
8209 -1009 1010 0
8209 1009 -1010 0
8329 -409 410 0
8329 409 -410 0
8329 -1129 1130 0
8329 1129 -1130 0
8449 -529 530 0
8449 529 -530 0
8449 -1249 1250 0
8449 1249 -1250 0
8569 -649 650 0
8569 649 -650 0
8569 -1369 1370 0
8569 1369 -1370 0
-49 -5809 -50 0
49 -5809 50 0
-5929 -890 0
-169 -5929 170 0
169 -5929 -170 0
-6649 890 0
-6049 -1010 0
-289 -6049 290 0
289 -6049 -290 0
-6769 1010 0
-6169 -1130 0
-409 -6169 410 0
409 -6169 -410 0
-6889 1130 0
-6289 -1250 0
-529 -6289 530 0
529 -6289 -530 0
-7009 1250 0
-169 -6649 -170 0
169 -6649 170 0
-289 -6769 -290 0
289 -6769 290 0
-409 -6889 -410 0
409 -6889 410 0
-529 -7009 -530 0
529 -7009 530 0
-649 -7129 -650 0
649 -7129 650 0
7970 -50 51 0
7970 50 -51 0
7970 -770 771 0
7970 770 -771 0
8090 -170 171 0
8090 170 -171 0
8090 -890 891 0
8090 890 -891 0
8210 -290 291 0
8210 290 -291 0
8210 -1010 1011 0
8210 1010 -1011 0
8330 -410 411 0
8330 410 -411 0
8330 -1130 1131 0
8330 1130 -1131 0
8450 -530 531 0
8450 530 -531 0
8450 -1250 1251 0
8450 1250 -1251 0
8570 -650 651 0
8570 650 -651 0
8570 -1370 1371 0
8570 1370 -1371 0
-50 -5810 -51 0
50 -5810 51 0
-5930 -891 0
-170 -5930 171 0
170 -5930 -171 0
-6650 891 0
-6050 -1011 0
-290 -6050 291 0
290 -6050 -291 0
-6770 1011 0
-6170 -1131 0
-410 -6170 411 0
410 -6170 -411 0
-6890 1131 0
-6290 -1251 0
-530 -6290 531 0
530 -6290 -531 0
-7010 1251 0
-170 -6650 -171 0
170 -6650 171 0
-290 -6770 -291 0
290 -6770 291 0
-410 -6890 -411 0
410 -6890 411 0
-530 -7010 -531 0
530 -7010 531 0
-650 -7130 -651 0
650 -7130 651 0
7971 -51 52 0
7971 51 -52 0
7971 -771 772 0
7971 771 -772 0
8091 -171 172 0
8091 171 -172 0
8091 -891 892 0
8091 891 -892 0
8211 -291 292 0
8211 291 -292 0
8211 -1011 1012 0
8211 1011 -1012 0
8331 -411 412 0
8331 411 -412 0
8331 -1131 1132 0
8331 1131 -1132 0
8451 -531 532 0
8451 531 -532 0
8451 -1251 1252 0
8451 1251 -1252 0
8571 -651 652 0
8571 651 -652 0
8571 -1371 1372 0
8571 1371 -1372 0
-51 -5811 -52 0
51 -5811 52 0
-5931 -892 0
-171 -5931 172 0
171 -5931 -172 0
-6651 892 0
-6051 -1012 0
-291 -6051 292 0
291 -6051 -292 0
-6771 1012 0
-6171 -1132 0
-411 -6171 412 0
411 -6171 -412 0
-6891 1132 0
-6291 -1252 0
-531 -6291 532 0
531 -6291 -532 0
-7011 1252 0
-171 -6651 -172 0
171 -6651 172 0
-291 -6771 -292 0
291 -6771 292 0
-411 -6891 -412 0
411 -6891 412 0
-531 -7011 -532 0
531 -7011 532 0
-651 -7131 -652 0
651 -7131 652 0
7972 -52 53 0
7972 52 -53 0
7972 -772 773 0
7972 772 -773 0
8092 -172 173 0
8092 172 -173 0
8092 -892 893 0
8092 892 -893 0
8212 -292 293 0
8212 292 -293 0
8212 -1012 1013 0
8212 1012 -1013 0
8332 -412 413 0
8332 412 -413 0
8332 -1132 1133 0
8332 1132 -1133 0
8452 -532 533 0
8452 532 -533 0
8452 -1252 1253 0
8452 1252 -1253 0
8572 -652 653 0
8572 652 -653 0
8572 -1372 1373 0
8572 1372 -1373 0
-52 -5812 -53 0
52 -5812 53 0
-5932 -893 0
-172 -5932 173 0
172 -5932 -173 0
-6652 893 0
-6052 -1013 0
-292 -6052 293 0
292 -6052 -293 0
-6772 1013 0
-6172 -1133 0
-412 -6172 413 0
412 -6172 -413 0
-6892 1133 0
-6292 -1253 0
-532 -6292 533 0
532 -6292 -533 0
-7012 1253 0
-172 -6652 -173 0
172 -6652 173 0
-292 -6772 -293 0
292 -6772 293 0
-412 -6892 -413 0
412 -6892 413 0
-532 -7012 -533 0
532 -7012 533 0
-652 -7132 -653 0
652 -7132 653 0
7973 -53 54 0
7973 53 -54 0
7973 -773 774 0
7973 773 -774 0
8093 -173 174 0
8093 173 -174 0
8093 -893 894 0
8093 893 -894 0
8213 -293 294 0
8213 293 -294 0
8213 -1013 1014 0
8213 1013 -1014 0
8333 -413 414 0
8333 413 -414 0
8333 -1133 1134 0
8333 1133 -1134 0
8453 -533 534 0
8453 533 -534 0
8453 -1253 1254 0
8453 1253 -1254 0
8573 -653 654 0
8573 653 -654 0
8573 -1373 1374 0
8573 1373 -1374 0
-53 -5813 -54 0
53 -5813 54 0
-5933 -894 0
-173 -5933 174 0
173 -5933 -174 0
-6653 894 0
-6053 -1014 0
-293 -6053 294 0
293 -6053 -294 0
-6773 1014 0
-6173 -1134 0
-413 -6173 414 0
413 -6173 -414 0
-6893 1134 0
-6293 -1254 0
-533 -6293 534 0
533 -6293 -534 0
-7013 1254 0
-173 -6653 -174 0
173 -6653 174 0
-293 -6773 -294 0
293 -6773 294 0
-413 -6893 -414 0
413 -6893 414 0
-533 -7013 -534 0
533 -7013 534 0
-653 -7133 -654 0
653 -7133 654 0
7974 -54 55 0
7974 54 -55 0
7974 -774 775 0
7974 774 -775 0
8094 -174 175 0
8094 174 -175 0
8094 -894 895 0
8094 894 -895 0
8214 -294 295 0
8214 294 -295 0
8214 -1014 1015 0
8214 1014 -1015 0
8334 -414 415 0
8334 414 -415 0
8334 -1134 1135 0
8334 1134 -1135 0
8454 -534 535 0
8454 534 -535 0
8454 -1254 1255 0
8454 1254 -1255 0
8574 -654 655 0
8574 654 -655 0
8574 -1374 1375 0
8574 1374 -1375 0
-54 -5814 -55 0
54 -5814 55 0
-5934 -895 0
-174 -5934 175 0
174 -5934 -175 0
-6654 895 0
-6054 -1015 0
-294 -6054 295 0
294 -6054 -295 0
-6774 1015 0
-6174 -1135 0
-414 -6174 415 0
414 -6174 -415 0
-6894 1135 0
-6294 -1255 0
-534 -6294 535 0
534 -6294 -535 0
-7014 1255 0
-174 -6654 -175 0
174 -6654 175 0
-294 -6774 -295 0
294 -6774 295 0
-414 -6894 -415 0
414 -6894 415 0
-534 -7014 -535 0
534 -7014 535 0
-654 -7134 -655 0
654 -7134 655 0
7975 -55 56 0
7975 55 -56 0
7975 -775 776 0
7975 775 -776 0
8095 -175 176 0
8095 175 -176 0
8095 -895 896 0
8095 895 -896 0
8215 -295 296 0
8215 295 -296 0
8215 -1015 1016 0
8215 1015 -1016 0
8335 -415 416 0
8335 415 -416 0
8335 -1135 1136 0
8335 1135 -1136 0
8455 -535 536 0
8455 535 -536 0
8455 -1255 1256 0
8455 1255 -1256 0
8575 -655 656 0
8575 655 -656 0
8575 -1375 1376 0
8575 1375 -1376 0
-55 -5815 -56 0
55 -5815 56 0
-5935 -896 0
-175 -5935 176 0
175 -5935 -176 0
-6655 896 0
-6055 -1016 0
-295 -6055 296 0
295 -6055 -296 0
-6775 1016 0
-6175 -1136 0
-415 -6175 416 0
415 -6175 -416 0
-6895 1136 0
-6295 -1256 0
-535 -6295 536 0
535 -6295 -536 0
-7015 1256 0
-175 -6655 -176 0
175 -6655 176 0
-295 -6775 -296 0
295 -6775 296 0
-415 -6895 -416 0
415 -6895 416 0
-535 -7015 -536 0
535 -7015 536 0
-655 -7135 -656 0
655 -7135 656 0
7976 -56 57 0
7976 56 -57 0
7976 -776 777 0
7976 776 -777 0
8096 -176 177 0
8096 176 -177 0
8096 -896 897 0
8096 896 -897 0
8216 -296 297 0
8216 296 -297 0
8216 -1016 1017 0
8216 1016 -1017 0
8336 -416 417 0
8336 416 -417 0
8336 -1136 1137 0
8336 1136 -1137 0
8456 -536 537 0
8456 536 -537 0
8456 -1256 1257 0
8456 1256 -1257 0
8576 -656 657 0
8576 656 -657 0
8576 -1376 1377 0
8576 1376 -1377 0
-56 -5816 -57 0
56 -5816 57 0
-5936 -897 0
-176 -5936 177 0
176 -5936 -177 0
-6656 897 0
-6056 -1017 0
-296 -6056 297 0
296 -6056 -297 0
-6776 1017 0
-6176 -1137 0
-416 -6176 417 0
416 -6176 -417 0
-6896 1137 0
-6296 -1257 0
-536 -6296 537 0
536 -6296 -537 0
-7016 1257 0
-176 -6656 -177 0
176 -6656 177 0
-296 -6776 -297 0
296 -6776 297 0
-416 -6896 -417 0
416 -6896 417 0
-536 -7016 -537 0
536 -7016 537 0
-656 -7136 -657 0
656 -7136 657 0
7977 -57 58 0
7977 57 -58 0
7977 -777 778 0
7977 777 -778 0
8097 -177 178 0
8097 177 -178 0
8097 -897 898 0
8097 897 -898 0
8217 -297 298 0
8217 297 -298 0
8217 -1017 1018 0
8217 1017 -1018 0
8337 -417 418 0
8337 417 -418 0
8337 -1137 1138 0
8337 1137 -1138 0
8457 -537 538 0
8457 537 -538 0
8457 -1257 1258 0
8457 1257 -1258 0
8577 -657 658 0
8577 657 -658 0
8577 -1377 1378 0
8577 1377 -1378 0
-57 -5817 -58 0
57 -5817 58 0
-5937 -898 0
-177 -5937 178 0
177 -5937 -178 0
-6657 898 0
-6057 -1018 0
-297 -6057 298 0
297 -6057 -298 0
-6777 1018 0
-6177 -1138 0
-417 -6177 418 0
417 -6177 -418 0
-6897 1138 0
-6297 -1258 0
-537 -6297 538 0
537 -6297 -538 0
-7017 1258 0
-177 -6657 -178 0
177 -6657 178 0
-297 -6777 -298 0
297 -6777 298 0
-417 -6897 -418 0
417 -6897 418 0
-537 -7017 -538 0
537 -7017 538 0
-657 -7137 -658 0
657 -7137 658 0
7978 -58 59 0
7978 58 -59 0
7978 -778 779 0
7978 778 -779 0
8098 -178 179 0
8098 178 -179 0
8098 -898 899 0
8098 898 -899 0
8218 -298 299 0
8218 298 -299 0
8218 -1018 1019 0
8218 1018 -1019 0
8338 -418 419 0
8338 418 -419 0
8338 -1138 1139 0
8338 1138 -1139 0
8458 -538 539 0
8458 538 -539 0
8458 -1258 1259 0
8458 1258 -1259 0
8578 -658 659 0
8578 658 -659 0
8578 -1378 1379 0
8578 1378 -1379 0
-58 -5818 -59 0
58 -5818 59 0
-5938 -899 0
-178 -5938 179 0
178 -5938 -179 0
-6658 899 0
-6058 -1019 0
-298 -6058 299 0
298 -6058 -299 0
-6778 1019 0
-6178 -1139 0
-418 -6178 419 0
418 -6178 -419 0
-6898 1139 0
-6298 -1259 0
-538 -6298 539 0
538 -6298 -539 0
-7018 1259 0
-178 -6658 -179 0
178 -6658 179 0
-298 -6778 -299 0
298 -6778 299 0
-418 -6898 -419 0
418 -6898 419 0
-538 -7018 -539 0
538 -7018 539 0
-658 -7138 -659 0
658 -7138 659 0
7979 -59 60 0
7979 59 -60 0
7979 -779 780 0
7979 779 -780 0
8099 -179 180 0
8099 179 -180 0
8099 -899 900 0
8099 899 -900 0
8219 -299 300 0
8219 299 -300 0
8219 -1019 1020 0
8219 1019 -1020 0
8339 -419 420 0
8339 419 -420 0
8339 -1139 1140 0
8339 1139 -1140 0
8459 -539 540 0
8459 539 -540 0
8459 -1259 1260 0
8459 1259 -1260 0
8579 -659 660 0
8579 659 -660 0
8579 -1379 1380 0
8579 1379 -1380 0
-59 -5819 -60 0
59 -5819 60 0
-5939 -900 0
-179 -5939 180 0
179 -5939 -180 0
-6659 900 0
-6059 -1020 0
-299 -6059 300 0
299 -6059 -300 0
-6779 1020 0
-6179 -1140 0
-419 -6179 420 0
419 -6179 -420 0
-6899 1140 0
-6299 -1260 0
-539 -6299 540 0
539 -6299 -540 0
-7019 1260 0
-179 -6659 -180 0
179 -6659 180 0
-299 -6779 -300 0
299 -6779 300 0
-419 -6899 -420 0
419 -6899 420 0
-539 -7019 -540 0
539 -7019 540 0
-659 -7139 -660 0
659 -7139 660 0
7980 -60 61 0
7980 60 -61 0
7980 -780 781 0
7980 780 -781 0
8100 -180 181 0
8100 180 -181 0
8100 -900 901 0
8100 900 -901 0
8220 -300 301 0
8220 300 -301 0
8220 -1020 1021 0
8220 1020 -1021 0
8340 -420 421 0
8340 420 -421 0
8340 -1140 1141 0
8340 1140 -1141 0
8460 -540 541 0
8460 540 -541 0
8460 -1260 1261 0
8460 1260 -1261 0
8580 -660 661 0
8580 660 -661 0
8580 -1380 1381 0
8580 1380 -1381 0
-60 -5820 -61 0
60 -5820 61 0
-5940 -901 0
-180 -5940 181 0
180 -5940 -181 0
-6660 901 0
-6060 -1021 0
-300 -6060 301 0
300 -6060 -301 0
-6780 1021 0
-6180 -1141 0
-420 -6180 421 0
420 -6180 -421 0
-6900 1141 0
-6300 -1261 0
-540 -6300 541 0
540 -6300 -541 0
-7020 1261 0
-180 -6660 -181 0
180 -6660 181 0
-300 -6780 -301 0
300 -6780 301 0
-420 -6900 -421 0
420 -6900 421 0
-540 -7020 -541 0
540 -7020 541 0
-660 -7140 -661 0
660 -7140 661 0
7981 -61 62 0
7981 61 -62 0
7981 -781 782 0
7981 781 -782 0
8101 -181 182 0
8101 181 -182 0
8101 -901 902 0
8101 901 -902 0
8221 -301 302 0
8221 301 -302 0
8221 -1021 1022 0
8221 1021 -1022 0
8341 -421 422 0
8341 421 -422 0
8341 -1141 1142 0
8341 1141 -1142 0
8461 -541 542 0
8461 541 -542 0
8461 -1261 1262 0
8461 1261 -1262 0
8581 -661 662 0
8581 661 -662 0
8581 -1381 1382 0
8581 1381 -1382 0
-61 -5821 -62 0
61 -5821 62 0
-5941 -902 0
-181 -5941 182 0
181 -5941 -182 0
-6661 902 0
-6061 -1022 0
-301 -6061 302 0
301 -6061 -302 0
-6781 1022 0
-6181 -1142 0
-421 -6181 422 0
421 -6181 -422 0
-6901 1142 0
-6301 -1262 0
-541 -6301 542 0
541 -6301 -542 0
-7021 1262 0
-181 -6661 -182 0
181 -6661 182 0
-301 -6781 -302 0
301 -6781 302 0
-421 -6901 -422 0
421 -6901 422 0
-541 -7021 -542 0
541 -7021 542 0
-661 -7141 -662 0
661 -7141 662 0
7982 -62 63 0
7982 62 -63 0
7982 -782 783 0
7982 782 -783 0
8102 -182 183 0
8102 182 -183 0
8102 -902 903 0
8102 902 -903 0
8222 -302 303 0
8222 302 -303 0
8222 -1022 1023 0
8222 1022 -1023 0
8342 -422 423 0
8342 422 -423 0
8342 -1142 1143 0
8342 1142 -1143 0
8462 -542 543 0
8462 542 -543 0
8462 -1262 1263 0
8462 1262 -1263 0
8582 -662 663 0
8582 662 -663 0
8582 -1382 1383 0
8582 1382 -1383 0
-62 -5822 -63 0
62 -5822 63 0
-5942 -903 0
-182 -5942 183 0
182 -5942 -183 0
-6662 903 0
-6062 -1023 0
-302 -6062 303 0
302 -6062 -303 0
-6782 1023 0
-6182 -1143 0
-422 -6182 423 0
422 -6182 -423 0
-6902 1143 0
-6302 -1263 0
-542 -6302 543 0
542 -6302 -543 0
-7022 1263 0
-182 -6662 -183 0
182 -6662 183 0
-302 -6782 -303 0
302 -6782 303 0
-422 -6902 -423 0
422 -6902 423 0
-542 -7022 -543 0
542 -7022 543 0
-662 -7142 -663 0
662 -7142 663 0
7983 -63 64 0
7983 63 -64 0
7983 -783 784 0
7983 783 -784 0
8103 -183 184 0
8103 183 -184 0
8103 -903 904 0
8103 903 -904 0
8223 -303 304 0
8223 303 -304 0
8223 -1023 1024 0
8223 1023 -1024 0
8343 -423 424 0
8343 423 -424 0
8343 -1143 1144 0
8343 1143 -1144 0
8463 -543 544 0
8463 543 -544 0
8463 -1263 1264 0
8463 1263 -1264 0
8583 -663 664 0
8583 663 -664 0
8583 -1383 1384 0
8583 1383 -1384 0
-63 -5823 -64 0
63 -5823 64 0
-5943 -904 0
-183 -5943 184 0
183 -5943 -184 0
-6663 904 0
-6063 -1024 0
-303 -6063 304 0
303 -6063 -304 0
-6783 1024 0
-6183 -1144 0
-423 -6183 424 0
423 -6183 -424 0
-6903 1144 0
-6303 -1264 0
-543 -6303 544 0
543 -6303 -544 0
-7023 1264 0
-183 -6663 -184 0
183 -6663 184 0
-303 -6783 -304 0
303 -6783 304 0
-423 -6903 -424 0
423 -6903 424 0
-543 -7023 -544 0
543 -7023 544 0
-663 -7143 -664 0
663 -7143 664 0
7984 -64 65 0
7984 64 -65 0
7984 -784 785 0
7984 784 -785 0
8104 -184 185 0
8104 184 -185 0
8104 -904 905 0
8104 904 -905 0
8224 -304 305 0
8224 304 -305 0
8224 -1024 1025 0
8224 1024 -1025 0
8344 -424 425 0
8344 424 -425 0
8344 -1144 1145 0
8344 1144 -1145 0
8464 -544 545 0
8464 544 -545 0
8464 -1264 1265 0
8464 1264 -1265 0
8584 -664 665 0
8584 664 -665 0
8584 -1384 1385 0
8584 1384 -1385 0
-64 -5824 -65 0
64 -5824 65 0
-5944 -905 0
-184 -5944 185 0
184 -5944 -185 0
-6664 905 0
-6064 -1025 0
-304 -6064 305 0
304 -6064 -305 0
-6784 1025 0
-6184 -1145 0
-424 -6184 425 0
424 -6184 -425 0
-6904 1145 0
-6304 -1265 0
-544 -6304 545 0
544 -6304 -545 0
-7024 1265 0
-184 -6664 -185 0
184 -6664 185 0
-304 -6784 -305 0
304 -6784 305 0
-424 -6904 -425 0
424 -6904 425 0
-544 -7024 -545 0
544 -7024 545 0
-664 -7144 -665 0
664 -7144 665 0
7985 -65 66 0
7985 65 -66 0
7985 -785 786 0
7985 785 -786 0
8105 -185 186 0
8105 185 -186 0
8105 -905 906 0
8105 905 -906 0
8225 -305 306 0
8225 305 -306 0
8225 -1025 1026 0
8225 1025 -1026 0
8345 -425 426 0
8345 425 -426 0
8345 -1145 1146 0
8345 1145 -1146 0
8465 -545 546 0
8465 545 -546 0
8465 -1265 1266 0
8465 1265 -1266 0
8585 -665 666 0
8585 665 -666 0
8585 -1385 1386 0
8585 1385 -1386 0
-65 -5825 -66 0
65 -5825 66 0
-5945 -906 0
-185 -5945 186 0
185 -5945 -186 0
-6665 906 0
-6065 -1026 0
-305 -6065 306 0
305 -6065 -306 0
-6785 1026 0
-6185 -1146 0
-425 -6185 426 0
425 -6185 -426 0
-6905 1146 0
-6305 -1266 0
-545 -6305 546 0
545 -6305 -546 0
-7025 1266 0
-185 -6665 -186 0
185 -6665 186 0
-305 -6785 -306 0
305 -6785 306 0
-425 -6905 -426 0
425 -6905 426 0
-545 -7025 -546 0
545 -7025 546 0
-665 -7145 -666 0
665 -7145 666 0
7986 -66 67 0
7986 66 -67 0
7986 -786 787 0
7986 786 -787 0
8106 -186 187 0
8106 186 -187 0
8106 -906 907 0
8106 906 -907 0
8226 -306 307 0
8226 306 -307 0
8226 -1026 1027 0
8226 1026 -1027 0
8346 -426 427 0
8346 426 -427 0
8346 -1146 1147 0
8346 1146 -1147 0
8466 -546 547 0
8466 546 -547 0
8466 -1266 1267 0
8466 1266 -1267 0
8586 -666 667 0
8586 666 -667 0
8586 -1386 1387 0
8586 1386 -1387 0
-66 -5826 -67 0
66 -5826 67 0
-5946 -907 0
-186 -5946 187 0
186 -5946 -187 0
-6666 907 0
-6066 -1027 0
-306 -6066 307 0
306 -6066 -307 0
-6786 1027 0
-6186 -1147 0
-426 -6186 427 0
426 -6186 -427 0
-6906 1147 0
-6306 -1267 0
-546 -6306 547 0
546 -6306 -547 0
-7026 1267 0
-186 -6666 -187 0
186 -6666 187 0
-306 -6786 -307 0
306 -6786 307 0
-426 -6906 -427 0
426 -6906 427 0
-546 -7026 -547 0
546 -7026 547 0
-666 -7146 -667 0
666 -7146 667 0
7987 -67 68 0
7987 67 -68 0
7987 -787 788 0
7987 787 -788 0
8107 -187 188 0
8107 187 -188 0
8107 -907 908 0
8107 907 -908 0
8227 -307 308 0
8227 307 -308 0
8227 -1027 1028 0
8227 1027 -1028 0
8347 -427 428 0
8347 427 -428 0
8347 -1147 1148 0
8347 1147 -1148 0
8467 -547 548 0
8467 547 -548 0
8467 -1267 1268 0
8467 1267 -1268 0
8587 -667 668 0
8587 667 -668 0
8587 -1387 1388 0
8587 1387 -1388 0
-67 -5827 -68 0
67 -5827 68 0
-5947 -908 0
-187 -5947 188 0
187 -5947 -188 0
-6667 908 0
-6067 -1028 0
-307 -6067 308 0
307 -6067 -308 0
-6787 1028 0
-6187 -1148 0
-427 -6187 428 0
427 -6187 -428 0
-6907 1148 0
-6307 -1268 0
-547 -6307 548 0
547 -6307 -548 0
-7027 1268 0
-187 -6667 -188 0
187 -6667 188 0
-307 -6787 -308 0
307 -6787 308 0
-427 -6907 -428 0
427 -6907 428 0
-547 -7027 -548 0
547 -7027 548 0
-667 -7147 -668 0
667 -7147 668 0
7988 -68 69 0
7988 68 -69 0
7988 -788 789 0
7988 788 -789 0
8108 -188 189 0
8108 188 -189 0
8108 -908 909 0
8108 908 -909 0
8228 -308 309 0
8228 308 -309 0
8228 -1028 1029 0
8228 1028 -1029 0
8348 -428 429 0
8348 428 -429 0
8348 -1148 1149 0
8348 1148 -1149 0
8468 -548 549 0
8468 548 -549 0
8468 -1268 1269 0
8468 1268 -1269 0
8588 -668 669 0
8588 668 -669 0
8588 -1388 1389 0
8588 1388 -1389 0
-68 -5828 -69 0
68 -5828 69 0
-5948 -909 0
-188 -5948 189 0
188 -5948 -189 0
-6668 909 0
-6068 -1029 0
-308 -6068 309 0
308 -6068 -309 0
-6788 1029 0
-6188 -1149 0
-428 -6188 429 0
428 -6188 -429 0
-6908 1149 0
-6308 -1269 0
-548 -6308 549 0
548 -6308 -549 0
-7028 1269 0
-188 -6668 -189 0
188 -6668 189 0
-308 -6788 -309 0
308 -6788 309 0
-428 -6908 -429 0
428 -6908 429 0
-548 -7028 -549 0
548 -7028 549 0
-668 -7148 -669 0
668 -7148 669 0
7989 -69 70 0
7989 69 -70 0
7989 -789 790 0
7989 789 -790 0
8109 -189 190 0
8109 189 -190 0
8109 -909 910 0
8109 909 -910 0
8229 -309 310 0
8229 309 -310 0
8229 -1029 1030 0
8229 1029 -1030 0
8349 -429 430 0
8349 429 -430 0
8349 -1149 1150 0
8349 1149 -1150 0
8469 -549 550 0
8469 549 -550 0
8469 -1269 1270 0
8469 1269 -1270 0
8589 -669 670 0
8589 669 -670 0
8589 -1389 1390 0
8589 1389 -1390 0
-69 -5829 -70 0
69 -5829 70 0
-5949 -910 0
-189 -5949 190 0
189 -5949 -190 0
-6669 910 0
-6069 -1030 0
-309 -6069 310 0
309 -6069 -310 0
-6789 1030 0
-6189 -1150 0
-429 -6189 430 0
429 -6189 -430 0
-6909 1150 0
-6309 -1270 0
-549 -6309 550 0
549 -6309 -550 0
-7029 1270 0
-189 -6669 -190 0
189 -6669 190 0
-309 -6789 -310 0
309 -6789 310 0
-429 -6909 -430 0
429 -6909 430 0
-549 -7029 -550 0
549 -7029 550 0
-669 -7149 -670 0
669 -7149 670 0
7990 -70 71 0
7990 70 -71 0
7990 -790 791 0
7990 790 -791 0
8110 -190 191 0
8110 190 -191 0
8110 -910 911 0
8110 910 -911 0
8230 -310 311 0
8230 310 -311 0
8230 -1030 1031 0
8230 1030 -1031 0
8350 -430 431 0
8350 430 -431 0
8350 -1150 1151 0
8350 1150 -1151 0
8470 -550 551 0
8470 550 -551 0
8470 -1270 1271 0
8470 1270 -1271 0
8590 -670 671 0
8590 670 -671 0
8590 -1390 1391 0
8590 1390 -1391 0
-70 -5830 -71 0
70 -5830 71 0
-5950 -911 0
-190 -5950 191 0
190 -5950 -191 0
-6670 911 0
-6070 -1031 0
-310 -6070 311 0
310 -6070 -311 0
-6790 1031 0
-6190 -1151 0
-430 -6190 431 0
430 -6190 -431 0
-6910 1151 0
-6310 -1271 0
-550 -6310 551 0
550 -6310 -551 0
-7030 1271 0
-190 -6670 -191 0
190 -6670 191 0
-310 -6790 -311 0
310 -6790 311 0
-430 -6910 -431 0
430 -6910 431 0
-550 -7030 -551 0
550 -7030 551 0
-670 -7150 -671 0
670 -7150 671 0
7991 -71 72 0
7991 71 -72 0
7991 -791 792 0
7991 791 -792 0
8111 -191 192 0
8111 191 -192 0
8111 -911 912 0
8111 911 -912 0
8231 -311 312 0
8231 311 -312 0
8231 -1031 1032 0
8231 1031 -1032 0
8351 -431 432 0
8351 431 -432 0
8351 -1151 1152 0
8351 1151 -1152 0
8471 -551 552 0
8471 551 -552 0
8471 -1271 1272 0
8471 1271 -1272 0
8591 -671 672 0
8591 671 -672 0
8591 -1391 1392 0
8591 1391 -1392 0
-71 -5831 -72 0
71 -5831 72 0
-5951 -912 0
-191 -5951 192 0
191 -5951 -192 0
-6671 912 0
-6071 -1032 0
-311 -6071 312 0
311 -6071 -312 0
-6791 1032 0
-6191 -1152 0
-431 -6191 432 0
431 -6191 -432 0
-6911 1152 0
-6311 -1272 0
-551 -6311 552 0
551 -6311 -552 0
-7031 1272 0
-191 -6671 -192 0
191 -6671 192 0
-311 -6791 -312 0
311 -6791 312 0
-431 -6911 -432 0
431 -6911 432 0
-551 -7031 -552 0
551 -7031 552 0
-671 -7151 -672 0
671 -7151 672 0
7992 -72 73 0
7992 72 -73 0
7992 -792 793 0
7992 792 -793 0
8112 -192 193 0
8112 192 -193 0
8112 -912 913 0
8112 912 -913 0
8232 -312 313 0
8232 312 -313 0
8232 -1032 1033 0
8232 1032 -1033 0
8352 -432 433 0
8352 432 -433 0
8352 -1152 1153 0
8352 1152 -1153 0
8472 -552 553 0
8472 552 -553 0
8472 -1272 1273 0
8472 1272 -1273 0
8592 -672 673 0
8592 672 -673 0
8592 -1392 1393 0
8592 1392 -1393 0
-72 -5832 -73 0
72 -5832 73 0
-5952 -913 0
-192 -5952 193 0
192 -5952 -193 0
-6672 913 0
-6072 -1033 0
-312 -6072 313 0
312 -6072 -313 0
-6792 1033 0
-6192 -1153 0
-432 -6192 433 0
432 -6192 -433 0
-6912 1153 0
-6312 -1273 0
-552 -6312 553 0
552 -6312 -553 0
-7032 1273 0
-192 -6672 -193 0
192 -6672 193 0
-312 -6792 -313 0
312 -6792 313 0
-432 -6912 -433 0
432 -6912 433 0
-552 -7032 -553 0
552 -7032 553 0
-672 -7152 -673 0
672 -7152 673 0
7993 -73 74 0
7993 73 -74 0
7993 -793 794 0
7993 793 -794 0
8113 -193 194 0
8113 193 -194 0
8113 -913 914 0
8113 913 -914 0
8233 -313 314 0
8233 313 -314 0
8233 -1033 1034 0
8233 1033 -1034 0
8353 -433 434 0
8353 433 -434 0
8353 -1153 1154 0
8353 1153 -1154 0
8473 -553 554 0
8473 553 -554 0
8473 -1273 1274 0
8473 1273 -1274 0
8593 -673 674 0
8593 673 -674 0
8593 -1393 1394 0
8593 1393 -1394 0
-73 -5833 -74 0
73 -5833 74 0
-5953 -914 0
-193 -5953 194 0
193 -5953 -194 0
-6673 914 0
-6073 -1034 0
-313 -6073 314 0
313 -6073 -314 0
-6793 1034 0
-6193 -1154 0
-433 -6193 434 0
433 -6193 -434 0
-6913 1154 0
-6313 -1274 0
-553 -6313 554 0
553 -6313 -554 0
-7033 1274 0
-193 -6673 -194 0
193 -6673 194 0
-313 -6793 -314 0
313 -6793 314 0
-433 -6913 -434 0
433 -6913 434 0
-553 -7033 -554 0
553 -7033 554 0
-673 -7153 -674 0
673 -7153 674 0
7994 -74 75 0
7994 74 -75 0
7994 -794 795 0
7994 794 -795 0
8114 -194 195 0
8114 194 -195 0
8114 -914 915 0
8114 914 -915 0
8234 -314 315 0
8234 314 -315 0
8234 -1034 1035 0
8234 1034 -1035 0
8354 -434 435 0
8354 434 -435 0
8354 -1154 1155 0
8354 1154 -1155 0
8474 -554 555 0
8474 554 -555 0
8474 -1274 1275 0
8474 1274 -1275 0
8594 -674 675 0
8594 674 -675 0
8594 -1394 1395 0
8594 1394 -1395 0
-74 -5834 -75 0
74 -5834 75 0
-5954 -915 0
-194 -5954 195 0
194 -5954 -195 0
-6674 915 0
-6074 -1035 0
-314 -6074 315 0
314 -6074 -315 0
-6794 1035 0
-6194 -1155 0
-434 -6194 435 0
434 -6194 -435 0
-6914 1155 0
-6314 -1275 0
-554 -6314 555 0
554 -6314 -555 0
-7034 1275 0
-194 -6674 -195 0
194 -6674 195 0
-314 -6794 -315 0
314 -6794 315 0
-434 -6914 -435 0
434 -6914 435 0
-554 -7034 -555 0
554 -7034 555 0
-674 -7154 -675 0
674 -7154 675 0
7995 -75 76 0
7995 75 -76 0
7995 -795 796 0
7995 795 -796 0
8115 -195 196 0
8115 195 -196 0
8115 -915 916 0
8115 915 -916 0
8235 -315 316 0
8235 315 -316 0
8235 -1035 1036 0
8235 1035 -1036 0
8355 -435 436 0
8355 435 -436 0
8355 -1155 1156 0
8355 1155 -1156 0
8475 -555 556 0
8475 555 -556 0
8475 -1275 1276 0
8475 1275 -1276 0
8595 -675 676 0
8595 675 -676 0
8595 -1395 1396 0
8595 1395 -1396 0
-75 -5835 -76 0
75 -5835 76 0
-5955 -916 0
-195 -5955 196 0
195 -5955 -196 0
-6675 916 0
-6075 -1036 0
-315 -6075 316 0
315 -6075 -316 0
-6795 1036 0
-6195 -1156 0
-435 -6195 436 0
435 -6195 -436 0
-6915 1156 0
-6315 -1276 0
-555 -6315 556 0
555 -6315 -556 0
-7035 1276 0
-195 -6675 -196 0
195 -6675 196 0
-315 -6795 -316 0
315 -6795 316 0
-435 -6915 -436 0
435 -6915 436 0
-555 -7035 -556 0
555 -7035 556 0
-675 -7155 -676 0
675 -7155 676 0
7996 -76 77 0
7996 76 -77 0
7996 -796 797 0
7996 796 -797 0
8116 -196 197 0
8116 196 -197 0
8116 -916 917 0
8116 916 -917 0
8236 -316 317 0
8236 316 -317 0
8236 -1036 1037 0
8236 1036 -1037 0
8356 -436 437 0
8356 436 -437 0
8356 -1156 1157 0
8356 1156 -1157 0
8476 -556 557 0
8476 556 -557 0
8476 -1276 1277 0
8476 1276 -1277 0
8596 -676 677 0
8596 676 -677 0
8596 -1396 1397 0
8596 1396 -1397 0
-76 -5836 -77 0
76 -5836 77 0
-5956 -917 0
-196 -5956 197 0
196 -5956 -197 0
-6676 917 0
-6076 -1037 0
-316 -6076 317 0
316 -6076 -317 0
-6796 1037 0
-6196 -1157 0
-436 -6196 437 0
436 -6196 -437 0
-6916 1157 0
-6316 -1277 0
-556 -6316 557 0
556 -6316 -557 0
-7036 1277 0
-196 -6676 -197 0
196 -6676 197 0
-316 -6796 -317 0
316 -6796 317 0
-436 -6916 -437 0
436 -6916 437 0
-556 -7036 -557 0
556 -7036 557 0
-676 -7156 -677 0
676 -7156 677 0
7997 -77 78 0
7997 77 -78 0
7997 -797 798 0
7997 797 -798 0
8117 -197 198 0
8117 197 -198 0
8117 -917 918 0
8117 917 -918 0
8237 -317 318 0
8237 317 -318 0
8237 -1037 1038 0
8237 1037 -1038 0
8357 -437 438 0
8357 437 -438 0
8357 -1157 1158 0
8357 1157 -1158 0
8477 -557 558 0
8477 557 -558 0
8477 -1277 1278 0
8477 1277 -1278 0
8597 -677 678 0
8597 677 -678 0
8597 -1397 1398 0
8597 1397 -1398 0
-77 -5837 -78 0
77 -5837 78 0
-5957 -918 0
-197 -5957 198 0
197 -5957 -198 0
-6677 918 0
-6077 -1038 0
-317 -6077 318 0
317 -6077 -318 0
-6797 1038 0
-6197 -1158 0
-437 -6197 438 0
437 -6197 -438 0
-6917 1158 0
-6317 -1278 0
-557 -6317 558 0
557 -6317 -558 0
-7037 1278 0
-197 -6677 -198 0
197 -6677 198 0
-317 -6797 -318 0
317 -6797 318 0
-437 -6917 -438 0
437 -6917 438 0
-557 -7037 -558 0
557 -7037 558 0
-677 -7157 -678 0
677 -7157 678 0
7998 -78 79 0
7998 78 -79 0
7998 -798 799 0
7998 798 -799 0
8118 -198 199 0
8118 198 -199 0
8118 -918 919 0
8118 918 -919 0
8238 -318 319 0
8238 318 -319 0
8238 -1038 1039 0
8238 1038 -1039 0
8358 -438 439 0
8358 438 -439 0
8358 -1158 1159 0
8358 1158 -1159 0
8478 -558 559 0
8478 558 -559 0
8478 -1278 1279 0
8478 1278 -1279 0
8598 -678 679 0
8598 678 -679 0
8598 -1398 1399 0
8598 1398 -1399 0
-78 -5838 -79 0
78 -5838 79 0
-5958 -919 0
-198 -5958 199 0
198 -5958 -199 0
-6678 919 0
-6078 -1039 0
-318 -6078 319 0
318 -6078 -319 0
-6798 1039 0
-6198 -1159 0
-438 -6198 439 0
438 -6198 -439 0
-6918 1159 0
-6318 -1279 0
-558 -6318 559 0
558 -6318 -559 0
-7038 1279 0
-198 -6678 -199 0
198 -6678 199 0
-318 -6798 -319 0
318 -6798 319 0
-438 -6918 -439 0
438 -6918 439 0
-558 -7038 -559 0
558 -7038 559 0
-678 -7158 -679 0
678 -7158 679 0
7999 -79 80 0
7999 79 -80 0
7999 -799 800 0
7999 799 -800 0
8119 -199 200 0
8119 199 -200 0
8119 -919 920 0
8119 919 -920 0
8239 -319 320 0
8239 319 -320 0
8239 -1039 1040 0
8239 1039 -1040 0
8359 -439 440 0
8359 439 -440 0
8359 -1159 1160 0
8359 1159 -1160 0
8479 -559 560 0
8479 559 -560 0
8479 -1279 1280 0
8479 1279 -1280 0
8599 -679 680 0
8599 679 -680 0
8599 -1399 1400 0
8599 1399 -1400 0
-79 -5839 -80 0
79 -5839 80 0
-5959 -920 0
-199 -5959 200 0
199 -5959 -200 0
-6679 920 0
-6079 -1040 0
-319 -6079 320 0
319 -6079 -320 0
-6799 1040 0
-6199 -1160 0
-439 -6199 440 0
439 -6199 -440 0
-6919 1160 0
-6319 -1280 0
-559 -6319 560 0
559 -6319 -560 0
-7039 1280 0
-199 -6679 -200 0
199 -6679 200 0
-319 -6799 -320 0
319 -6799 320 0
-439 -6919 -440 0
439 -6919 440 0
-559 -7039 -560 0
559 -7039 560 0
-679 -7159 -680 0
679 -7159 680 0
8000 -80 81 0
8000 80 -81 0
8000 -800 801 0
8000 800 -801 0
8120 -200 201 0
8120 200 -201 0
8120 -920 921 0
8120 920 -921 0
8240 -320 321 0
8240 320 -321 0
8240 -1040 1041 0
8240 1040 -1041 0
8360 -440 441 0
8360 440 -441 0
8360 -1160 1161 0
8360 1160 -1161 0
8480 -560 561 0
8480 560 -561 0
8480 -1280 1281 0
8480 1280 -1281 0
8600 -680 681 0
8600 680 -681 0
8600 -1400 1401 0
8600 1400 -1401 0
-80 -5840 -81 0
80 -5840 81 0
-5960 -921 0
-200 -5960 201 0
200 -5960 -201 0
-6680 921 0
-6080 -1041 0
-320 -6080 321 0
320 -6080 -321 0
-6800 1041 0
-6200 -1161 0
-440 -6200 441 0
440 -6200 -441 0
-6920 1161 0
-6320 -1281 0
-560 -6320 561 0
560 -6320 -561 0
-7040 1281 0
-200 -6680 -201 0
200 -6680 201 0
-320 -6800 -321 0
320 -6800 321 0
-440 -6920 -441 0
440 -6920 441 0
-560 -7040 -561 0
560 -7040 561 0
-680 -7160 -681 0
680 -7160 681 0
8001 -81 82 0
8001 81 -82 0
8001 -801 802 0
8001 801 -802 0
8121 -201 202 0
8121 201 -202 0
8121 -921 922 0
8121 921 -922 0
8241 -321 322 0
8241 321 -322 0
8241 -1041 1042 0
8241 1041 -1042 0
8361 -441 442 0
8361 441 -442 0
8361 -1161 1162 0
8361 1161 -1162 0
8481 -561 562 0
8481 561 -562 0
8481 -1281 1282 0
8481 1281 -1282 0
8601 -681 682 0
8601 681 -682 0
8601 -1401 1402 0
8601 1401 -1402 0
-81 -5841 -82 0
81 -5841 82 0
-5961 -922 0
-201 -5961 202 0
201 -5961 -202 0
-6681 922 0
-6081 -1042 0
-321 -6081 322 0
321 -6081 -322 0
-6801 1042 0
-6201 -1162 0
-441 -6201 442 0
441 -6201 -442 0
-6921 1162 0
-6321 -1282 0
-561 -6321 562 0
561 -6321 -562 0
-7041 1282 0
-201 -6681 -202 0
201 -6681 202 0
-321 -6801 -322 0
321 -6801 322 0
-441 -6921 -442 0
441 -6921 442 0
-561 -7041 -562 0
561 -7041 562 0
-681 -7161 -682 0
681 -7161 682 0
8002 -82 83 0
8002 82 -83 0
8002 -802 803 0
8002 802 -803 0
8122 -202 203 0
8122 202 -203 0
8122 -922 923 0
8122 922 -923 0
8242 -322 323 0
8242 322 -323 0
8242 -1042 1043 0
8242 1042 -1043 0
8362 -442 443 0
8362 442 -443 0
8362 -1162 1163 0
8362 1162 -1163 0
8482 -562 563 0
8482 562 -563 0
8482 -1282 1283 0
8482 1282 -1283 0
8602 -682 683 0
8602 682 -683 0
8602 -1402 1403 0
8602 1402 -1403 0
-82 -5842 -83 0
82 -5842 83 0
-5962 -923 0
-202 -5962 203 0
202 -5962 -203 0
-6682 923 0
-6082 -1043 0
-322 -6082 323 0
322 -6082 -323 0
-6802 1043 0
-6202 -1163 0
-442 -6202 443 0
442 -6202 -443 0
-6922 1163 0
-6322 -1283 0
-562 -6322 563 0
562 -6322 -563 0
-7042 1283 0
-202 -6682 -203 0
202 -6682 203 0
-322 -6802 -323 0
322 -6802 323 0
-442 -6922 -443 0
442 -6922 443 0
-562 -7042 -563 0
562 -7042 563 0
-682 -7162 -683 0
682 -7162 683 0
8003 -83 84 0
8003 83 -84 0
8003 -803 804 0
8003 803 -804 0
8123 -203 204 0
8123 203 -204 0
8123 -923 924 0
8123 923 -924 0
8243 -323 324 0
8243 323 -324 0
8243 -1043 1044 0
8243 1043 -1044 0
8363 -443 444 0
8363 443 -444 0
8363 -1163 1164 0
8363 1163 -1164 0
8483 -563 564 0
8483 563 -564 0
8483 -1283 1284 0
8483 1283 -1284 0
8603 -683 684 0
8603 683 -684 0
8603 -1403 1404 0
8603 1403 -1404 0
-83 -5843 -84 0
83 -5843 84 0
-5963 -924 0
-203 -5963 204 0
203 -5963 -204 0
-6683 924 0
-6083 -1044 0
-323 -6083 324 0
323 -6083 -324 0
-6803 1044 0
-6203 -1164 0
-443 -6203 444 0
443 -6203 -444 0
-6923 1164 0
-6323 -1284 0
-563 -6323 564 0
563 -6323 -564 0
-7043 1284 0
-203 -6683 -204 0
203 -6683 204 0
-323 -6803 -324 0
323 -6803 324 0
-443 -6923 -444 0
443 -6923 444 0
-563 -7043 -564 0
563 -7043 564 0
-683 -7163 -684 0
683 -7163 684 0
8004 -84 85 0
8004 84 -85 0
8004 -804 805 0
8004 804 -805 0
8124 -204 205 0
8124 204 -205 0
8124 -924 925 0
8124 924 -925 0
8244 -324 325 0
8244 324 -325 0
8244 -1044 1045 0
8244 1044 -1045 0
8364 -444 445 0
8364 444 -445 0
8364 -1164 1165 0
8364 1164 -1165 0
8484 -564 565 0
8484 564 -565 0
8484 -1284 1285 0
8484 1284 -1285 0
8604 -684 685 0
8604 684 -685 0
8604 -1404 1405 0
8604 1404 -1405 0
-84 -5844 -85 0
84 -5844 85 0
-5964 -925 0
-204 -5964 205 0
204 -5964 -205 0
-6684 925 0
-6084 -1045 0
-324 -6084 325 0
324 -6084 -325 0
-6804 1045 0
-6204 -1165 0
-444 -6204 445 0
444 -6204 -445 0
-6924 1165 0
-6324 -1285 0
-564 -6324 565 0
564 -6324 -565 0
-7044 1285 0
-204 -6684 -205 0
204 -6684 205 0
-324 -6804 -325 0
324 -6804 325 0
-444 -6924 -445 0
444 -6924 445 0
-564 -7044 -565 0
564 -7044 565 0
-684 -7164 -685 0
684 -7164 685 0
8005 -85 86 0
8005 85 -86 0
8005 -805 806 0
8005 805 -806 0
8125 -205 206 0
8125 205 -206 0
8125 -925 926 0
8125 925 -926 0
8245 -325 326 0
8245 325 -326 0
8245 -1045 1046 0
8245 1045 -1046 0
8365 -445 446 0
8365 445 -446 0
8365 -1165 1166 0
8365 1165 -1166 0
8485 -565 566 0
8485 565 -566 0
8485 -1285 1286 0
8485 1285 -1286 0
8605 -685 686 0
8605 685 -686 0
8605 -1405 1406 0
8605 1405 -1406 0
-85 -5845 -86 0
85 -5845 86 0
-5965 -926 0
-205 -5965 206 0
205 -5965 -206 0
-6685 926 0
-6085 -1046 0
-325 -6085 326 0
325 -6085 -326 0
-6805 1046 0
-6205 -1166 0
-445 -6205 446 0
445 -6205 -446 0
-6925 1166 0
-6325 -1286 0
-565 -6325 566 0
565 -6325 -566 0
-7045 1286 0
-205 -6685 -206 0
205 -6685 206 0
-325 -6805 -326 0
325 -6805 326 0
-445 -6925 -446 0
445 -6925 446 0
-565 -7045 -566 0
565 -7045 566 0
-685 -7165 -686 0
685 -7165 686 0
8006 -86 87 0
8006 86 -87 0
8006 -806 807 0
8006 806 -807 0
8126 -206 207 0
8126 206 -207 0
8126 -926 927 0
8126 926 -927 0
8246 -326 327 0
8246 326 -327 0
8246 -1046 1047 0
8246 1046 -1047 0
8366 -446 447 0
8366 446 -447 0
8366 -1166 1167 0
8366 1166 -1167 0
8486 -566 567 0
8486 566 -567 0
8486 -1286 1287 0
8486 1286 -1287 0
8606 -686 687 0
8606 686 -687 0
8606 -1406 1407 0
8606 1406 -1407 0
-86 -5846 -87 0
86 -5846 87 0
-5966 -927 0
-206 -5966 207 0
206 -5966 -207 0
-6686 927 0
-6086 -1047 0
-326 -6086 327 0
326 -6086 -327 0
-6806 1047 0
-6206 -1167 0
-446 -6206 447 0
446 -6206 -447 0
-6926 1167 0
-6326 -1287 0
-566 -6326 567 0
566 -6326 -567 0
-7046 1287 0
-206 -6686 -207 0
206 -6686 207 0
-326 -6806 -327 0
326 -6806 327 0
-446 -6926 -447 0
446 -6926 447 0
-566 -7046 -567 0
566 -7046 567 0
-686 -7166 -687 0
686 -7166 687 0
8007 -87 88 0
8007 87 -88 0
8007 -807 808 0
8007 807 -808 0
8127 -207 208 0
8127 207 -208 0
8127 -927 928 0
8127 927 -928 0
8247 -327 328 0
8247 327 -328 0
8247 -1047 1048 0
8247 1047 -1048 0
8367 -447 448 0
8367 447 -448 0
8367 -1167 1168 0
8367 1167 -1168 0
8487 -567 568 0
8487 567 -568 0
8487 -1287 1288 0
8487 1287 -1288 0
8607 -687 688 0
8607 687 -688 0
8607 -1407 1408 0
8607 1407 -1408 0
-87 -5847 -88 0
87 -5847 88 0
-5967 -928 0
-207 -5967 208 0
207 -5967 -208 0
-6687 928 0
-6087 -1048 0
-327 -6087 328 0
327 -6087 -328 0
-6807 1048 0
-6207 -1168 0
-447 -6207 448 0
447 -6207 -448 0
-6927 1168 0
-6327 -1288 0
-567 -6327 568 0
567 -6327 -568 0
-7047 1288 0
-207 -6687 -208 0
207 -6687 208 0
-327 -6807 -328 0
327 -6807 328 0
-447 -6927 -448 0
447 -6927 448 0
-567 -7047 -568 0
567 -7047 568 0
-687 -7167 -688 0
687 -7167 688 0
8008 -88 89 0
8008 88 -89 0
8008 -808 809 0
8008 808 -809 0
8128 -208 209 0
8128 208 -209 0
8128 -928 929 0
8128 928 -929 0
8248 -328 329 0
8248 328 -329 0
8248 -1048 1049 0
8248 1048 -1049 0
8368 -448 449 0
8368 448 -449 0
8368 -1168 1169 0
8368 1168 -1169 0
8488 -568 569 0
8488 568 -569 0
8488 -1288 1289 0
8488 1288 -1289 0
8608 -688 689 0
8608 688 -689 0
8608 -1408 1409 0
8608 1408 -1409 0
-88 -5848 -89 0
88 -5848 89 0
-5968 -929 0
-208 -5968 209 0
208 -5968 -209 0
-6688 929 0
-6088 -1049 0
-328 -6088 329 0
328 -6088 -329 0
-6808 1049 0
-6208 -1169 0
-448 -6208 449 0
448 -6208 -449 0
-6928 1169 0
-6328 -1289 0
-568 -6328 569 0
568 -6328 -569 0
-7048 1289 0
-208 -6688 -209 0
208 -6688 209 0
-328 -6808 -329 0
328 -6808 329 0
-448 -6928 -449 0
448 -6928 449 0
-568 -7048 -569 0
568 -7048 569 0
-688 -7168 -689 0
688 -7168 689 0
8009 -89 90 0
8009 89 -90 0
8009 -809 810 0
8009 809 -810 0
8129 -209 210 0
8129 209 -210 0
8129 -929 930 0
8129 929 -930 0
8249 -329 330 0
8249 329 -330 0
8249 -1049 1050 0
8249 1049 -1050 0
8369 -449 450 0
8369 449 -450 0
8369 -1169 1170 0
8369 1169 -1170 0
8489 -569 570 0
8489 569 -570 0
8489 -1289 1290 0
8489 1289 -1290 0
8609 -689 690 0
8609 689 -690 0
8609 -1409 1410 0
8609 1409 -1410 0
-89 -5849 -90 0
89 -5849 90 0
-5969 -930 0
-209 -5969 210 0
209 -5969 -210 0
-6689 930 0
-6089 -1050 0
-329 -6089 330 0
329 -6089 -330 0
-6809 1050 0
-6209 -1170 0
-449 -6209 450 0
449 -6209 -450 0
-6929 1170 0
-6329 -1290 0
-569 -6329 570 0
569 -6329 -570 0
-7049 1290 0
-209 -6689 -210 0
209 -6689 210 0
-329 -6809 -330 0
329 -6809 330 0
-449 -6929 -450 0
449 -6929 450 0
-569 -7049 -570 0
569 -7049 570 0
-689 -7169 -690 0
689 -7169 690 0
8010 -90 91 0
8010 90 -91 0
8010 -810 811 0
8010 810 -811 0
8130 -210 211 0
8130 210 -211 0
8130 -930 931 0
8130 930 -931 0
8250 -330 331 0
8250 330 -331 0
8250 -1050 1051 0
8250 1050 -1051 0
8370 -450 451 0
8370 450 -451 0
8370 -1170 1171 0
8370 1170 -1171 0
8490 -570 571 0
8490 570 -571 0
8490 -1290 1291 0
8490 1290 -1291 0
8610 -690 691 0
8610 690 -691 0
8610 -1410 1411 0
8610 1410 -1411 0
-90 -5850 -91 0
90 -5850 91 0
-5970 -931 0
-210 -5970 211 0
210 -5970 -211 0
-6690 931 0
-6090 -1051 0
-330 -6090 331 0
330 -6090 -331 0
-6810 1051 0
-6210 -1171 0
-450 -6210 451 0
450 -6210 -451 0
-6930 1171 0
-6330 -1291 0
-570 -6330 571 0
570 -6330 -571 0
-7050 1291 0
-210 -6690 -211 0
210 -6690 211 0
-330 -6810 -331 0
330 -6810 331 0
-450 -6930 -451 0
450 -6930 451 0
-570 -7050 -571 0
570 -7050 571 0
-690 -7170 -691 0
690 -7170 691 0
8011 -91 92 0
8011 91 -92 0
8011 -811 812 0
8011 811 -812 0
8131 -211 212 0
8131 211 -212 0
8131 -931 932 0
8131 931 -932 0
8251 -331 332 0
8251 331 -332 0
8251 -1051 1052 0
8251 1051 -1052 0
8371 -451 452 0
8371 451 -452 0
8371 -1171 1172 0
8371 1171 -1172 0
8491 -571 572 0
8491 571 -572 0
8491 -1291 1292 0
8491 1291 -1292 0
8611 -691 692 0
8611 691 -692 0
8611 -1411 1412 0
8611 1411 -1412 0
-91 -5851 -92 0
91 -5851 92 0
-5971 -932 0
-211 -5971 212 0
211 -5971 -212 0
-6691 932 0
-6091 -1052 0
-331 -6091 332 0
331 -6091 -332 0
-6811 1052 0
-6211 -1172 0
-451 -6211 452 0
451 -6211 -452 0
-6931 1172 0
-6331 -1292 0
-571 -6331 572 0
571 -6331 -572 0
-7051 1292 0
-211 -6691 -212 0
211 -6691 212 0
-331 -6811 -332 0
331 -6811 332 0
-451 -6931 -452 0
451 -6931 452 0
-571 -7051 -572 0
571 -7051 572 0
-691 -7171 -692 0
691 -7171 692 0
8012 -92 93 0
8012 92 -93 0
8012 -812 813 0
8012 812 -813 0
8132 -212 213 0
8132 212 -213 0
8132 -932 933 0
8132 932 -933 0
8252 -332 333 0
8252 332 -333 0
8252 -1052 1053 0
8252 1052 -1053 0
8372 -452 453 0
8372 452 -453 0
8372 -1172 1173 0
8372 1172 -1173 0
8492 -572 573 0
8492 572 -573 0
8492 -1292 1293 0
8492 1292 -1293 0
8612 -692 693 0
8612 692 -693 0
8612 -1412 1413 0
8612 1412 -1413 0
-92 -5852 -93 0
92 -5852 93 0
-5972 -933 0
-212 -5972 213 0
212 -5972 -213 0
-6692 933 0
-6092 -1053 0
-332 -6092 333 0
332 -6092 -333 0
-6812 1053 0
-6212 -1173 0
-452 -6212 453 0
452 -6212 -453 0
-6932 1173 0
-6332 -1293 0
-572 -6332 573 0
572 -6332 -573 0
-7052 1293 0
-212 -6692 -213 0
212 -6692 213 0
-332 -6812 -333 0
332 -6812 333 0
-452 -6932 -453 0
452 -6932 453 0
-572 -7052 -573 0
572 -7052 573 0
-692 -7172 -693 0
692 -7172 693 0
8013 -93 94 0
8013 93 -94 0
8013 -813 814 0
8013 813 -814 0
8133 -213 214 0
8133 213 -214 0
8133 -933 934 0
8133 933 -934 0
8253 -333 334 0
8253 333 -334 0
8253 -1053 1054 0
8253 1053 -1054 0
8373 -453 454 0
8373 453 -454 0
8373 -1173 1174 0
8373 1173 -1174 0
8493 -573 574 0
8493 573 -574 0
8493 -1293 1294 0
8493 1293 -1294 0
8613 -693 694 0
8613 693 -694 0
8613 -1413 1414 0
8613 1413 -1414 0
-93 -5853 -94 0
93 -5853 94 0
-5973 -934 0
-213 -5973 214 0
213 -5973 -214 0
-6693 934 0
-6093 -1054 0
-333 -6093 334 0
333 -6093 -334 0
-6813 1054 0
-6213 -1174 0
-453 -6213 454 0
453 -6213 -454 0
-6933 1174 0
-6333 -1294 0
-573 -6333 574 0
573 -6333 -574 0
-7053 1294 0
-213 -6693 -214 0
213 -6693 214 0
-333 -6813 -334 0
333 -6813 334 0
-453 -6933 -454 0
453 -6933 454 0
-573 -7053 -574 0
573 -7053 574 0
-693 -7173 -694 0
693 -7173 694 0
8014 -94 95 0
8014 94 -95 0
8014 -814 815 0
8014 814 -815 0
8134 -214 215 0
8134 214 -215 0
8134 -934 935 0
8134 934 -935 0
8254 -334 335 0
8254 334 -335 0
8254 -1054 1055 0
8254 1054 -1055 0
8374 -454 455 0
8374 454 -455 0
8374 -1174 1175 0
8374 1174 -1175 0
8494 -574 575 0
8494 574 -575 0
8494 -1294 1295 0
8494 1294 -1295 0
8614 -694 695 0
8614 694 -695 0
8614 -1414 1415 0
8614 1414 -1415 0
-94 -5854 -95 0
94 -5854 95 0
-5974 -935 0
-214 -5974 215 0
214 -5974 -215 0
-6694 935 0
-6094 -1055 0
-334 -6094 335 0
334 -6094 -335 0
-6814 1055 0
-6214 -1175 0
-454 -6214 455 0
454 -6214 -455 0
-6934 1175 0
-6334 -1295 0
-574 -6334 575 0
574 -6334 -575 0
-7054 1295 0
-214 -6694 -215 0
214 -6694 215 0
-334 -6814 -335 0
334 -6814 335 0
-454 -6934 -455 0
454 -6934 455 0
-574 -7054 -575 0
574 -7054 575 0
-694 -7174 -695 0
694 -7174 695 0
8015 -95 96 0
8015 95 -96 0
8015 -815 816 0
8015 815 -816 0
8135 -215 216 0
8135 215 -216 0
8135 -935 936 0
8135 935 -936 0
8255 -335 336 0
8255 335 -336 0
8255 -1055 1056 0
8255 1055 -1056 0
8375 -455 456 0
8375 455 -456 0
8375 -1175 1176 0
8375 1175 -1176 0
8495 -575 576 0
8495 575 -576 0
8495 -1295 1296 0
8495 1295 -1296 0
8615 -695 696 0
8615 695 -696 0
8615 -1415 1416 0
8615 1415 -1416 0
-95 -5855 -96 0
95 -5855 96 0
-5975 -936 0
-215 -5975 216 0
215 -5975 -216 0
-6695 936 0
-6095 -1056 0
-335 -6095 336 0
335 -6095 -336 0
-6815 1056 0
-6215 -1176 0
-455 -6215 456 0
455 -6215 -456 0
-6935 1176 0
-6335 -1296 0
-575 -6335 576 0
575 -6335 -576 0
-7055 1296 0
-215 -6695 -216 0
215 -6695 216 0
-335 -6815 -336 0
335 -6815 336 0
-455 -6935 -456 0
455 -6935 456 0
-575 -7055 -576 0
575 -7055 576 0
-695 -7175 -696 0
695 -7175 696 0
8016 -96 97 0
8016 96 -97 0
8016 -816 817 0
8016 816 -817 0
8136 -216 217 0
8136 216 -217 0
8136 -936 937 0
8136 936 -937 0
8256 -336 337 0
8256 336 -337 0
8256 -1056 1057 0
8256 1056 -1057 0
8376 -456 457 0
8376 456 -457 0
8376 -1176 1177 0
8376 1176 -1177 0
8496 -576 577 0
8496 576 -577 0
8496 -1296 1297 0
8496 1296 -1297 0
8616 -696 697 0
8616 696 -697 0
8616 -1416 1417 0
8616 1416 -1417 0
-96 -5856 -97 0
96 -5856 97 0
-5976 -937 0
-216 -5976 217 0
216 -5976 -217 0
-6696 937 0
-6096 -1057 0
-336 -6096 337 0
336 -6096 -337 0
-6816 1057 0
-6216 -1177 0
-456 -6216 457 0
456 -6216 -457 0
-6936 1177 0
-6336 -1297 0
-576 -6336 577 0
576 -6336 -577 0
-7056 1297 0
-216 -6696 -217 0
216 -6696 217 0
-336 -6816 -337 0
336 -6816 337 0
-456 -6936 -457 0
456 -6936 457 0
-576 -7056 -577 0
576 -7056 577 0
-696 -7176 -697 0
696 -7176 697 0
8017 -97 98 0
8017 97 -98 0
8017 -817 818 0
8017 817 -818 0
8137 -217 218 0
8137 217 -218 0
8137 -937 938 0
8137 937 -938 0
8257 -337 338 0
8257 337 -338 0
8257 -1057 1058 0
8257 1057 -1058 0
8377 -457 458 0
8377 457 -458 0
8377 -1177 1178 0
8377 1177 -1178 0
8497 -577 578 0
8497 577 -578 0
8497 -1297 1298 0
8497 1297 -1298 0
8617 -697 698 0
8617 697 -698 0
8617 -1417 1418 0
8617 1417 -1418 0
-97 -5857 -98 0
97 -5857 98 0
-5977 -938 0
-217 -5977 218 0
217 -5977 -218 0
-6697 938 0
-6097 -1058 0
-337 -6097 338 0
337 -6097 -338 0
-6817 1058 0
-6217 -1178 0
-457 -6217 458 0
457 -6217 -458 0
-6937 1178 0
-6337 -1298 0
-577 -6337 578 0
577 -6337 -578 0
-7057 1298 0
-217 -6697 -218 0
217 -6697 218 0
-337 -6817 -338 0
337 -6817 338 0
-457 -6937 -458 0
457 -6937 458 0
-577 -7057 -578 0
577 -7057 578 0
-697 -7177 -698 0
697 -7177 698 0
8018 -98 99 0
8018 98 -99 0
8018 -818 819 0
8018 818 -819 0
8138 -218 219 0
8138 218 -219 0
8138 -938 939 0
8138 938 -939 0
8258 -338 339 0
8258 338 -339 0
8258 -1058 1059 0
8258 1058 -1059 0
8378 -458 459 0
8378 458 -459 0
8378 -1178 1179 0
8378 1178 -1179 0
8498 -578 579 0
8498 578 -579 0
8498 -1298 1299 0
8498 1298 -1299 0
8618 -698 699 0
8618 698 -699 0
8618 -1418 1419 0
8618 1418 -1419 0
-98 -5858 -99 0
98 -5858 99 0
-5978 -939 0
-218 -5978 219 0
218 -5978 -219 0
-6698 939 0
-6098 -1059 0
-338 -6098 339 0
338 -6098 -339 0
-6818 1059 0
-6218 -1179 0
-458 -6218 459 0
458 -6218 -459 0
-6938 1179 0
-6338 -1299 0
-578 -6338 579 0
578 -6338 -579 0
-7058 1299 0
-218 -6698 -219 0
218 -6698 219 0
-338 -6818 -339 0
338 -6818 339 0
-458 -6938 -459 0
458 -6938 459 0
-578 -7058 -579 0
578 -7058 579 0
-698 -7178 -699 0
698 -7178 699 0
8019 -99 100 0
8019 99 -100 0
8019 -819 820 0
8019 819 -820 0
8139 -219 220 0
8139 219 -220 0
8139 -939 940 0
8139 939 -940 0
8259 -339 340 0
8259 339 -340 0
8259 -1059 1060 0
8259 1059 -1060 0
8379 -459 460 0
8379 459 -460 0
8379 -1179 1180 0
8379 1179 -1180 0
8499 -579 580 0
8499 579 -580 0
8499 -1299 1300 0
8499 1299 -1300 0
8619 -699 700 0
8619 699 -700 0
8619 -1419 1420 0
8619 1419 -1420 0
-99 -5859 -100 0
99 -5859 100 0
-5979 -940 0
-219 -5979 220 0
219 -5979 -220 0
-6699 940 0
-6099 -1060 0
-339 -6099 340 0
339 -6099 -340 0
-6819 1060 0
-6219 -1180 0
-459 -6219 460 0
459 -6219 -460 0
-6939 1180 0
-6339 -1300 0
-579 -6339 580 0
579 -6339 -580 0
-7059 1300 0
-219 -6699 -220 0
219 -6699 220 0
-339 -6819 -340 0
339 -6819 340 0
-459 -6939 -460 0
459 -6939 460 0
-579 -7059 -580 0
579 -7059 580 0
-699 -7179 -700 0
699 -7179 700 0
8020 -100 101 0
8020 100 -101 0
8020 -820 821 0
8020 820 -821 0
8140 -220 221 0
8140 220 -221 0
8140 -940 941 0
8140 940 -941 0
8260 -340 341 0
8260 340 -341 0
8260 -1060 1061 0
8260 1060 -1061 0
8380 -460 461 0
8380 460 -461 0
8380 -1180 1181 0
8380 1180 -1181 0
8500 -580 581 0
8500 580 -581 0
8500 -1300 1301 0
8500 1300 -1301 0
8620 -700 701 0
8620 700 -701 0
8620 -1420 1421 0
8620 1420 -1421 0
-100 -5860 -101 0
100 -5860 101 0
-5980 -941 0
-220 -5980 221 0
220 -5980 -221 0
-6700 941 0
-6100 -1061 0
-340 -6100 341 0
340 -6100 -341 0
-6820 1061 0
-6220 -1181 0
-460 -6220 461 0
460 -6220 -461 0
-6940 1181 0
-6340 -1301 0
-580 -6340 581 0
580 -6340 -581 0
-7060 1301 0
-220 -6700 -221 0
220 -6700 221 0
-340 -6820 -341 0
340 -6820 341 0
-460 -6940 -461 0
460 -6940 461 0
-580 -7060 -581 0
580 -7060 581 0
-700 -7180 -701 0
700 -7180 701 0
8021 -101 102 0
8021 101 -102 0
8021 -821 822 0
8021 821 -822 0
8141 -221 222 0
8141 221 -222 0
8141 -941 942 0
8141 941 -942 0
8261 -341 342 0
8261 341 -342 0
8261 -1061 1062 0
8261 1061 -1062 0
8381 -461 462 0
8381 461 -462 0
8381 -1181 1182 0
8381 1181 -1182 0
8501 -581 582 0
8501 581 -582 0
8501 -1301 1302 0
8501 1301 -1302 0
8621 -701 702 0
8621 701 -702 0
8621 -1421 1422 0
8621 1421 -1422 0
-101 -5861 -102 0
101 -5861 102 0
-5981 -942 0
-221 -5981 222 0
221 -5981 -222 0
-6701 942 0
-6101 -1062 0
-341 -6101 342 0
341 -6101 -342 0
-6821 1062 0
-6221 -1182 0
-461 -6221 462 0
461 -6221 -462 0
-6941 1182 0
-6341 -1302 0
-581 -6341 582 0
581 -6341 -582 0
-7061 1302 0
-221 -6701 -222 0
221 -6701 222 0
-341 -6821 -342 0
341 -6821 342 0
-461 -6941 -462 0
461 -6941 462 0
-581 -7061 -582 0
581 -7061 582 0
-701 -7181 -702 0
701 -7181 702 0
8022 -102 103 0
8022 102 -103 0
8022 -822 823 0
8022 822 -823 0
8142 -222 223 0
8142 222 -223 0
8142 -942 943 0
8142 942 -943 0
8262 -342 343 0
8262 342 -343 0
8262 -1062 1063 0
8262 1062 -1063 0
8382 -462 463 0
8382 462 -463 0
8382 -1182 1183 0
8382 1182 -1183 0
8502 -582 583 0
8502 582 -583 0
8502 -1302 1303 0
8502 1302 -1303 0
8622 -702 703 0
8622 702 -703 0
8622 -1422 1423 0
8622 1422 -1423 0
-102 -5862 -103 0
102 -5862 103 0
-5982 -943 0
-222 -5982 223 0
222 -5982 -223 0
-6702 943 0
-6102 -1063 0
-342 -6102 343 0
342 -6102 -343 0
-6822 1063 0
-6222 -1183 0
-462 -6222 463 0
462 -6222 -463 0
-6942 1183 0
-6342 -1303 0
-582 -6342 583 0
582 -6342 -583 0
-7062 1303 0
-222 -6702 -223 0
222 -6702 223 0
-342 -6822 -343 0
342 -6822 343 0
-462 -6942 -463 0
462 -6942 463 0
-582 -7062 -583 0
582 -7062 583 0
-702 -7182 -703 0
702 -7182 703 0
8023 -103 104 0
8023 103 -104 0
8023 -823 824 0
8023 823 -824 0
8143 -223 224 0
8143 223 -224 0
8143 -943 944 0
8143 943 -944 0
8263 -343 344 0
8263 343 -344 0
8263 -1063 1064 0
8263 1063 -1064 0
8383 -463 464 0
8383 463 -464 0
8383 -1183 1184 0
8383 1183 -1184 0
8503 -583 584 0
8503 583 -584 0
8503 -1303 1304 0
8503 1303 -1304 0
8623 -703 704 0
8623 703 -704 0
8623 -1423 1424 0
8623 1423 -1424 0
-103 -5863 -104 0
103 -5863 104 0
-5983 -944 0
-223 -5983 224 0
223 -5983 -224 0
-6703 944 0
-6103 -1064 0
-343 -6103 344 0
343 -6103 -344 0
-6823 1064 0
-6223 -1184 0
-463 -6223 464 0
463 -6223 -464 0
-6943 1184 0
-6343 -1304 0
-583 -6343 584 0
583 -6343 -584 0
-7063 1304 0
-223 -6703 -224 0
223 -6703 224 0
-343 -6823 -344 0
343 -6823 344 0
-463 -6943 -464 0
463 -6943 464 0
-583 -7063 -584 0
583 -7063 584 0
-703 -7183 -704 0
703 -7183 704 0
8024 -104 105 0
8024 104 -105 0
8024 -824 825 0
8024 824 -825 0
8144 -224 225 0
8144 224 -225 0
8144 -944 945 0
8144 944 -945 0
8264 -344 345 0
8264 344 -345 0
8264 -1064 1065 0
8264 1064 -1065 0
8384 -464 465 0
8384 464 -465 0
8384 -1184 1185 0
8384 1184 -1185 0
8504 -584 585 0
8504 584 -585 0
8504 -1304 1305 0
8504 1304 -1305 0
8624 -704 705 0
8624 704 -705 0
8624 -1424 1425 0
8624 1424 -1425 0
-104 -5864 -105 0
104 -5864 105 0
-5984 -945 0
-224 -5984 225 0
224 -5984 -225 0
-6704 945 0
-6104 -1065 0
-344 -6104 345 0
344 -6104 -345 0
-6824 1065 0
-6224 -1185 0
-464 -6224 465 0
464 -6224 -465 0
-6944 1185 0
-6344 -1305 0
-584 -6344 585 0
584 -6344 -585 0
-7064 1305 0
-224 -6704 -225 0
224 -6704 225 0
-344 -6824 -345 0
344 -6824 345 0
-464 -6944 -465 0
464 -6944 465 0
-584 -7064 -585 0
584 -7064 585 0
-704 -7184 -705 0
704 -7184 705 0
8025 -105 106 0
8025 105 -106 0
8025 -825 826 0
8025 825 -826 0
8145 -225 226 0
8145 225 -226 0
8145 -945 946 0
8145 945 -946 0
8265 -345 346 0
8265 345 -346 0
8265 -1065 1066 0
8265 1065 -1066 0
8385 -465 466 0
8385 465 -466 0
8385 -1185 1186 0
8385 1185 -1186 0
8505 -585 586 0
8505 585 -586 0
8505 -1305 1306 0
8505 1305 -1306 0
8625 -705 706 0
8625 705 -706 0
8625 -1425 1426 0
8625 1425 -1426 0
-105 -5865 -106 0
105 -5865 106 0
-5985 -946 0
-225 -5985 226 0
225 -5985 -226 0
-6705 946 0
-6105 -1066 0
-345 -6105 346 0
345 -6105 -346 0
-6825 1066 0
-6225 -1186 0
-465 -6225 466 0
465 -6225 -466 0
-6945 1186 0
-6345 -1306 0
-585 -6345 586 0
585 -6345 -586 0
-7065 1306 0
-225 -6705 -226 0
225 -6705 226 0
-345 -6825 -346 0
345 -6825 346 0
-465 -6945 -466 0
465 -6945 466 0
-585 -7065 -586 0
585 -7065 586 0
-705 -7185 -706 0
705 -7185 706 0
8026 -106 107 0
8026 106 -107 0
8026 -826 827 0
8026 826 -827 0
8146 -226 227 0
8146 226 -227 0
8146 -946 947 0
8146 946 -947 0
8266 -346 347 0
8266 346 -347 0
8266 -1066 1067 0
8266 1066 -1067 0
8386 -466 467 0
8386 466 -467 0
8386 -1186 1187 0
8386 1186 -1187 0
8506 -586 587 0
8506 586 -587 0
8506 -1306 1307 0
8506 1306 -1307 0
8626 -706 707 0
8626 706 -707 0
8626 -1426 1427 0
8626 1426 -1427 0
-106 -5866 -107 0
106 -5866 107 0
-5986 -947 0
-226 -5986 227 0
226 -5986 -227 0
-6706 947 0
-6106 -1067 0
-346 -6106 347 0
346 -6106 -347 0
-6826 1067 0
-6226 -1187 0
-466 -6226 467 0
466 -6226 -467 0
-6946 1187 0
-6346 -1307 0
-586 -6346 587 0
586 -6346 -587 0
-7066 1307 0
-226 -6706 -227 0
226 -6706 227 0
-346 -6826 -347 0
346 -6826 347 0
-466 -6946 -467 0
466 -6946 467 0
-586 -7066 -587 0
586 -7066 587 0
-706 -7186 -707 0
706 -7186 707 0
8027 -107 108 0
8027 107 -108 0
8027 -827 828 0
8027 827 -828 0
8147 -227 228 0
8147 227 -228 0
8147 -947 948 0
8147 947 -948 0
8267 -347 348 0
8267 347 -348 0
8267 -1067 1068 0
8267 1067 -1068 0
8387 -467 468 0
8387 467 -468 0
8387 -1187 1188 0
8387 1187 -1188 0
8507 -587 588 0
8507 587 -588 0
8507 -1307 1308 0
8507 1307 -1308 0
8627 -707 708 0
8627 707 -708 0
8627 -1427 1428 0
8627 1427 -1428 0
-107 -5867 -108 0
107 -5867 108 0
-5987 -948 0
-227 -5987 228 0
227 -5987 -228 0
-6707 948 0
-6107 -1068 0
-347 -6107 348 0
347 -6107 -348 0
-6827 1068 0
-6227 -1188 0
-467 -6227 468 0
467 -6227 -468 0
-6947 1188 0
-6347 -1308 0
-587 -6347 588 0
587 -6347 -588 0
-7067 1308 0
-227 -6707 -228 0
227 -6707 228 0
-347 -6827 -348 0
347 -6827 348 0
-467 -6947 -468 0
467 -6947 468 0
-587 -7067 -588 0
587 -7067 588 0
-707 -7187 -708 0
707 -7187 708 0
8028 -108 109 0
8028 108 -109 0
8028 -828 829 0
8028 828 -829 0
8148 -228 229 0
8148 228 -229 0
8148 -948 949 0
8148 948 -949 0
8268 -348 349 0
8268 348 -349 0
8268 -1068 1069 0
8268 1068 -1069 0
8388 -468 469 0
8388 468 -469 0
8388 -1188 1189 0
8388 1188 -1189 0
8508 -588 589 0
8508 588 -589 0
8508 -1308 1309 0
8508 1308 -1309 0
8628 -708 709 0
8628 708 -709 0
8628 -1428 1429 0
8628 1428 -1429 0
-108 -5868 -109 0
108 -5868 109 0
-5988 -949 0
-228 -5988 229 0
228 -5988 -229 0
-6708 949 0
-6108 -1069 0
-348 -6108 349 0
348 -6108 -349 0
-6828 1069 0
-6228 -1189 0
-468 -6228 469 0
468 -6228 -469 0
-6948 1189 0
-6348 -1309 0
-588 -6348 589 0
588 -6348 -589 0
-7068 1309 0
-228 -6708 -229 0
228 -6708 229 0
-348 -6828 -349 0
348 -6828 349 0
-468 -6948 -469 0
468 -6948 469 0
-588 -7068 -589 0
588 -7068 589 0
-708 -7188 -709 0
708 -7188 709 0
8029 -109 110 0
8029 109 -110 0
8029 -829 830 0
8029 829 -830 0
8149 -229 230 0
8149 229 -230 0
8149 -949 950 0
8149 949 -950 0
8269 -349 350 0
8269 349 -350 0
8269 -1069 1070 0
8269 1069 -1070 0
8389 -469 470 0
8389 469 -470 0
8389 -1189 1190 0
8389 1189 -1190 0
8509 -589 590 0
8509 589 -590 0
8509 -1309 1310 0
8509 1309 -1310 0
8629 -709 710 0
8629 709 -710 0
8629 -1429 1430 0
8629 1429 -1430 0
-109 -5869 -110 0
109 -5869 110 0
-5989 -950 0
-229 -5989 230 0
229 -5989 -230 0
-6709 950 0
-6109 -1070 0
-349 -6109 350 0
349 -6109 -350 0
-6829 1070 0
-6229 -1190 0
-469 -6229 470 0
469 -6229 -470 0
-6949 1190 0
-6349 -1310 0
-589 -6349 590 0
589 -6349 -590 0
-7069 1310 0
-229 -6709 -230 0
229 -6709 230 0
-349 -6829 -350 0
349 -6829 350 0
-469 -6949 -470 0
469 -6949 470 0
-589 -7069 -590 0
589 -7069 590 0
-709 -7189 -710 0
709 -7189 710 0
8030 -110 111 0
8030 110 -111 0
8030 -830 831 0
8030 830 -831 0
8150 -230 231 0
8150 230 -231 0
8150 -950 951 0
8150 950 -951 0
8270 -350 351 0
8270 350 -351 0
8270 -1070 1071 0
8270 1070 -1071 0
8390 -470 471 0
8390 470 -471 0
8390 -1190 1191 0
8390 1190 -1191 0
8510 -590 591 0
8510 590 -591 0
8510 -1310 1311 0
8510 1310 -1311 0
8630 -710 711 0
8630 710 -711 0
8630 -1430 1431 0
8630 1430 -1431 0
-110 -5870 -111 0
110 -5870 111 0
-5990 -951 0
-230 -5990 231 0
230 -5990 -231 0
-6710 951 0
-6110 -1071 0
-350 -6110 351 0
350 -6110 -351 0
-6830 1071 0
-6230 -1191 0
-470 -6230 471 0
470 -6230 -471 0
-6950 1191 0
-6350 -1311 0
-590 -6350 591 0
590 -6350 -591 0
-7070 1311 0
-230 -6710 -231 0
230 -6710 231 0
-350 -6830 -351 0
350 -6830 351 0
-470 -6950 -471 0
470 -6950 471 0
-590 -7070 -591 0
590 -7070 591 0
-710 -7190 -711 0
710 -7190 711 0
8031 -111 112 0
8031 111 -112 0
8031 -831 832 0
8031 831 -832 0
8151 -231 232 0
8151 231 -232 0
8151 -951 952 0
8151 951 -952 0
8271 -351 352 0
8271 351 -352 0
8271 -1071 1072 0
8271 1071 -1072 0
8391 -471 472 0
8391 471 -472 0
8391 -1191 1192 0
8391 1191 -1192 0
8511 -591 592 0
8511 591 -592 0
8511 -1311 1312 0
8511 1311 -1312 0
8631 -711 712 0
8631 711 -712 0
8631 -1431 1432 0
8631 1431 -1432 0
-111 -5871 -112 0
111 -5871 112 0
-5991 -952 0
-231 -5991 232 0
231 -5991 -232 0
-6711 952 0
-6111 -1072 0
-351 -6111 352 0
351 -6111 -352 0
-6831 1072 0
-6231 -1192 0
-471 -6231 472 0
471 -6231 -472 0
-6951 1192 0
-6351 -1312 0
-591 -6351 592 0
591 -6351 -592 0
-7071 1312 0
-231 -6711 -232 0
231 -6711 232 0
-351 -6831 -352 0
351 -6831 352 0
-471 -6951 -472 0
471 -6951 472 0
-591 -7071 -592 0
591 -7071 592 0
-711 -7191 -712 0
711 -7191 712 0
8032 -112 113 0
8032 112 -113 0
8032 -832 833 0
8032 832 -833 0
8152 -232 233 0
8152 232 -233 0
8152 -952 953 0
8152 952 -953 0
8272 -352 353 0
8272 352 -353 0
8272 -1072 1073 0
8272 1072 -1073 0
8392 -472 473 0
8392 472 -473 0
8392 -1192 1193 0
8392 1192 -1193 0
8512 -592 593 0
8512 592 -593 0
8512 -1312 1313 0
8512 1312 -1313 0
8632 -712 713 0
8632 712 -713 0
8632 -1432 1433 0
8632 1432 -1433 0
-112 -5872 -113 0
112 -5872 113 0
-5992 -953 0
-232 -5992 233 0
232 -5992 -233 0
-6712 953 0
-6112 -1073 0
-352 -6112 353 0
352 -6112 -353 0
-6832 1073 0
-6232 -1193 0
-472 -6232 473 0
472 -6232 -473 0
-6952 1193 0
-6352 -1313 0
-592 -6352 593 0
592 -6352 -593 0
-7072 1313 0
-232 -6712 -233 0
232 -6712 233 0
-352 -6832 -353 0
352 -6832 353 0
-472 -6952 -473 0
472 -6952 473 0
-592 -7072 -593 0
592 -7072 593 0
-712 -7192 -713 0
712 -7192 713 0
8033 -113 114 0
8033 113 -114 0
8033 -833 834 0
8033 833 -834 0
8153 -233 234 0
8153 233 -234 0
8153 -953 954 0
8153 953 -954 0
8273 -353 354 0
8273 353 -354 0
8273 -1073 1074 0
8273 1073 -1074 0
8393 -473 474 0
8393 473 -474 0
8393 -1193 1194 0
8393 1193 -1194 0
8513 -593 594 0
8513 593 -594 0
8513 -1313 1314 0
8513 1313 -1314 0
8633 -713 714 0
8633 713 -714 0
8633 -1433 1434 0
8633 1433 -1434 0
-113 -5873 -114 0
113 -5873 114 0
-5993 -954 0
-233 -5993 234 0
233 -5993 -234 0
-6713 954 0
-6113 -1074 0
-353 -6113 354 0
353 -6113 -354 0
-6833 1074 0
-6233 -1194 0
-473 -6233 474 0
473 -6233 -474 0
-6953 1194 0
-6353 -1314 0
-593 -6353 594 0
593 -6353 -594 0
-7073 1314 0
-233 -6713 -234 0
233 -6713 234 0
-353 -6833 -354 0
353 -6833 354 0
-473 -6953 -474 0
473 -6953 474 0
-593 -7073 -594 0
593 -7073 594 0
-713 -7193 -714 0
713 -7193 714 0
8034 -114 115 0
8034 114 -115 0
8034 -834 835 0
8034 834 -835 0
8154 -234 235 0
8154 234 -235 0
8154 -954 955 0
8154 954 -955 0
8274 -354 355 0
8274 354 -355 0
8274 -1074 1075 0
8274 1074 -1075 0
8394 -474 475 0
8394 474 -475 0
8394 -1194 1195 0
8394 1194 -1195 0
8514 -594 595 0
8514 594 -595 0
8514 -1314 1315 0
8514 1314 -1315 0
8634 -714 715 0
8634 714 -715 0
8634 -1434 1435 0
8634 1434 -1435 0
-114 -5874 -115 0
114 -5874 115 0
-5994 -955 0
-234 -5994 235 0
234 -5994 -235 0
-6714 955 0
-6114 -1075 0
-354 -6114 355 0
354 -6114 -355 0
-6834 1075 0
-6234 -1195 0
-474 -6234 475 0
474 -6234 -475 0
-6954 1195 0
-6354 -1315 0
-594 -6354 595 0
594 -6354 -595 0
-7074 1315 0
-234 -6714 -235 0
234 -6714 235 0
-354 -6834 -355 0
354 -6834 355 0
-474 -6954 -475 0
474 -6954 475 0
-594 -7074 -595 0
594 -7074 595 0
-714 -7194 -715 0
714 -7194 715 0
8035 -115 116 0
8035 115 -116 0
8035 -835 836 0
8035 835 -836 0
8155 -235 236 0
8155 235 -236 0
8155 -955 956 0
8155 955 -956 0
8275 -355 356 0
8275 355 -356 0
8275 -1075 1076 0
8275 1075 -1076 0
8395 -475 476 0
8395 475 -476 0
8395 -1195 1196 0
8395 1195 -1196 0
8515 -595 596 0
8515 595 -596 0
8515 -1315 1316 0
8515 1315 -1316 0
8635 -715 716 0
8635 715 -716 0
8635 -1435 1436 0
8635 1435 -1436 0
-115 -5875 -116 0
115 -5875 116 0
-5995 -956 0
-235 -5995 236 0
235 -5995 -236 0
-6715 956 0
-6115 -1076 0
-355 -6115 356 0
355 -6115 -356 0
-6835 1076 0
-6235 -1196 0
-475 -6235 476 0
475 -6235 -476 0
-6955 1196 0
-6355 -1316 0
-595 -6355 596 0
595 -6355 -596 0
-7075 1316 0
-235 -6715 -236 0
235 -6715 236 0
-355 -6835 -356 0
355 -6835 356 0
-475 -6955 -476 0
475 -6955 476 0
-595 -7075 -596 0
595 -7075 596 0
-715 -7195 -716 0
715 -7195 716 0
8036 -116 117 0
8036 116 -117 0
8036 -836 837 0
8036 836 -837 0
8156 -236 237 0
8156 236 -237 0
8156 -956 957 0
8156 956 -957 0
8276 -356 357 0
8276 356 -357 0
8276 -1076 1077 0
8276 1076 -1077 0
8396 -476 477 0
8396 476 -477 0
8396 -1196 1197 0
8396 1196 -1197 0
8516 -596 597 0
8516 596 -597 0
8516 -1316 1317 0
8516 1316 -1317 0
8636 -716 717 0
8636 716 -717 0
8636 -1436 1437 0
8636 1436 -1437 0
-116 -5876 -117 0
116 -5876 117 0
-5996 -957 0
-236 -5996 237 0
236 -5996 -237 0
-6716 957 0
-6116 -1077 0
-356 -6116 357 0
356 -6116 -357 0
-6836 1077 0
-6236 -1197 0
-476 -6236 477 0
476 -6236 -477 0
-6956 1197 0
-6356 -1317 0
-596 -6356 597 0
596 -6356 -597 0
-7076 1317 0
-236 -6716 -237 0
236 -6716 237 0
-356 -6836 -357 0
356 -6836 357 0
-476 -6956 -477 0
476 -6956 477 0
-596 -7076 -597 0
596 -7076 597 0
-716 -7196 -717 0
716 -7196 717 0
8037 -117 118 0
8037 117 -118 0
8037 -837 838 0
8037 837 -838 0
8157 -237 238 0
8157 237 -238 0
8157 -957 958 0
8157 957 -958 0
8277 -357 358 0
8277 357 -358 0
8277 -1077 1078 0
8277 1077 -1078 0
8397 -477 478 0
8397 477 -478 0
8397 -1197 1198 0
8397 1197 -1198 0
8517 -597 598 0
8517 597 -598 0
8517 -1317 1318 0
8517 1317 -1318 0
8637 -717 718 0
8637 717 -718 0
8637 -1437 1438 0
8637 1437 -1438 0
-117 -5877 -118 0
117 -5877 118 0
-5997 -958 0
-237 -5997 238 0
237 -5997 -238 0
-6717 958 0
-6117 -1078 0
-357 -6117 358 0
357 -6117 -358 0
-6837 1078 0
-6237 -1198 0
-477 -6237 478 0
477 -6237 -478 0
-6957 1198 0
-6357 -1318 0
-597 -6357 598 0
597 -6357 -598 0
-7077 1318 0
-237 -6717 -238 0
237 -6717 238 0
-357 -6837 -358 0
357 -6837 358 0
-477 -6957 -478 0
477 -6957 478 0
-597 -7077 -598 0
597 -7077 598 0
-717 -7197 -718 0
717 -7197 718 0
8038 -118 119 0
8038 118 -119 0
8038 -838 839 0
8038 838 -839 0
8158 -238 239 0
8158 238 -239 0
8158 -958 959 0
8158 958 -959 0
8278 -358 359 0
8278 358 -359 0
8278 -1078 1079 0
8278 1078 -1079 0
8398 -478 479 0
8398 478 -479 0
8398 -1198 1199 0
8398 1198 -1199 0
8518 -598 599 0
8518 598 -599 0
8518 -1318 1319 0
8518 1318 -1319 0
8638 -718 719 0
8638 718 -719 0
8638 -1438 1439 0
8638 1438 -1439 0
-118 -5878 -119 0
118 -5878 119 0
-5998 -959 0
-238 -5998 239 0
238 -5998 -239 0
-6718 959 0
-6118 -1079 0
-358 -6118 359 0
358 -6118 -359 0
-6838 1079 0
-6238 -1199 0
-478 -6238 479 0
478 -6238 -479 0
-6958 1199 0
-6358 -1319 0
-598 -6358 599 0
598 -6358 -599 0
-7078 1319 0
-238 -6718 -239 0
238 -6718 239 0
-358 -6838 -359 0
358 -6838 359 0
-478 -6958 -479 0
478 -6958 479 0
-598 -7078 -599 0
598 -7078 599 0
-718 -7198 -719 0
718 -7198 719 0
8039 -119 120 0
8039 119 -120 0
8039 -839 840 0
8039 839 -840 0
8159 -239 240 0
8159 239 -240 0
8159 -959 960 0
8159 959 -960 0
8279 -359 360 0
8279 359 -360 0
8279 -1079 1080 0
8279 1079 -1080 0
8399 -479 480 0
8399 479 -480 0
8399 -1199 1200 0
8399 1199 -1200 0
8519 -599 600 0
8519 599 -600 0
8519 -1319 1320 0
8519 1319 -1320 0
8639 -719 720 0
8639 719 -720 0
8639 -1439 1440 0
8639 1439 -1440 0
-119 -5879 -120 0
119 -5879 120 0
-5999 -960 0
-239 -5999 240 0
239 -5999 -240 0
-6719 960 0
-6119 -1080 0
-359 -6119 360 0
359 -6119 -360 0
-6839 1080 0
-6239 -1200 0
-479 -6239 480 0
479 -6239 -480 0
-6959 1200 0
-6359 -1320 0
-599 -6359 600 0
599 -6359 -600 0
-7079 1320 0
-239 -6719 -240 0
239 -6719 240 0
-359 -6839 -360 0
359 -6839 360 0
-479 -6959 -480 0
479 -6959 480 0
-599 -7079 -600 0
599 -7079 600 0
-719 -7199 -720 0
719 -7199 720 0
721 0
-1321 0
-1441 2161 0
-1441 2881 0
-1441 721 0
-1441 -841 0
1441 -2161 -2881 -721 841 0
-1 121 -2161 0
1 2161 0
-121 2161 0
1 -121 -2881 0
-1 2881 0
121 2881 0
-1561 2281 0
-1561 3001 0
-1561 841 0
-1561 -961 0
1561 -2281 -3001 -841 961 0
-121 241 -2281 0
121 2281 0
-241 2281 0
121 -241 -3001 0
-121 3001 0
241 3001 0
-1681 2401 0
-1681 3121 0
-1681 961 0
-1681 -1081 0
1681 -2401 -3121 -961 1081 0
-241 361 -2401 0
241 2401 0
-361 2401 0
241 -361 -3121 0
-241 3121 0
361 3121 0
-1801 2521 0
-1801 3241 0
-1801 1081 0
-1801 -1201 0
1801 -2521 -3241 -1081 1201 0
-361 481 -2521 0
361 2521 0
-481 2521 0
361 -481 -3241 0
-361 3241 0
481 3241 0
-1921 2641 0
-1921 3361 0
-1921 1201 0
-1921 -1321 0
1921 -2641 -3361 -1201 1321 0
-481 601 -2641 0
481 2641 0
-601 2641 0
481 -601 -3361 0
-481 3361 0
601 3361 0
3721 4441 0
3721 5161 0
-3721 -4441 -5161 0
-121 1 -4441 0
121 4441 0
-1 4441 0
121 -1 -5161 0
-121 5161 0
1 5161 0
3841 4561 0
3841 5281 0
-3841 -4561 -5281 0
-241 121 -4561 0
241 4561 0
-121 4561 0
241 -121 -5281 0
-241 5281 0
121 5281 0
3961 4681 0
3961 5401 0
-3961 -4681 -5401 0
-361 241 -4681 0
361 4681 0
-241 4681 0
361 -241 -5401 0
-361 5401 0
241 5401 0
4081 4801 0
4081 5521 0
-4081 -4801 -5521 0
-481 361 -4801 0
481 4801 0
-361 4801 0
481 -361 -5521 0
-481 5521 0
361 5521 0
4201 4921 0
4201 5641 0
-4201 -4921 -5641 0
-601 481 -4921 0
601 4921 0
-481 4921 0
601 -481 -5641 0
-601 5641 0
481 5641 0
722 0
-1322 0
-1442 2162 0
-1442 2882 0
-1442 722 0
-1442 -842 0
1442 -2162 -2882 -722 842 0
-2 122 -2162 0
2 2162 0
-122 2162 0
2 -122 -2882 0
-2 2882 0
122 2882 0
-1562 2282 0
-1562 3002 0
-1562 842 0
-1562 -962 0
1562 -2282 -3002 -842 962 0
-122 242 -2282 0
122 2282 0
-242 2282 0
122 -242 -3002 0
-122 3002 0
242 3002 0
-1682 2402 0
-1682 3122 0
-1682 962 0
-1682 -1082 0
1682 -2402 -3122 -962 1082 0
-242 362 -2402 0
242 2402 0
-362 2402 0
242 -362 -3122 0
-242 3122 0
362 3122 0
-1802 2522 0
-1802 3242 0
-1802 1082 0
-1802 -1202 0
1802 -2522 -3242 -1082 1202 0
-362 482 -2522 0
362 2522 0
-482 2522 0
362 -482 -3242 0
-362 3242 0
482 3242 0
-1922 2642 0
-1922 3362 0
-1922 1202 0
-1922 -1322 0
1922 -2642 -3362 -1202 1322 0
-482 602 -2642 0
482 2642 0
-602 2642 0
482 -602 -3362 0
-482 3362 0
602 3362 0
3722 4442 0
3722 5162 0
-3722 -4442 -5162 0
-122 2 -4442 0
122 4442 0
-2 4442 0
122 -2 -5162 0
-122 5162 0
2 5162 0
3842 4562 0
3842 5282 0
-3842 -4562 -5282 0
-242 122 -4562 0
242 4562 0
-122 4562 0
242 -122 -5282 0
-242 5282 0
122 5282 0
3962 4682 0
3962 5402 0
-3962 -4682 -5402 0
-362 242 -4682 0
362 4682 0
-242 4682 0
362 -242 -5402 0
-362 5402 0
242 5402 0
4082 4802 0
4082 5522 0
-4082 -4802 -5522 0
-482 362 -4802 0
482 4802 0
-362 4802 0
482 -362 -5522 0
-482 5522 0
362 5522 0
4202 4922 0
4202 5642 0
-4202 -4922 -5642 0
-602 482 -4922 0
602 4922 0
-482 4922 0
602 -482 -5642 0
-602 5642 0
482 5642 0
723 0
-1323 0
-1443 2163 0
-1443 2883 0
-1443 723 0
-1443 -843 0
1443 -2163 -2883 -723 843 0
-3 123 -2163 0
3 2163 0
-123 2163 0
3 -123 -2883 0
-3 2883 0
123 2883 0
-1563 2283 0
-1563 3003 0
-1563 843 0
-1563 -963 0
1563 -2283 -3003 -843 963 0
-123 243 -2283 0
123 2283 0
-243 2283 0
123 -243 -3003 0
-123 3003 0
243 3003 0
-1683 2403 0
-1683 3123 0
-1683 963 0
-1683 -1083 0
1683 -2403 -3123 -963 1083 0
-243 363 -2403 0
243 2403 0
-363 2403 0
243 -363 -3123 0
-243 3123 0
363 3123 0
-1803 2523 0
-1803 3243 0
-1803 1083 0
-1803 -1203 0
1803 -2523 -3243 -1083 1203 0
-363 483 -2523 0
363 2523 0
-483 2523 0
363 -483 -3243 0
-363 3243 0
483 3243 0
-1923 2643 0
-1923 3363 0
-1923 1203 0
-1923 -1323 0
1923 -2643 -3363 -1203 1323 0
-483 603 -2643 0
483 2643 0
-603 2643 0
483 -603 -3363 0
-483 3363 0
603 3363 0
3723 4443 0
3723 5163 0
-3723 -4443 -5163 0
-123 3 -4443 0
123 4443 0
-3 4443 0
123 -3 -5163 0
-123 5163 0
3 5163 0
3843 4563 0
3843 5283 0
-3843 -4563 -5283 0
-243 123 -4563 0
243 4563 0
-123 4563 0
243 -123 -5283 0
-243 5283 0
123 5283 0
3963 4683 0
3963 5403 0
-3963 -4683 -5403 0
-363 243 -4683 0
363 4683 0
-243 4683 0
363 -243 -5403 0
-363 5403 0
243 5403 0
4083 4803 0
4083 5523 0
-4083 -4803 -5523 0
-483 363 -4803 0
483 4803 0
-363 4803 0
483 -363 -5523 0
-483 5523 0
363 5523 0
4203 4923 0
4203 5643 0
-4203 -4923 -5643 0
-603 483 -4923 0
603 4923 0
-483 4923 0
603 -483 -5643 0
-603 5643 0
483 5643 0
724 0
-1324 0
-1444 2164 0
-1444 2884 0
-1444 724 0
-1444 -844 0
1444 -2164 -2884 -724 844 0
-4 124 -2164 0
4 2164 0
-124 2164 0
4 -124 -2884 0
-4 2884 0
124 2884 0
-1564 2284 0
-1564 3004 0
-1564 844 0
-1564 -964 0
1564 -2284 -3004 -844 964 0
-124 244 -2284 0
124 2284 0
-244 2284 0
124 -244 -3004 0
-124 3004 0
244 3004 0
-1684 2404 0
-1684 3124 0
-1684 964 0
-1684 -1084 0
1684 -2404 -3124 -964 1084 0
-244 364 -2404 0
244 2404 0
-364 2404 0
244 -364 -3124 0
-244 3124 0
364 3124 0
-1804 2524 0
-1804 3244 0
-1804 1084 0
-1804 -1204 0
1804 -2524 -3244 -1084 1204 0
-364 484 -2524 0
364 2524 0
-484 2524 0
364 -484 -3244 0
-364 3244 0
484 3244 0
-1924 2644 0
-1924 3364 0
-1924 1204 0
-1924 -1324 0
1924 -2644 -3364 -1204 1324 0
-484 604 -2644 0
484 2644 0
-604 2644 0
484 -604 -3364 0
-484 3364 0
604 3364 0
3724 4444 0
3724 5164 0
-3724 -4444 -5164 0
-124 4 -4444 0
124 4444 0
-4 4444 0
124 -4 -5164 0
-124 5164 0
4 5164 0
3844 4564 0
3844 5284 0
-3844 -4564 -5284 0
-244 124 -4564 0
244 4564 0
-124 4564 0
244 -124 -5284 0
-244 5284 0
124 5284 0
3964 4684 0
3964 5404 0
-3964 -4684 -5404 0
-364 244 -4684 0
364 4684 0
-244 4684 0
364 -244 -5404 0
-364 5404 0
244 5404 0
4084 4804 0
4084 5524 0
-4084 -4804 -5524 0
-484 364 -4804 0
484 4804 0
-364 4804 0
484 -364 -5524 0
-484 5524 0
364 5524 0
4204 4924 0
4204 5644 0
-4204 -4924 -5644 0
-604 484 -4924 0
604 4924 0
-484 4924 0
604 -484 -5644 0
-604 5644 0
484 5644 0
725 0
-1325 0
-1445 2165 0
-1445 2885 0
-1445 725 0
-1445 -845 0
1445 -2165 -2885 -725 845 0
-5 125 -2165 0
5 2165 0
-125 2165 0
5 -125 -2885 0
-5 2885 0
125 2885 0
-1565 2285 0
-1565 3005 0
-1565 845 0
-1565 -965 0
1565 -2285 -3005 -845 965 0
-125 245 -2285 0
125 2285 0
-245 2285 0
125 -245 -3005 0
-125 3005 0
245 3005 0
-1685 2405 0
-1685 3125 0
-1685 965 0
-1685 -1085 0
1685 -2405 -3125 -965 1085 0
-245 365 -2405 0
245 2405 0
-365 2405 0
245 -365 -3125 0
-245 3125 0
365 3125 0
-1805 2525 0
-1805 3245 0
-1805 1085 0
-1805 -1205 0
1805 -2525 -3245 -1085 1205 0
-365 485 -2525 0
365 2525 0
-485 2525 0
365 -485 -3245 0
-365 3245 0
485 3245 0
-1925 2645 0
-1925 3365 0
-1925 1205 0
-1925 -1325 0
1925 -2645 -3365 -1205 1325 0
-485 605 -2645 0
485 2645 0
-605 2645 0
485 -605 -3365 0
-485 3365 0
605 3365 0
3725 4445 0
3725 5165 0
-3725 -4445 -5165 0
-125 5 -4445 0
125 4445 0
-5 4445 0
125 -5 -5165 0
-125 5165 0
5 5165 0
3845 4565 0
3845 5285 0
-3845 -4565 -5285 0
-245 125 -4565 0
245 4565 0
-125 4565 0
245 -125 -5285 0
-245 5285 0
125 5285 0
3965 4685 0
3965 5405 0
-3965 -4685 -5405 0
-365 245 -4685 0
365 4685 0
-245 4685 0
365 -245 -5405 0
-365 5405 0
245 5405 0
4085 4805 0
4085 5525 0
-4085 -4805 -5525 0
-485 365 -4805 0
485 4805 0
-365 4805 0
485 -365 -5525 0
-485 5525 0
365 5525 0
4205 4925 0
4205 5645 0
-4205 -4925 -5645 0
-605 485 -4925 0
605 4925 0
-485 4925 0
605 -485 -5645 0
-605 5645 0
485 5645 0
726 0
-1326 0
-1446 2166 0
-1446 2886 0
-1446 726 0
-1446 -846 0
1446 -2166 -2886 -726 846 0
-6 126 -2166 0
6 2166 0
-126 2166 0
6 -126 -2886 0
-6 2886 0
126 2886 0
-1566 2286 0
-1566 3006 0
-1566 846 0
-1566 -966 0
1566 -2286 -3006 -846 966 0
-126 246 -2286 0
126 2286 0
-246 2286 0
126 -246 -3006 0
-126 3006 0
246 3006 0
-1686 2406 0
-1686 3126 0
-1686 966 0
-1686 -1086 0
1686 -2406 -3126 -966 1086 0
-246 366 -2406 0
246 2406 0
-366 2406 0
246 -366 -3126 0
-246 3126 0
366 3126 0
-1806 2526 0
-1806 3246 0
-1806 1086 0
-1806 -1206 0
1806 -2526 -3246 -1086 1206 0
-366 486 -2526 0
366 2526 0
-486 2526 0
366 -486 -3246 0
-366 3246 0
486 3246 0
-1926 2646 0
-1926 3366 0
-1926 1206 0
-1926 -1326 0
1926 -2646 -3366 -1206 1326 0
-486 606 -2646 0
486 2646 0
-606 2646 0
486 -606 -3366 0
-486 3366 0
606 3366 0
3726 4446 0
3726 5166 0
-3726 -4446 -5166 0
-126 6 -4446 0
126 4446 0
-6 4446 0
126 -6 -5166 0
-126 5166 0
6 5166 0
3846 4566 0
3846 5286 0
-3846 -4566 -5286 0
-246 126 -4566 0
246 4566 0
-126 4566 0
246 -126 -5286 0
-246 5286 0
126 5286 0
3966 4686 0
3966 5406 0
-3966 -4686 -5406 0
-366 246 -4686 0
366 4686 0
-246 4686 0
366 -246 -5406 0
-366 5406 0
246 5406 0
4086 4806 0
4086 5526 0
-4086 -4806 -5526 0
-486 366 -4806 0
486 4806 0
-366 4806 0
486 -366 -5526 0
-486 5526 0
366 5526 0
4206 4926 0
4206 5646 0
-4206 -4926 -5646 0
-606 486 -4926 0
606 4926 0
-486 4926 0
606 -486 -5646 0
-606 5646 0
486 5646 0
727 0
-1327 0
-1447 2167 0
-1447 2887 0
-1447 727 0
-1447 -847 0
1447 -2167 -2887 -727 847 0
-7 127 -2167 0
7 2167 0
-127 2167 0
7 -127 -2887 0
-7 2887 0
127 2887 0
-1567 2287 0
-1567 3007 0
-1567 847 0
-1567 -967 0
1567 -2287 -3007 -847 967 0
-127 247 -2287 0
127 2287 0
-247 2287 0
127 -247 -3007 0
-127 3007 0
247 3007 0
-1687 2407 0
-1687 3127 0
-1687 967 0
-1687 -1087 0
1687 -2407 -3127 -967 1087 0
-247 367 -2407 0
247 2407 0
-367 2407 0
247 -367 -3127 0
-247 3127 0
367 3127 0
-1807 2527 0
-1807 3247 0
-1807 1087 0
-1807 -1207 0
1807 -2527 -3247 -1087 1207 0
-367 487 -2527 0
367 2527 0
-487 2527 0
367 -487 -3247 0
-367 3247 0
487 3247 0
-1927 2647 0
-1927 3367 0
-1927 1207 0
-1927 -1327 0
1927 -2647 -3367 -1207 1327 0
-487 607 -2647 0
487 2647 0
-607 2647 0
487 -607 -3367 0
-487 3367 0
607 3367 0
3727 4447 0
3727 5167 0
-3727 -4447 -5167 0
-127 7 -4447 0
127 4447 0
-7 4447 0
127 -7 -5167 0
-127 5167 0
7 5167 0
3847 4567 0
3847 5287 0
-3847 -4567 -5287 0
-247 127 -4567 0
247 4567 0
-127 4567 0
247 -127 -5287 0
-247 5287 0
127 5287 0
3967 4687 0
3967 5407 0
-3967 -4687 -5407 0
-367 247 -4687 0
367 4687 0
-247 4687 0
367 -247 -5407 0
-367 5407 0
247 5407 0
4087 4807 0
4087 5527 0
-4087 -4807 -5527 0
-487 367 -4807 0
487 4807 0
-367 4807 0
487 -367 -5527 0
-487 5527 0
367 5527 0
4207 4927 0
4207 5647 0
-4207 -4927 -5647 0
-607 487 -4927 0
607 4927 0
-487 4927 0
607 -487 -5647 0
-607 5647 0
487 5647 0
728 0
-1328 0
-1448 2168 0
-1448 2888 0
-1448 728 0
-1448 -848 0
1448 -2168 -2888 -728 848 0
-8 128 -2168 0
8 2168 0
-128 2168 0
8 -128 -2888 0
-8 2888 0
128 2888 0
-1568 2288 0
-1568 3008 0
-1568 848 0
-1568 -968 0
1568 -2288 -3008 -848 968 0
-128 248 -2288 0
128 2288 0
-248 2288 0
128 -248 -3008 0
-128 3008 0
248 3008 0
-1688 2408 0
-1688 3128 0
-1688 968 0
-1688 -1088 0
1688 -2408 -3128 -968 1088 0
-248 368 -2408 0
248 2408 0
-368 2408 0
248 -368 -3128 0
-248 3128 0
368 3128 0
-1808 2528 0
-1808 3248 0
-1808 1088 0
-1808 -1208 0
1808 -2528 -3248 -1088 1208 0
-368 488 -2528 0
368 2528 0
-488 2528 0
368 -488 -3248 0
-368 3248 0
488 3248 0
-1928 2648 0
-1928 3368 0
-1928 1208 0
-1928 -1328 0
1928 -2648 -3368 -1208 1328 0
-488 608 -2648 0
488 2648 0
-608 2648 0
488 -608 -3368 0
-488 3368 0
608 3368 0
3728 4448 0
3728 5168 0
-3728 -4448 -5168 0
-128 8 -4448 0
128 4448 0
-8 4448 0
128 -8 -5168 0
-128 5168 0
8 5168 0
3848 4568 0
3848 5288 0
-3848 -4568 -5288 0
-248 128 -4568 0
248 4568 0
-128 4568 0
248 -128 -5288 0
-248 5288 0
128 5288 0
3968 4688 0
3968 5408 0
-3968 -4688 -5408 0
-368 248 -4688 0
368 4688 0
-248 4688 0
368 -248 -5408 0
-368 5408 0
248 5408 0
4088 4808 0
4088 5528 0
-4088 -4808 -5528 0
-488 368 -4808 0
488 4808 0
-368 4808 0
488 -368 -5528 0
-488 5528 0
368 5528 0
4208 4928 0
4208 5648 0
-4208 -4928 -5648 0
-608 488 -4928 0
608 4928 0
-488 4928 0
608 -488 -5648 0
-608 5648 0
488 5648 0
729 0
-1329 0
-1449 2169 0
-1449 2889 0
-1449 729 0
-1449 -849 0
1449 -2169 -2889 -729 849 0
-9 129 -2169 0
9 2169 0
-129 2169 0
9 -129 -2889 0
-9 2889 0
129 2889 0
-1569 2289 0
-1569 3009 0
-1569 849 0
-1569 -969 0
1569 -2289 -3009 -849 969 0
-129 249 -2289 0
129 2289 0
-249 2289 0
129 -249 -3009 0
-129 3009 0
249 3009 0
-1689 2409 0
-1689 3129 0
-1689 969 0
-1689 -1089 0
1689 -2409 -3129 -969 1089 0
-249 369 -2409 0
249 2409 0
-369 2409 0
249 -369 -3129 0
-249 3129 0
369 3129 0
-1809 2529 0
-1809 3249 0
-1809 1089 0
-1809 -1209 0
1809 -2529 -3249 -1089 1209 0
-369 489 -2529 0
369 2529 0
-489 2529 0
369 -489 -3249 0
-369 3249 0
489 3249 0
-1929 2649 0
-1929 3369 0
-1929 1209 0
-1929 -1329 0
1929 -2649 -3369 -1209 1329 0
-489 609 -2649 0
489 2649 0
-609 2649 0
489 -609 -3369 0
-489 3369 0
609 3369 0
3729 4449 0
3729 5169 0
-3729 -4449 -5169 0
-129 9 -4449 0
129 4449 0
-9 4449 0
129 -9 -5169 0
-129 5169 0
9 5169 0
3849 4569 0
3849 5289 0
-3849 -4569 -5289 0
-249 129 -4569 0
249 4569 0
-129 4569 0
249 -129 -5289 0
-249 5289 0
129 5289 0
3969 4689 0
3969 5409 0
-3969 -4689 -5409 0
-369 249 -4689 0
369 4689 0
-249 4689 0
369 -249 -5409 0
-369 5409 0
249 5409 0
4089 4809 0
4089 5529 0
-4089 -4809 -5529 0
-489 369 -4809 0
489 4809 0
-369 4809 0
489 -369 -5529 0
-489 5529 0
369 5529 0
4209 4929 0
4209 5649 0
-4209 -4929 -5649 0
-609 489 -4929 0
609 4929 0
-489 4929 0
609 -489 -5649 0
-609 5649 0
489 5649 0
730 0
-1330 0
-1450 2170 0
-1450 2890 0
-1450 730 0
-1450 -850 0
1450 -2170 -2890 -730 850 0
-10 130 -2170 0
10 2170 0
-130 2170 0
10 -130 -2890 0
-10 2890 0
130 2890 0
-1570 2290 0
-1570 3010 0
-1570 850 0
-1570 -970 0
1570 -2290 -3010 -850 970 0
-130 250 -2290 0
130 2290 0
-250 2290 0
130 -250 -3010 0
-130 3010 0
250 3010 0
-1690 2410 0
-1690 3130 0
-1690 970 0
-1690 -1090 0
1690 -2410 -3130 -970 1090 0
-250 370 -2410 0
250 2410 0
-370 2410 0
250 -370 -3130 0
-250 3130 0
370 3130 0
-1810 2530 0
-1810 3250 0
-1810 1090 0
-1810 -1210 0
1810 -2530 -3250 -1090 1210 0
-370 490 -2530 0
370 2530 0
-490 2530 0
370 -490 -3250 0
-370 3250 0
490 3250 0
-1930 2650 0
-1930 3370 0
-1930 1210 0
-1930 -1330 0
1930 -2650 -3370 -1210 1330 0
-490 610 -2650 0
490 2650 0
-610 2650 0
490 -610 -3370 0
-490 3370 0
610 3370 0
3730 4450 0
3730 5170 0
-3730 -4450 -5170 0
-130 10 -4450 0
130 4450 0
-10 4450 0
130 -10 -5170 0
-130 5170 0
10 5170 0
3850 4570 0
3850 5290 0
-3850 -4570 -5290 0
-250 130 -4570 0
250 4570 0
-130 4570 0
250 -130 -5290 0
-250 5290 0
130 5290 0
3970 4690 0
3970 5410 0
-3970 -4690 -5410 0
-370 250 -4690 0
370 4690 0
-250 4690 0
370 -250 -5410 0
-370 5410 0
250 5410 0
4090 4810 0
4090 5530 0
-4090 -4810 -5530 0
-490 370 -4810 0
490 4810 0
-370 4810 0
490 -370 -5530 0
-490 5530 0
370 5530 0
4210 4930 0
4210 5650 0
-4210 -4930 -5650 0
-610 490 -4930 0
610 4930 0
-490 4930 0
610 -490 -5650 0
-610 5650 0
490 5650 0
731 0
-1331 0
-1451 2171 0
-1451 2891 0
-1451 731 0
-1451 -851 0
1451 -2171 -2891 -731 851 0
-11 131 -2171 0
11 2171 0
-131 2171 0
11 -131 -2891 0
-11 2891 0
131 2891 0
-1571 2291 0
-1571 3011 0
-1571 851 0
-1571 -971 0
1571 -2291 -3011 -851 971 0
-131 251 -2291 0
131 2291 0
-251 2291 0
131 -251 -3011 0
-131 3011 0
251 3011 0
-1691 2411 0
-1691 3131 0
-1691 971 0
-1691 -1091 0
1691 -2411 -3131 -971 1091 0
-251 371 -2411 0
251 2411 0
-371 2411 0
251 -371 -3131 0
-251 3131 0
371 3131 0
-1811 2531 0
-1811 3251 0
-1811 1091 0
-1811 -1211 0
1811 -2531 -3251 -1091 1211 0
-371 491 -2531 0
371 2531 0
-491 2531 0
371 -491 -3251 0
-371 3251 0
491 3251 0
-1931 2651 0
-1931 3371 0
-1931 1211 0
-1931 -1331 0
1931 -2651 -3371 -1211 1331 0
-491 611 -2651 0
491 2651 0
-611 2651 0
491 -611 -3371 0
-491 3371 0
611 3371 0
3731 4451 0
3731 5171 0
-3731 -4451 -5171 0
-131 11 -4451 0
131 4451 0
-11 4451 0
131 -11 -5171 0
-131 5171 0
11 5171 0
3851 4571 0
3851 5291 0
-3851 -4571 -5291 0
-251 131 -4571 0
251 4571 0
-131 4571 0
251 -131 -5291 0
-251 5291 0
131 5291 0
3971 4691 0
3971 5411 0
-3971 -4691 -5411 0
-371 251 -4691 0
371 4691 0
-251 4691 0
371 -251 -5411 0
-371 5411 0
251 5411 0
4091 4811 0
4091 5531 0
-4091 -4811 -5531 0
-491 371 -4811 0
491 4811 0
-371 4811 0
491 -371 -5531 0
-491 5531 0
371 5531 0
4211 4931 0
4211 5651 0
-4211 -4931 -5651 0
-611 491 -4931 0
611 4931 0
-491 4931 0
611 -491 -5651 0
-611 5651 0
491 5651 0
732 0
-1332 0
-1452 2172 0
-1452 2892 0
-1452 732 0
-1452 -852 0
1452 -2172 -2892 -732 852 0
-12 132 -2172 0
12 2172 0
-132 2172 0
12 -132 -2892 0
-12 2892 0
132 2892 0
-1572 2292 0
-1572 3012 0
-1572 852 0
-1572 -972 0
1572 -2292 -3012 -852 972 0
-132 252 -2292 0
132 2292 0
-252 2292 0
132 -252 -3012 0
-132 3012 0
252 3012 0
-1692 2412 0
-1692 3132 0
-1692 972 0
-1692 -1092 0
1692 -2412 -3132 -972 1092 0
-252 372 -2412 0
252 2412 0
-372 2412 0
252 -372 -3132 0
-252 3132 0
372 3132 0
-1812 2532 0
-1812 3252 0
-1812 1092 0
-1812 -1212 0
1812 -2532 -3252 -1092 1212 0
-372 492 -2532 0
372 2532 0
-492 2532 0
372 -492 -3252 0
-372 3252 0
492 3252 0
-1932 2652 0
-1932 3372 0
-1932 1212 0
-1932 -1332 0
1932 -2652 -3372 -1212 1332 0
-492 612 -2652 0
492 2652 0
-612 2652 0
492 -612 -3372 0
-492 3372 0
612 3372 0
3732 4452 0
3732 5172 0
-3732 -4452 -5172 0
-132 12 -4452 0
132 4452 0
-12 4452 0
132 -12 -5172 0
-132 5172 0
12 5172 0
3852 4572 0
3852 5292 0
-3852 -4572 -5292 0
-252 132 -4572 0
252 4572 0
-132 4572 0
252 -132 -5292 0
-252 5292 0
132 5292 0
3972 4692 0
3972 5412 0
-3972 -4692 -5412 0
-372 252 -4692 0
372 4692 0
-252 4692 0
372 -252 -5412 0
-372 5412 0
252 5412 0
4092 4812 0
4092 5532 0
-4092 -4812 -5532 0
-492 372 -4812 0
492 4812 0
-372 4812 0
492 -372 -5532 0
-492 5532 0
372 5532 0
4212 4932 0
4212 5652 0
-4212 -4932 -5652 0
-612 492 -4932 0
612 4932 0
-492 4932 0
612 -492 -5652 0
-612 5652 0
492 5652 0
733 0
-1333 0
-1453 2173 0
-1453 2893 0
-1453 733 0
-1453 -853 0
1453 -2173 -2893 -733 853 0
-13 133 -2173 0
13 2173 0
-133 2173 0
13 -133 -2893 0
-13 2893 0
133 2893 0
-1573 2293 0
-1573 3013 0
-1573 853 0
-1573 -973 0
1573 -2293 -3013 -853 973 0
-133 253 -2293 0
133 2293 0
-253 2293 0
133 -253 -3013 0
-133 3013 0
253 3013 0
-1693 2413 0
-1693 3133 0
-1693 973 0
-1693 -1093 0
1693 -2413 -3133 -973 1093 0
-253 373 -2413 0
253 2413 0
-373 2413 0
253 -373 -3133 0
-253 3133 0
373 3133 0
-1813 2533 0
-1813 3253 0
-1813 1093 0
-1813 -1213 0
1813 -2533 -3253 -1093 1213 0
-373 493 -2533 0
373 2533 0
-493 2533 0
373 -493 -3253 0
-373 3253 0
493 3253 0
-1933 2653 0
-1933 3373 0
-1933 1213 0
-1933 -1333 0
1933 -2653 -3373 -1213 1333 0
-493 613 -2653 0
493 2653 0
-613 2653 0
493 -613 -3373 0
-493 3373 0
613 3373 0
3733 4453 0
3733 5173 0
-3733 -4453 -5173 0
-133 13 -4453 0
133 4453 0
-13 4453 0
133 -13 -5173 0
-133 5173 0
13 5173 0
3853 4573 0
3853 5293 0
-3853 -4573 -5293 0
-253 133 -4573 0
253 4573 0
-133 4573 0
253 -133 -5293 0
-253 5293 0
133 5293 0
3973 4693 0
3973 5413 0
-3973 -4693 -5413 0
-373 253 -4693 0
373 4693 0
-253 4693 0
373 -253 -5413 0
-373 5413 0
253 5413 0
4093 4813 0
4093 5533 0
-4093 -4813 -5533 0
-493 373 -4813 0
493 4813 0
-373 4813 0
493 -373 -5533 0
-493 5533 0
373 5533 0
4213 4933 0
4213 5653 0
-4213 -4933 -5653 0
-613 493 -4933 0
613 4933 0
-493 4933 0
613 -493 -5653 0
-613 5653 0
493 5653 0
734 0
-1334 0
-1454 2174 0
-1454 2894 0
-1454 734 0
-1454 -854 0
1454 -2174 -2894 -734 854 0
-14 134 -2174 0
14 2174 0
-134 2174 0
14 -134 -2894 0
-14 2894 0
134 2894 0
-1574 2294 0
-1574 3014 0
-1574 854 0
-1574 -974 0
1574 -2294 -3014 -854 974 0
-134 254 -2294 0
134 2294 0
-254 2294 0
134 -254 -3014 0
-134 3014 0
254 3014 0
-1694 2414 0
-1694 3134 0
-1694 974 0
-1694 -1094 0
1694 -2414 -3134 -974 1094 0
-254 374 -2414 0
254 2414 0
-374 2414 0
254 -374 -3134 0
-254 3134 0
374 3134 0
-1814 2534 0
-1814 3254 0
-1814 1094 0
-1814 -1214 0
1814 -2534 -3254 -1094 1214 0
-374 494 -2534 0
374 2534 0
-494 2534 0
374 -494 -3254 0
-374 3254 0
494 3254 0
-1934 2654 0
-1934 3374 0
-1934 1214 0
-1934 -1334 0
1934 -2654 -3374 -1214 1334 0
-494 614 -2654 0
494 2654 0
-614 2654 0
494 -614 -3374 0
-494 3374 0
614 3374 0
3734 4454 0
3734 5174 0
-3734 -4454 -5174 0
-134 14 -4454 0
134 4454 0
-14 4454 0
134 -14 -5174 0
-134 5174 0
14 5174 0
3854 4574 0
3854 5294 0
-3854 -4574 -5294 0
-254 134 -4574 0
254 4574 0
-134 4574 0
254 -134 -5294 0
-254 5294 0
134 5294 0
3974 4694 0
3974 5414 0
-3974 -4694 -5414 0
-374 254 -4694 0
374 4694 0
-254 4694 0
374 -254 -5414 0
-374 5414 0
254 5414 0
4094 4814 0
4094 5534 0
-4094 -4814 -5534 0
-494 374 -4814 0
494 4814 0
-374 4814 0
494 -374 -5534 0
-494 5534 0
374 5534 0
4214 4934 0
4214 5654 0
-4214 -4934 -5654 0
-614 494 -4934 0
614 4934 0
-494 4934 0
614 -494 -5654 0
-614 5654 0
494 5654 0
735 0
-1335 0
-1455 2175 0
-1455 2895 0
-1455 735 0
-1455 -855 0
1455 -2175 -2895 -735 855 0
-15 135 -2175 0
15 2175 0
-135 2175 0
15 -135 -2895 0
-15 2895 0
135 2895 0
-1575 2295 0
-1575 3015 0
-1575 855 0
-1575 -975 0
1575 -2295 -3015 -855 975 0
-135 255 -2295 0
135 2295 0
-255 2295 0
135 -255 -3015 0
-135 3015 0
255 3015 0
-1695 2415 0
-1695 3135 0
-1695 975 0
-1695 -1095 0
1695 -2415 -3135 -975 1095 0
-255 375 -2415 0
255 2415 0
-375 2415 0
255 -375 -3135 0
-255 3135 0
375 3135 0
-1815 2535 0
-1815 3255 0
-1815 1095 0
-1815 -1215 0
1815 -2535 -3255 -1095 1215 0
-375 495 -2535 0
375 2535 0
-495 2535 0
375 -495 -3255 0
-375 3255 0
495 3255 0
-1935 2655 0
-1935 3375 0
-1935 1215 0
-1935 -1335 0
1935 -2655 -3375 -1215 1335 0
-495 615 -2655 0
495 2655 0
-615 2655 0
495 -615 -3375 0
-495 3375 0
615 3375 0
3735 4455 0
3735 5175 0
-3735 -4455 -5175 0
-135 15 -4455 0
135 4455 0
-15 4455 0
135 -15 -5175 0
-135 5175 0
15 5175 0
3855 4575 0
3855 5295 0
-3855 -4575 -5295 0
-255 135 -4575 0
255 4575 0
-135 4575 0
255 -135 -5295 0
-255 5295 0
135 5295 0
3975 4695 0
3975 5415 0
-3975 -4695 -5415 0
-375 255 -4695 0
375 4695 0
-255 4695 0
375 -255 -5415 0
-375 5415 0
255 5415 0
4095 4815 0
4095 5535 0
-4095 -4815 -5535 0
-495 375 -4815 0
495 4815 0
-375 4815 0
495 -375 -5535 0
-495 5535 0
375 5535 0
4215 4935 0
4215 5655 0
-4215 -4935 -5655 0
-615 495 -4935 0
615 4935 0
-495 4935 0
615 -495 -5655 0
-615 5655 0
495 5655 0
736 0
-1336 0
-1456 2176 0
-1456 2896 0
-1456 736 0
-1456 -856 0
1456 -2176 -2896 -736 856 0
-16 136 -2176 0
16 2176 0
-136 2176 0
16 -136 -2896 0
-16 2896 0
136 2896 0
-1576 2296 0
-1576 3016 0
-1576 856 0
-1576 -976 0
1576 -2296 -3016 -856 976 0
-136 256 -2296 0
136 2296 0
-256 2296 0
136 -256 -3016 0
-136 3016 0
256 3016 0
-1696 2416 0
-1696 3136 0
-1696 976 0
-1696 -1096 0
1696 -2416 -3136 -976 1096 0
-256 376 -2416 0
256 2416 0
-376 2416 0
256 -376 -3136 0
-256 3136 0
376 3136 0
-1816 2536 0
-1816 3256 0
-1816 1096 0
-1816 -1216 0
1816 -2536 -3256 -1096 1216 0
-376 496 -2536 0
376 2536 0
-496 2536 0
376 -496 -3256 0
-376 3256 0
496 3256 0
-1936 2656 0
-1936 3376 0
-1936 1216 0
-1936 -1336 0
1936 -2656 -3376 -1216 1336 0
-496 616 -2656 0
496 2656 0
-616 2656 0
496 -616 -3376 0
-496 3376 0
616 3376 0
3736 4456 0
3736 5176 0
-3736 -4456 -5176 0
-136 16 -4456 0
136 4456 0
-16 4456 0
136 -16 -5176 0
-136 5176 0
16 5176 0
3856 4576 0
3856 5296 0
-3856 -4576 -5296 0
-256 136 -4576 0
256 4576 0
-136 4576 0
256 -136 -5296 0
-256 5296 0
136 5296 0
3976 4696 0
3976 5416 0
-3976 -4696 -5416 0
-376 256 -4696 0
376 4696 0
-256 4696 0
376 -256 -5416 0
-376 5416 0
256 5416 0
4096 4816 0
4096 5536 0
-4096 -4816 -5536 0
-496 376 -4816 0
496 4816 0
-376 4816 0
496 -376 -5536 0
-496 5536 0
376 5536 0
4216 4936 0
4216 5656 0
-4216 -4936 -5656 0
-616 496 -4936 0
616 4936 0
-496 4936 0
616 -496 -5656 0
-616 5656 0
496 5656 0
737 0
-1337 0
-1457 2177 0
-1457 2897 0
-1457 737 0
-1457 -857 0
1457 -2177 -2897 -737 857 0
-17 137 -2177 0
17 2177 0
-137 2177 0
17 -137 -2897 0
-17 2897 0
137 2897 0
-1577 2297 0
-1577 3017 0
-1577 857 0
-1577 -977 0
1577 -2297 -3017 -857 977 0
-137 257 -2297 0
137 2297 0
-257 2297 0
137 -257 -3017 0
-137 3017 0
257 3017 0
-1697 2417 0
-1697 3137 0
-1697 977 0
-1697 -1097 0
1697 -2417 -3137 -977 1097 0
-257 377 -2417 0
257 2417 0
-377 2417 0
257 -377 -3137 0
-257 3137 0
377 3137 0
-1817 2537 0
-1817 3257 0
-1817 1097 0
-1817 -1217 0
1817 -2537 -3257 -1097 1217 0
-377 497 -2537 0
377 2537 0
-497 2537 0
377 -497 -3257 0
-377 3257 0
497 3257 0
-1937 2657 0
-1937 3377 0
-1937 1217 0
-1937 -1337 0
1937 -2657 -3377 -1217 1337 0
-497 617 -2657 0
497 2657 0
-617 2657 0
497 -617 -3377 0
-497 3377 0
617 3377 0
3737 4457 0
3737 5177 0
-3737 -4457 -5177 0
-137 17 -4457 0
137 4457 0
-17 4457 0
137 -17 -5177 0
-137 5177 0
17 5177 0
3857 4577 0
3857 5297 0
-3857 -4577 -5297 0
-257 137 -4577 0
257 4577 0
-137 4577 0
257 -137 -5297 0
-257 5297 0
137 5297 0
3977 4697 0
3977 5417 0
-3977 -4697 -5417 0
-377 257 -4697 0
377 4697 0
-257 4697 0
377 -257 -5417 0
-377 5417 0
257 5417 0
4097 4817 0
4097 5537 0
-4097 -4817 -5537 0
-497 377 -4817 0
497 4817 0
-377 4817 0
497 -377 -5537 0
-497 5537 0
377 5537 0
4217 4937 0
4217 5657 0
-4217 -4937 -5657 0
-617 497 -4937 0
617 4937 0
-497 4937 0
617 -497 -5657 0
-617 5657 0
497 5657 0
738 0
-1338 0
-1458 2178 0
-1458 2898 0
-1458 738 0
-1458 -858 0
1458 -2178 -2898 -738 858 0
-18 138 -2178 0
18 2178 0
-138 2178 0
18 -138 -2898 0
-18 2898 0
138 2898 0
-1578 2298 0
-1578 3018 0
-1578 858 0
-1578 -978 0
1578 -2298 -3018 -858 978 0
-138 258 -2298 0
138 2298 0
-258 2298 0
138 -258 -3018 0
-138 3018 0
258 3018 0
-1698 2418 0
-1698 3138 0
-1698 978 0
-1698 -1098 0
1698 -2418 -3138 -978 1098 0
-258 378 -2418 0
258 2418 0
-378 2418 0
258 -378 -3138 0
-258 3138 0
378 3138 0
-1818 2538 0
-1818 3258 0
-1818 1098 0
-1818 -1218 0
1818 -2538 -3258 -1098 1218 0
-378 498 -2538 0
378 2538 0
-498 2538 0
378 -498 -3258 0
-378 3258 0
498 3258 0
-1938 2658 0
-1938 3378 0
-1938 1218 0
-1938 -1338 0
1938 -2658 -3378 -1218 1338 0
-498 618 -2658 0
498 2658 0
-618 2658 0
498 -618 -3378 0
-498 3378 0
618 3378 0
3738 4458 0
3738 5178 0
-3738 -4458 -5178 0
-138 18 -4458 0
138 4458 0
-18 4458 0
138 -18 -5178 0
-138 5178 0
18 5178 0
3858 4578 0
3858 5298 0
-3858 -4578 -5298 0
-258 138 -4578 0
258 4578 0
-138 4578 0
258 -138 -5298 0
-258 5298 0
138 5298 0
3978 4698 0
3978 5418 0
-3978 -4698 -5418 0
-378 258 -4698 0
378 4698 0
-258 4698 0
378 -258 -5418 0
-378 5418 0
258 5418 0
4098 4818 0
4098 5538 0
-4098 -4818 -5538 0
-498 378 -4818 0
498 4818 0
-378 4818 0
498 -378 -5538 0
-498 5538 0
378 5538 0
4218 4938 0
4218 5658 0
-4218 -4938 -5658 0
-618 498 -4938 0
618 4938 0
-498 4938 0
618 -498 -5658 0
-618 5658 0
498 5658 0
739 0
-1339 0
-1459 2179 0
-1459 2899 0
-1459 739 0
-1459 -859 0
1459 -2179 -2899 -739 859 0
-19 139 -2179 0
19 2179 0
-139 2179 0
19 -139 -2899 0
-19 2899 0
139 2899 0
-1579 2299 0
-1579 3019 0
-1579 859 0
-1579 -979 0
1579 -2299 -3019 -859 979 0
-139 259 -2299 0
139 2299 0
-259 2299 0
139 -259 -3019 0
-139 3019 0
259 3019 0
-1699 2419 0
-1699 3139 0
-1699 979 0
-1699 -1099 0
1699 -2419 -3139 -979 1099 0
-259 379 -2419 0
259 2419 0
-379 2419 0
259 -379 -3139 0
-259 3139 0
379 3139 0
-1819 2539 0
-1819 3259 0
-1819 1099 0
-1819 -1219 0
1819 -2539 -3259 -1099 1219 0
-379 499 -2539 0
379 2539 0
-499 2539 0
379 -499 -3259 0
-379 3259 0
499 3259 0
-1939 2659 0
-1939 3379 0
-1939 1219 0
-1939 -1339 0
1939 -2659 -3379 -1219 1339 0
-499 619 -2659 0
499 2659 0
-619 2659 0
499 -619 -3379 0
-499 3379 0
619 3379 0
3739 4459 0
3739 5179 0
-3739 -4459 -5179 0
-139 19 -4459 0
139 4459 0
-19 4459 0
139 -19 -5179 0
-139 5179 0
19 5179 0
3859 4579 0
3859 5299 0
-3859 -4579 -5299 0
-259 139 -4579 0
259 4579 0
-139 4579 0
259 -139 -5299 0
-259 5299 0
139 5299 0
3979 4699 0
3979 5419 0
-3979 -4699 -5419 0
-379 259 -4699 0
379 4699 0
-259 4699 0
379 -259 -5419 0
-379 5419 0
259 5419 0
4099 4819 0
4099 5539 0
-4099 -4819 -5539 0
-499 379 -4819 0
499 4819 0
-379 4819 0
499 -379 -5539 0
-499 5539 0
379 5539 0
4219 4939 0
4219 5659 0
-4219 -4939 -5659 0
-619 499 -4939 0
619 4939 0
-499 4939 0
619 -499 -5659 0
-619 5659 0
499 5659 0
740 0
-1340 0
-1460 2180 0
-1460 2900 0
-1460 740 0
-1460 -860 0
1460 -2180 -2900 -740 860 0
-20 140 -2180 0
20 2180 0
-140 2180 0
20 -140 -2900 0
-20 2900 0
140 2900 0
-1580 2300 0
-1580 3020 0
-1580 860 0
-1580 -980 0
1580 -2300 -3020 -860 980 0
-140 260 -2300 0
140 2300 0
-260 2300 0
140 -260 -3020 0
-140 3020 0
260 3020 0
-1700 2420 0
-1700 3140 0
-1700 980 0
-1700 -1100 0
1700 -2420 -3140 -980 1100 0
-260 380 -2420 0
260 2420 0
-380 2420 0
260 -380 -3140 0
-260 3140 0
380 3140 0
-1820 2540 0
-1820 3260 0
-1820 1100 0
-1820 -1220 0
1820 -2540 -3260 -1100 1220 0
-380 500 -2540 0
380 2540 0
-500 2540 0
380 -500 -3260 0
-380 3260 0
500 3260 0
-1940 2660 0
-1940 3380 0
-1940 1220 0
-1940 -1340 0
1940 -2660 -3380 -1220 1340 0
-500 620 -2660 0
500 2660 0
-620 2660 0
500 -620 -3380 0
-500 3380 0
620 3380 0
3740 4460 0
3740 5180 0
-3740 -4460 -5180 0
-140 20 -4460 0
140 4460 0
-20 4460 0
140 -20 -5180 0
-140 5180 0
20 5180 0
3860 4580 0
3860 5300 0
-3860 -4580 -5300 0
-260 140 -4580 0
260 4580 0
-140 4580 0
260 -140 -5300 0
-260 5300 0
140 5300 0
3980 4700 0
3980 5420 0
-3980 -4700 -5420 0
-380 260 -4700 0
380 4700 0
-260 4700 0
380 -260 -5420 0
-380 5420 0
260 5420 0
4100 4820 0
4100 5540 0
-4100 -4820 -5540 0
-500 380 -4820 0
500 4820 0
-380 4820 0
500 -380 -5540 0
-500 5540 0
380 5540 0
4220 4940 0
4220 5660 0
-4220 -4940 -5660 0
-620 500 -4940 0
620 4940 0
-500 4940 0
620 -500 -5660 0
-620 5660 0
500 5660 0
741 0
-1341 0
-1461 2181 0
-1461 2901 0
-1461 741 0
-1461 -861 0
1461 -2181 -2901 -741 861 0
-21 141 -2181 0
21 2181 0
-141 2181 0
21 -141 -2901 0
-21 2901 0
141 2901 0
-1581 2301 0
-1581 3021 0
-1581 861 0
-1581 -981 0
1581 -2301 -3021 -861 981 0
-141 261 -2301 0
141 2301 0
-261 2301 0
141 -261 -3021 0
-141 3021 0
261 3021 0
-1701 2421 0
-1701 3141 0
-1701 981 0
-1701 -1101 0
1701 -2421 -3141 -981 1101 0
-261 381 -2421 0
261 2421 0
-381 2421 0
261 -381 -3141 0
-261 3141 0
381 3141 0
-1821 2541 0
-1821 3261 0
-1821 1101 0
-1821 -1221 0
1821 -2541 -3261 -1101 1221 0
-381 501 -2541 0
381 2541 0
-501 2541 0
381 -501 -3261 0
-381 3261 0
501 3261 0
-1941 2661 0
-1941 3381 0
-1941 1221 0
-1941 -1341 0
1941 -2661 -3381 -1221 1341 0
-501 621 -2661 0
501 2661 0
-621 2661 0
501 -621 -3381 0
-501 3381 0
621 3381 0
3741 4461 0
3741 5181 0
-3741 -4461 -5181 0
-141 21 -4461 0
141 4461 0
-21 4461 0
141 -21 -5181 0
-141 5181 0
21 5181 0
3861 4581 0
3861 5301 0
-3861 -4581 -5301 0
-261 141 -4581 0
261 4581 0
-141 4581 0
261 -141 -5301 0
-261 5301 0
141 5301 0
3981 4701 0
3981 5421 0
-3981 -4701 -5421 0
-381 261 -4701 0
381 4701 0
-261 4701 0
381 -261 -5421 0
-381 5421 0
261 5421 0
4101 4821 0
4101 5541 0
-4101 -4821 -5541 0
-501 381 -4821 0
501 4821 0
-381 4821 0
501 -381 -5541 0
-501 5541 0
381 5541 0
4221 4941 0
4221 5661 0
-4221 -4941 -5661 0
-621 501 -4941 0
621 4941 0
-501 4941 0
621 -501 -5661 0
-621 5661 0
501 5661 0
742 0
-1342 0
-1462 2182 0
-1462 2902 0
-1462 742 0
-1462 -862 0
1462 -2182 -2902 -742 862 0
-22 142 -2182 0
22 2182 0
-142 2182 0
22 -142 -2902 0
-22 2902 0
142 2902 0
-1582 2302 0
-1582 3022 0
-1582 862 0
-1582 -982 0
1582 -2302 -3022 -862 982 0
-142 262 -2302 0
142 2302 0
-262 2302 0
142 -262 -3022 0
-142 3022 0
262 3022 0
-1702 2422 0
-1702 3142 0
-1702 982 0
-1702 -1102 0
1702 -2422 -3142 -982 1102 0
-262 382 -2422 0
262 2422 0
-382 2422 0
262 -382 -3142 0
-262 3142 0
382 3142 0
-1822 2542 0
-1822 3262 0
-1822 1102 0
-1822 -1222 0
1822 -2542 -3262 -1102 1222 0
-382 502 -2542 0
382 2542 0
-502 2542 0
382 -502 -3262 0
-382 3262 0
502 3262 0
-1942 2662 0
-1942 3382 0
-1942 1222 0
-1942 -1342 0
1942 -2662 -3382 -1222 1342 0
-502 622 -2662 0
502 2662 0
-622 2662 0
502 -622 -3382 0
-502 3382 0
622 3382 0
3742 4462 0
3742 5182 0
-3742 -4462 -5182 0
-142 22 -4462 0
142 4462 0
-22 4462 0
142 -22 -5182 0
-142 5182 0
22 5182 0
3862 4582 0
3862 5302 0
-3862 -4582 -5302 0
-262 142 -4582 0
262 4582 0
-142 4582 0
262 -142 -5302 0
-262 5302 0
142 5302 0
3982 4702 0
3982 5422 0
-3982 -4702 -5422 0
-382 262 -4702 0
382 4702 0
-262 4702 0
382 -262 -5422 0
-382 5422 0
262 5422 0
4102 4822 0
4102 5542 0
-4102 -4822 -5542 0
-502 382 -4822 0
502 4822 0
-382 4822 0
502 -382 -5542 0
-502 5542 0
382 5542 0
4222 4942 0
4222 5662 0
-4222 -4942 -5662 0
-622 502 -4942 0
622 4942 0
-502 4942 0
622 -502 -5662 0
-622 5662 0
502 5662 0
743 0
-1343 0
-1463 2183 0
-1463 2903 0
-1463 743 0
-1463 -863 0
1463 -2183 -2903 -743 863 0
-23 143 -2183 0
23 2183 0
-143 2183 0
23 -143 -2903 0
-23 2903 0
143 2903 0
-1583 2303 0
-1583 3023 0
-1583 863 0
-1583 -983 0
1583 -2303 -3023 -863 983 0
-143 263 -2303 0
143 2303 0
-263 2303 0
143 -263 -3023 0
-143 3023 0
263 3023 0
-1703 2423 0
-1703 3143 0
-1703 983 0
-1703 -1103 0
1703 -2423 -3143 -983 1103 0
-263 383 -2423 0
263 2423 0
-383 2423 0
263 -383 -3143 0
-263 3143 0
383 3143 0
-1823 2543 0
-1823 3263 0
-1823 1103 0
-1823 -1223 0
1823 -2543 -3263 -1103 1223 0
-383 503 -2543 0
383 2543 0
-503 2543 0
383 -503 -3263 0
-383 3263 0
503 3263 0
-1943 2663 0
-1943 3383 0
-1943 1223 0
-1943 -1343 0
1943 -2663 -3383 -1223 1343 0
-503 623 -2663 0
503 2663 0
-623 2663 0
503 -623 -3383 0
-503 3383 0
623 3383 0
3743 4463 0
3743 5183 0
-3743 -4463 -5183 0
-143 23 -4463 0
143 4463 0
-23 4463 0
143 -23 -5183 0
-143 5183 0
23 5183 0
3863 4583 0
3863 5303 0
-3863 -4583 -5303 0
-263 143 -4583 0
263 4583 0
-143 4583 0
263 -143 -5303 0
-263 5303 0
143 5303 0
3983 4703 0
3983 5423 0
-3983 -4703 -5423 0
-383 263 -4703 0
383 4703 0
-263 4703 0
383 -263 -5423 0
-383 5423 0
263 5423 0
4103 4823 0
4103 5543 0
-4103 -4823 -5543 0
-503 383 -4823 0
503 4823 0
-383 4823 0
503 -383 -5543 0
-503 5543 0
383 5543 0
4223 4943 0
4223 5663 0
-4223 -4943 -5663 0
-623 503 -4943 0
623 4943 0
-503 4943 0
623 -503 -5663 0
-623 5663 0
503 5663 0
744 0
-1344 0
-1464 2184 0
-1464 2904 0
-1464 744 0
-1464 -864 0
1464 -2184 -2904 -744 864 0
-24 144 -2184 0
24 2184 0
-144 2184 0
24 -144 -2904 0
-24 2904 0
144 2904 0
-1584 2304 0
-1584 3024 0
-1584 864 0
-1584 -984 0
1584 -2304 -3024 -864 984 0
-144 264 -2304 0
144 2304 0
-264 2304 0
144 -264 -3024 0
-144 3024 0
264 3024 0
-1704 2424 0
-1704 3144 0
-1704 984 0
-1704 -1104 0
1704 -2424 -3144 -984 1104 0
-264 384 -2424 0
264 2424 0
-384 2424 0
264 -384 -3144 0
-264 3144 0
384 3144 0
-1824 2544 0
-1824 3264 0
-1824 1104 0
-1824 -1224 0
1824 -2544 -3264 -1104 1224 0
-384 504 -2544 0
384 2544 0
-504 2544 0
384 -504 -3264 0
-384 3264 0
504 3264 0
-1944 2664 0
-1944 3384 0
-1944 1224 0
-1944 -1344 0
1944 -2664 -3384 -1224 1344 0
-504 624 -2664 0
504 2664 0
-624 2664 0
504 -624 -3384 0
-504 3384 0
624 3384 0
3744 4464 0
3744 5184 0
-3744 -4464 -5184 0
-144 24 -4464 0
144 4464 0
-24 4464 0
144 -24 -5184 0
-144 5184 0
24 5184 0
3864 4584 0
3864 5304 0
-3864 -4584 -5304 0
-264 144 -4584 0
264 4584 0
-144 4584 0
264 -144 -5304 0
-264 5304 0
144 5304 0
3984 4704 0
3984 5424 0
-3984 -4704 -5424 0
-384 264 -4704 0
384 4704 0
-264 4704 0
384 -264 -5424 0
-384 5424 0
264 5424 0
4104 4824 0
4104 5544 0
-4104 -4824 -5544 0
-504 384 -4824 0
504 4824 0
-384 4824 0
504 -384 -5544 0
-504 5544 0
384 5544 0
4224 4944 0
4224 5664 0
-4224 -4944 -5664 0
-624 504 -4944 0
624 4944 0
-504 4944 0
624 -504 -5664 0
-624 5664 0
504 5664 0
745 0
-1345 0
-1465 2185 0
-1465 2905 0
-1465 745 0
-1465 -865 0
1465 -2185 -2905 -745 865 0
-25 145 -2185 0
25 2185 0
-145 2185 0
25 -145 -2905 0
-25 2905 0
145 2905 0
-1585 2305 0
-1585 3025 0
-1585 865 0
-1585 -985 0
1585 -2305 -3025 -865 985 0
-145 265 -2305 0
145 2305 0
-265 2305 0
145 -265 -3025 0
-145 3025 0
265 3025 0
-1705 2425 0
-1705 3145 0
-1705 985 0
-1705 -1105 0
1705 -2425 -3145 -985 1105 0
-265 385 -2425 0
265 2425 0
-385 2425 0
265 -385 -3145 0
-265 3145 0
385 3145 0
-1825 2545 0
-1825 3265 0
-1825 1105 0
-1825 -1225 0
1825 -2545 -3265 -1105 1225 0
-385 505 -2545 0
385 2545 0
-505 2545 0
385 -505 -3265 0
-385 3265 0
505 3265 0
-1945 2665 0
-1945 3385 0
-1945 1225 0
-1945 -1345 0
1945 -2665 -3385 -1225 1345 0
-505 625 -2665 0
505 2665 0
-625 2665 0
505 -625 -3385 0
-505 3385 0
625 3385 0
3745 4465 0
3745 5185 0
-3745 -4465 -5185 0
-145 25 -4465 0
145 4465 0
-25 4465 0
145 -25 -5185 0
-145 5185 0
25 5185 0
3865 4585 0
3865 5305 0
-3865 -4585 -5305 0
-265 145 -4585 0
265 4585 0
-145 4585 0
265 -145 -5305 0
-265 5305 0
145 5305 0
3985 4705 0
3985 5425 0
-3985 -4705 -5425 0
-385 265 -4705 0
385 4705 0
-265 4705 0
385 -265 -5425 0
-385 5425 0
265 5425 0
4105 4825 0
4105 5545 0
-4105 -4825 -5545 0
-505 385 -4825 0
505 4825 0
-385 4825 0
505 -385 -5545 0
-505 5545 0
385 5545 0
4225 4945 0
4225 5665 0
-4225 -4945 -5665 0
-625 505 -4945 0
625 4945 0
-505 4945 0
625 -505 -5665 0
-625 5665 0
505 5665 0
746 0
-1346 0
-1466 2186 0
-1466 2906 0
-1466 746 0
-1466 -866 0
1466 -2186 -2906 -746 866 0
-26 146 -2186 0
26 2186 0
-146 2186 0
26 -146 -2906 0
-26 2906 0
146 2906 0
-1586 2306 0
-1586 3026 0
-1586 866 0
-1586 -986 0
1586 -2306 -3026 -866 986 0
-146 266 -2306 0
146 2306 0
-266 2306 0
146 -266 -3026 0
-146 3026 0
266 3026 0
-1706 2426 0
-1706 3146 0
-1706 986 0
-1706 -1106 0
1706 -2426 -3146 -986 1106 0
-266 386 -2426 0
266 2426 0
-386 2426 0
266 -386 -3146 0
-266 3146 0
386 3146 0
-1826 2546 0
-1826 3266 0
-1826 1106 0
-1826 -1226 0
1826 -2546 -3266 -1106 1226 0
-386 506 -2546 0
386 2546 0
-506 2546 0
386 -506 -3266 0
-386 3266 0
506 3266 0
-1946 2666 0
-1946 3386 0
-1946 1226 0
-1946 -1346 0
1946 -2666 -3386 -1226 1346 0
-506 626 -2666 0
506 2666 0
-626 2666 0
506 -626 -3386 0
-506 3386 0
626 3386 0
3746 4466 0
3746 5186 0
-3746 -4466 -5186 0
-146 26 -4466 0
146 4466 0
-26 4466 0
146 -26 -5186 0
-146 5186 0
26 5186 0
3866 4586 0
3866 5306 0
-3866 -4586 -5306 0
-266 146 -4586 0
266 4586 0
-146 4586 0
266 -146 -5306 0
-266 5306 0
146 5306 0
3986 4706 0
3986 5426 0
-3986 -4706 -5426 0
-386 266 -4706 0
386 4706 0
-266 4706 0
386 -266 -5426 0
-386 5426 0
266 5426 0
4106 4826 0
4106 5546 0
-4106 -4826 -5546 0
-506 386 -4826 0
506 4826 0
-386 4826 0
506 -386 -5546 0
-506 5546 0
386 5546 0
4226 4946 0
4226 5666 0
-4226 -4946 -5666 0
-626 506 -4946 0
626 4946 0
-506 4946 0
626 -506 -5666 0
-626 5666 0
506 5666 0
747 0
-1347 0
-1467 2187 0
-1467 2907 0
-1467 747 0
-1467 -867 0
1467 -2187 -2907 -747 867 0
-27 147 -2187 0
27 2187 0
-147 2187 0
27 -147 -2907 0
-27 2907 0
147 2907 0
-1587 2307 0
-1587 3027 0
-1587 867 0
-1587 -987 0
1587 -2307 -3027 -867 987 0
-147 267 -2307 0
147 2307 0
-267 2307 0
147 -267 -3027 0
-147 3027 0
267 3027 0
-1707 2427 0
-1707 3147 0
-1707 987 0
-1707 -1107 0
1707 -2427 -3147 -987 1107 0
-267 387 -2427 0
267 2427 0
-387 2427 0
267 -387 -3147 0
-267 3147 0
387 3147 0
-1827 2547 0
-1827 3267 0
-1827 1107 0
-1827 -1227 0
1827 -2547 -3267 -1107 1227 0
-387 507 -2547 0
387 2547 0
-507 2547 0
387 -507 -3267 0
-387 3267 0
507 3267 0
-1947 2667 0
-1947 3387 0
-1947 1227 0
-1947 -1347 0
1947 -2667 -3387 -1227 1347 0
-507 627 -2667 0
507 2667 0
-627 2667 0
507 -627 -3387 0
-507 3387 0
627 3387 0
3747 4467 0
3747 5187 0
-3747 -4467 -5187 0
-147 27 -4467 0
147 4467 0
-27 4467 0
147 -27 -5187 0
-147 5187 0
27 5187 0
3867 4587 0
3867 5307 0
-3867 -4587 -5307 0
-267 147 -4587 0
267 4587 0
-147 4587 0
267 -147 -5307 0
-267 5307 0
147 5307 0
3987 4707 0
3987 5427 0
-3987 -4707 -5427 0
-387 267 -4707 0
387 4707 0
-267 4707 0
387 -267 -5427 0
-387 5427 0
267 5427 0
4107 4827 0
4107 5547 0
-4107 -4827 -5547 0
-507 387 -4827 0
507 4827 0
-387 4827 0
507 -387 -5547 0
-507 5547 0
387 5547 0
4227 4947 0
4227 5667 0
-4227 -4947 -5667 0
-627 507 -4947 0
627 4947 0
-507 4947 0
627 -507 -5667 0
-627 5667 0
507 5667 0
748 0
-1348 0
-1468 2188 0
-1468 2908 0
-1468 748 0
-1468 -868 0
1468 -2188 -2908 -748 868 0
-28 148 -2188 0
28 2188 0
-148 2188 0
28 -148 -2908 0
-28 2908 0
148 2908 0
-1588 2308 0
-1588 3028 0
-1588 868 0
-1588 -988 0
1588 -2308 -3028 -868 988 0
-148 268 -2308 0
148 2308 0
-268 2308 0
148 -268 -3028 0
-148 3028 0
268 3028 0
-1708 2428 0
-1708 3148 0
-1708 988 0
-1708 -1108 0
1708 -2428 -3148 -988 1108 0
-268 388 -2428 0
268 2428 0
-388 2428 0
268 -388 -3148 0
-268 3148 0
388 3148 0
-1828 2548 0
-1828 3268 0
-1828 1108 0
-1828 -1228 0
1828 -2548 -3268 -1108 1228 0
-388 508 -2548 0
388 2548 0
-508 2548 0
388 -508 -3268 0
-388 3268 0
508 3268 0
-1948 2668 0
-1948 3388 0
-1948 1228 0
-1948 -1348 0
1948 -2668 -3388 -1228 1348 0
-508 628 -2668 0
508 2668 0
-628 2668 0
508 -628 -3388 0
-508 3388 0
628 3388 0
3748 4468 0
3748 5188 0
-3748 -4468 -5188 0
-148 28 -4468 0
148 4468 0
-28 4468 0
148 -28 -5188 0
-148 5188 0
28 5188 0
3868 4588 0
3868 5308 0
-3868 -4588 -5308 0
-268 148 -4588 0
268 4588 0
-148 4588 0
268 -148 -5308 0
-268 5308 0
148 5308 0
3988 4708 0
3988 5428 0
-3988 -4708 -5428 0
-388 268 -4708 0
388 4708 0
-268 4708 0
388 -268 -5428 0
-388 5428 0
268 5428 0
4108 4828 0
4108 5548 0
-4108 -4828 -5548 0
-508 388 -4828 0
508 4828 0
-388 4828 0
508 -388 -5548 0
-508 5548 0
388 5548 0
4228 4948 0
4228 5668 0
-4228 -4948 -5668 0
-628 508 -4948 0
628 4948 0
-508 4948 0
628 -508 -5668 0
-628 5668 0
508 5668 0
749 0
-1349 0
-1469 2189 0
-1469 2909 0
-1469 749 0
-1469 -869 0
1469 -2189 -2909 -749 869 0
-29 149 -2189 0
29 2189 0
-149 2189 0
29 -149 -2909 0
-29 2909 0
149 2909 0
-1589 2309 0
-1589 3029 0
-1589 869 0
-1589 -989 0
1589 -2309 -3029 -869 989 0
-149 269 -2309 0
149 2309 0
-269 2309 0
149 -269 -3029 0
-149 3029 0
269 3029 0
-1709 2429 0
-1709 3149 0
-1709 989 0
-1709 -1109 0
1709 -2429 -3149 -989 1109 0
-269 389 -2429 0
269 2429 0
-389 2429 0
269 -389 -3149 0
-269 3149 0
389 3149 0
-1829 2549 0
-1829 3269 0
-1829 1109 0
-1829 -1229 0
1829 -2549 -3269 -1109 1229 0
-389 509 -2549 0
389 2549 0
-509 2549 0
389 -509 -3269 0
-389 3269 0
509 3269 0
-1949 2669 0
-1949 3389 0
-1949 1229 0
-1949 -1349 0
1949 -2669 -3389 -1229 1349 0
-509 629 -2669 0
509 2669 0
-629 2669 0
509 -629 -3389 0
-509 3389 0
629 3389 0
3749 4469 0
3749 5189 0
-3749 -4469 -5189 0
-149 29 -4469 0
149 4469 0
-29 4469 0
149 -29 -5189 0
-149 5189 0
29 5189 0
3869 4589 0
3869 5309 0
-3869 -4589 -5309 0
-269 149 -4589 0
269 4589 0
-149 4589 0
269 -149 -5309 0
-269 5309 0
149 5309 0
3989 4709 0
3989 5429 0
-3989 -4709 -5429 0
-389 269 -4709 0
389 4709 0
-269 4709 0
389 -269 -5429 0
-389 5429 0
269 5429 0
4109 4829 0
4109 5549 0
-4109 -4829 -5549 0
-509 389 -4829 0
509 4829 0
-389 4829 0
509 -389 -5549 0
-509 5549 0
389 5549 0
4229 4949 0
4229 5669 0
-4229 -4949 -5669 0
-629 509 -4949 0
629 4949 0
-509 4949 0
629 -509 -5669 0
-629 5669 0
509 5669 0
750 0
-1350 0
-1470 2190 0
-1470 2910 0
-1470 750 0
-1470 -870 0
1470 -2190 -2910 -750 870 0
-30 150 -2190 0
30 2190 0
-150 2190 0
30 -150 -2910 0
-30 2910 0
150 2910 0
-1590 2310 0
-1590 3030 0
-1590 870 0
-1590 -990 0
1590 -2310 -3030 -870 990 0
-150 270 -2310 0
150 2310 0
-270 2310 0
150 -270 -3030 0
-150 3030 0
270 3030 0
-1710 2430 0
-1710 3150 0
-1710 990 0
-1710 -1110 0
1710 -2430 -3150 -990 1110 0
-270 390 -2430 0
270 2430 0
-390 2430 0
270 -390 -3150 0
-270 3150 0
390 3150 0
-1830 2550 0
-1830 3270 0
-1830 1110 0
-1830 -1230 0
1830 -2550 -3270 -1110 1230 0
-390 510 -2550 0
390 2550 0
-510 2550 0
390 -510 -3270 0
-390 3270 0
510 3270 0
-1950 2670 0
-1950 3390 0
-1950 1230 0
-1950 -1350 0
1950 -2670 -3390 -1230 1350 0
-510 630 -2670 0
510 2670 0
-630 2670 0
510 -630 -3390 0
-510 3390 0
630 3390 0
3750 4470 0
3750 5190 0
-3750 -4470 -5190 0
-150 30 -4470 0
150 4470 0
-30 4470 0
150 -30 -5190 0
-150 5190 0
30 5190 0
3870 4590 0
3870 5310 0
-3870 -4590 -5310 0
-270 150 -4590 0
270 4590 0
-150 4590 0
270 -150 -5310 0
-270 5310 0
150 5310 0
3990 4710 0
3990 5430 0
-3990 -4710 -5430 0
-390 270 -4710 0
390 4710 0
-270 4710 0
390 -270 -5430 0
-390 5430 0
270 5430 0
4110 4830 0
4110 5550 0
-4110 -4830 -5550 0
-510 390 -4830 0
510 4830 0
-390 4830 0
510 -390 -5550 0
-510 5550 0
390 5550 0
4230 4950 0
4230 5670 0
-4230 -4950 -5670 0
-630 510 -4950 0
630 4950 0
-510 4950 0
630 -510 -5670 0
-630 5670 0
510 5670 0
751 0
-1351 0
-1471 2191 0
-1471 2911 0
-1471 751 0
-1471 -871 0
1471 -2191 -2911 -751 871 0
-31 151 -2191 0
31 2191 0
-151 2191 0
31 -151 -2911 0
-31 2911 0
151 2911 0
-1591 2311 0
-1591 3031 0
-1591 871 0
-1591 -991 0
1591 -2311 -3031 -871 991 0
-151 271 -2311 0
151 2311 0
-271 2311 0
151 -271 -3031 0
-151 3031 0
271 3031 0
-1711 2431 0
-1711 3151 0
-1711 991 0
-1711 -1111 0
1711 -2431 -3151 -991 1111 0
-271 391 -2431 0
271 2431 0
-391 2431 0
271 -391 -3151 0
-271 3151 0
391 3151 0
-1831 2551 0
-1831 3271 0
-1831 1111 0
-1831 -1231 0
1831 -2551 -3271 -1111 1231 0
-391 511 -2551 0
391 2551 0
-511 2551 0
391 -511 -3271 0
-391 3271 0
511 3271 0
-1951 2671 0
-1951 3391 0
-1951 1231 0
-1951 -1351 0
1951 -2671 -3391 -1231 1351 0
-511 631 -2671 0
511 2671 0
-631 2671 0
511 -631 -3391 0
-511 3391 0
631 3391 0
3751 4471 0
3751 5191 0
-3751 -4471 -5191 0
-151 31 -4471 0
151 4471 0
-31 4471 0
151 -31 -5191 0
-151 5191 0
31 5191 0
3871 4591 0
3871 5311 0
-3871 -4591 -5311 0
-271 151 -4591 0
271 4591 0
-151 4591 0
271 -151 -5311 0
-271 5311 0
151 5311 0
3991 4711 0
3991 5431 0
-3991 -4711 -5431 0
-391 271 -4711 0
391 4711 0
-271 4711 0
391 -271 -5431 0
-391 5431 0
271 5431 0
4111 4831 0
4111 5551 0
-4111 -4831 -5551 0
-511 391 -4831 0
511 4831 0
-391 4831 0
511 -391 -5551 0
-511 5551 0
391 5551 0
4231 4951 0
4231 5671 0
-4231 -4951 -5671 0
-631 511 -4951 0
631 4951 0
-511 4951 0
631 -511 -5671 0
-631 5671 0
511 5671 0
752 0
-1352 0
-1472 2192 0
-1472 2912 0
-1472 752 0
-1472 -872 0
1472 -2192 -2912 -752 872 0
-32 152 -2192 0
32 2192 0
-152 2192 0
32 -152 -2912 0
-32 2912 0
152 2912 0
-1592 2312 0
-1592 3032 0
-1592 872 0
-1592 -992 0
1592 -2312 -3032 -872 992 0
-152 272 -2312 0
152 2312 0
-272 2312 0
152 -272 -3032 0
-152 3032 0
272 3032 0
-1712 2432 0
-1712 3152 0
-1712 992 0
-1712 -1112 0
1712 -2432 -3152 -992 1112 0
-272 392 -2432 0
272 2432 0
-392 2432 0
272 -392 -3152 0
-272 3152 0
392 3152 0
-1832 2552 0
-1832 3272 0
-1832 1112 0
-1832 -1232 0
1832 -2552 -3272 -1112 1232 0
-392 512 -2552 0
392 2552 0
-512 2552 0
392 -512 -3272 0
-392 3272 0
512 3272 0
-1952 2672 0
-1952 3392 0
-1952 1232 0
-1952 -1352 0
1952 -2672 -3392 -1232 1352 0
-512 632 -2672 0
512 2672 0
-632 2672 0
512 -632 -3392 0
-512 3392 0
632 3392 0
3752 4472 0
3752 5192 0
-3752 -4472 -5192 0
-152 32 -4472 0
152 4472 0
-32 4472 0
152 -32 -5192 0
-152 5192 0
32 5192 0
3872 4592 0
3872 5312 0
-3872 -4592 -5312 0
-272 152 -4592 0
272 4592 0
-152 4592 0
272 -152 -5312 0
-272 5312 0
152 5312 0
3992 4712 0
3992 5432 0
-3992 -4712 -5432 0
-392 272 -4712 0
392 4712 0
-272 4712 0
392 -272 -5432 0
-392 5432 0
272 5432 0
4112 4832 0
4112 5552 0
-4112 -4832 -5552 0
-512 392 -4832 0
512 4832 0
-392 4832 0
512 -392 -5552 0
-512 5552 0
392 5552 0
4232 4952 0
4232 5672 0
-4232 -4952 -5672 0
-632 512 -4952 0
632 4952 0
-512 4952 0
632 -512 -5672 0
-632 5672 0
512 5672 0
753 0
-1353 0
-1473 2193 0
-1473 2913 0
-1473 753 0
-1473 -873 0
1473 -2193 -2913 -753 873 0
-33 153 -2193 0
33 2193 0
-153 2193 0
33 -153 -2913 0
-33 2913 0
153 2913 0
-1593 2313 0
-1593 3033 0
-1593 873 0
-1593 -993 0
1593 -2313 -3033 -873 993 0
-153 273 -2313 0
153 2313 0
-273 2313 0
153 -273 -3033 0
-153 3033 0
273 3033 0
-1713 2433 0
-1713 3153 0
-1713 993 0
-1713 -1113 0
1713 -2433 -3153 -993 1113 0
-273 393 -2433 0
273 2433 0
-393 2433 0
273 -393 -3153 0
-273 3153 0
393 3153 0
-1833 2553 0
-1833 3273 0
-1833 1113 0
-1833 -1233 0
1833 -2553 -3273 -1113 1233 0
-393 513 -2553 0
393 2553 0
-513 2553 0
393 -513 -3273 0
-393 3273 0
513 3273 0
-1953 2673 0
-1953 3393 0
-1953 1233 0
-1953 -1353 0
1953 -2673 -3393 -1233 1353 0
-513 633 -2673 0
513 2673 0
-633 2673 0
513 -633 -3393 0
-513 3393 0
633 3393 0
3753 4473 0
3753 5193 0
-3753 -4473 -5193 0
-153 33 -4473 0
153 4473 0
-33 4473 0
153 -33 -5193 0
-153 5193 0
33 5193 0
3873 4593 0
3873 5313 0
-3873 -4593 -5313 0
-273 153 -4593 0
273 4593 0
-153 4593 0
273 -153 -5313 0
-273 5313 0
153 5313 0
3993 4713 0
3993 5433 0
-3993 -4713 -5433 0
-393 273 -4713 0
393 4713 0
-273 4713 0
393 -273 -5433 0
-393 5433 0
273 5433 0
4113 4833 0
4113 5553 0
-4113 -4833 -5553 0
-513 393 -4833 0
513 4833 0
-393 4833 0
513 -393 -5553 0
-513 5553 0
393 5553 0
4233 4953 0
4233 5673 0
-4233 -4953 -5673 0
-633 513 -4953 0
633 4953 0
-513 4953 0
633 -513 -5673 0
-633 5673 0
513 5673 0
754 0
-1354 0
-1474 2194 0
-1474 2914 0
-1474 754 0
-1474 -874 0
1474 -2194 -2914 -754 874 0
-34 154 -2194 0
34 2194 0
-154 2194 0
34 -154 -2914 0
-34 2914 0
154 2914 0
-1594 2314 0
-1594 3034 0
-1594 874 0
-1594 -994 0
1594 -2314 -3034 -874 994 0
-154 274 -2314 0
154 2314 0
-274 2314 0
154 -274 -3034 0
-154 3034 0
274 3034 0
-1714 2434 0
-1714 3154 0
-1714 994 0
-1714 -1114 0
1714 -2434 -3154 -994 1114 0
-274 394 -2434 0
274 2434 0
-394 2434 0
274 -394 -3154 0
-274 3154 0
394 3154 0
-1834 2554 0
-1834 3274 0
-1834 1114 0
-1834 -1234 0
1834 -2554 -3274 -1114 1234 0
-394 514 -2554 0
394 2554 0
-514 2554 0
394 -514 -3274 0
-394 3274 0
514 3274 0
-1954 2674 0
-1954 3394 0
-1954 1234 0
-1954 -1354 0
1954 -2674 -3394 -1234 1354 0
-514 634 -2674 0
514 2674 0
-634 2674 0
514 -634 -3394 0
-514 3394 0
634 3394 0
3754 4474 0
3754 5194 0
-3754 -4474 -5194 0
-154 34 -4474 0
154 4474 0
-34 4474 0
154 -34 -5194 0
-154 5194 0
34 5194 0
3874 4594 0
3874 5314 0
-3874 -4594 -5314 0
-274 154 -4594 0
274 4594 0
-154 4594 0
274 -154 -5314 0
-274 5314 0
154 5314 0
3994 4714 0
3994 5434 0
-3994 -4714 -5434 0
-394 274 -4714 0
394 4714 0
-274 4714 0
394 -274 -5434 0
-394 5434 0
274 5434 0
4114 4834 0
4114 5554 0
-4114 -4834 -5554 0
-514 394 -4834 0
514 4834 0
-394 4834 0
514 -394 -5554 0
-514 5554 0
394 5554 0
4234 4954 0
4234 5674 0
-4234 -4954 -5674 0
-634 514 -4954 0
634 4954 0
-514 4954 0
634 -514 -5674 0
-634 5674 0
514 5674 0
755 0
-1355 0
-1475 2195 0
-1475 2915 0
-1475 755 0
-1475 -875 0
1475 -2195 -2915 -755 875 0
-35 155 -2195 0
35 2195 0
-155 2195 0
35 -155 -2915 0
-35 2915 0
155 2915 0
-1595 2315 0
-1595 3035 0
-1595 875 0
-1595 -995 0
1595 -2315 -3035 -875 995 0
-155 275 -2315 0
155 2315 0
-275 2315 0
155 -275 -3035 0
-155 3035 0
275 3035 0
-1715 2435 0
-1715 3155 0
-1715 995 0
-1715 -1115 0
1715 -2435 -3155 -995 1115 0
-275 395 -2435 0
275 2435 0
-395 2435 0
275 -395 -3155 0
-275 3155 0
395 3155 0
-1835 2555 0
-1835 3275 0
-1835 1115 0
-1835 -1235 0
1835 -2555 -3275 -1115 1235 0
-395 515 -2555 0
395 2555 0
-515 2555 0
395 -515 -3275 0
-395 3275 0
515 3275 0
-1955 2675 0
-1955 3395 0
-1955 1235 0
-1955 -1355 0
1955 -2675 -3395 -1235 1355 0
-515 635 -2675 0
515 2675 0
-635 2675 0
515 -635 -3395 0
-515 3395 0
635 3395 0
3755 4475 0
3755 5195 0
-3755 -4475 -5195 0
-155 35 -4475 0
155 4475 0
-35 4475 0
155 -35 -5195 0
-155 5195 0
35 5195 0
3875 4595 0
3875 5315 0
-3875 -4595 -5315 0
-275 155 -4595 0
275 4595 0
-155 4595 0
275 -155 -5315 0
-275 5315 0
155 5315 0
3995 4715 0
3995 5435 0
-3995 -4715 -5435 0
-395 275 -4715 0
395 4715 0
-275 4715 0
395 -275 -5435 0
-395 5435 0
275 5435 0
4115 4835 0
4115 5555 0
-4115 -4835 -5555 0
-515 395 -4835 0
515 4835 0
-395 4835 0
515 -395 -5555 0
-515 5555 0
395 5555 0
4235 4955 0
4235 5675 0
-4235 -4955 -5675 0
-635 515 -4955 0
635 4955 0
-515 4955 0
635 -515 -5675 0
-635 5675 0
515 5675 0
756 0
-1356 0
-1476 2196 0
-1476 2916 0
-1476 756 0
-1476 -876 0
1476 -2196 -2916 -756 876 0
-36 156 -2196 0
36 2196 0
-156 2196 0
36 -156 -2916 0
-36 2916 0
156 2916 0
-1596 2316 0
-1596 3036 0
-1596 876 0
-1596 -996 0
1596 -2316 -3036 -876 996 0
-156 276 -2316 0
156 2316 0
-276 2316 0
156 -276 -3036 0
-156 3036 0
276 3036 0
-1716 2436 0
-1716 3156 0
-1716 996 0
-1716 -1116 0
1716 -2436 -3156 -996 1116 0
-276 396 -2436 0
276 2436 0
-396 2436 0
276 -396 -3156 0
-276 3156 0
396 3156 0
-1836 2556 0
-1836 3276 0
-1836 1116 0
-1836 -1236 0
1836 -2556 -3276 -1116 1236 0
-396 516 -2556 0
396 2556 0
-516 2556 0
396 -516 -3276 0
-396 3276 0
516 3276 0
-1956 2676 0
-1956 3396 0
-1956 1236 0
-1956 -1356 0
1956 -2676 -3396 -1236 1356 0
-516 636 -2676 0
516 2676 0
-636 2676 0
516 -636 -3396 0
-516 3396 0
636 3396 0
3756 4476 0
3756 5196 0
-3756 -4476 -5196 0
-156 36 -4476 0
156 4476 0
-36 4476 0
156 -36 -5196 0
-156 5196 0
36 5196 0
3876 4596 0
3876 5316 0
-3876 -4596 -5316 0
-276 156 -4596 0
276 4596 0
-156 4596 0
276 -156 -5316 0
-276 5316 0
156 5316 0
3996 4716 0
3996 5436 0
-3996 -4716 -5436 0
-396 276 -4716 0
396 4716 0
-276 4716 0
396 -276 -5436 0
-396 5436 0
276 5436 0
4116 4836 0
4116 5556 0
-4116 -4836 -5556 0
-516 396 -4836 0
516 4836 0
-396 4836 0
516 -396 -5556 0
-516 5556 0
396 5556 0
4236 4956 0
4236 5676 0
-4236 -4956 -5676 0
-636 516 -4956 0
636 4956 0
-516 4956 0
636 -516 -5676 0
-636 5676 0
516 5676 0
757 0
-1357 0
-1477 2197 0
-1477 2917 0
-1477 757 0
-1477 -877 0
1477 -2197 -2917 -757 877 0
-37 157 -2197 0
37 2197 0
-157 2197 0
37 -157 -2917 0
-37 2917 0
157 2917 0
-1597 2317 0
-1597 3037 0
-1597 877 0
-1597 -997 0
1597 -2317 -3037 -877 997 0
-157 277 -2317 0
157 2317 0
-277 2317 0
157 -277 -3037 0
-157 3037 0
277 3037 0
-1717 2437 0
-1717 3157 0
-1717 997 0
-1717 -1117 0
1717 -2437 -3157 -997 1117 0
-277 397 -2437 0
277 2437 0
-397 2437 0
277 -397 -3157 0
-277 3157 0
397 3157 0
-1837 2557 0
-1837 3277 0
-1837 1117 0
-1837 -1237 0
1837 -2557 -3277 -1117 1237 0
-397 517 -2557 0
397 2557 0
-517 2557 0
397 -517 -3277 0
-397 3277 0
517 3277 0
-1957 2677 0
-1957 3397 0
-1957 1237 0
-1957 -1357 0
1957 -2677 -3397 -1237 1357 0
-517 637 -2677 0
517 2677 0
-637 2677 0
517 -637 -3397 0
-517 3397 0
637 3397 0
3757 4477 0
3757 5197 0
-3757 -4477 -5197 0
-157 37 -4477 0
157 4477 0
-37 4477 0
157 -37 -5197 0
-157 5197 0
37 5197 0
3877 4597 0
3877 5317 0
-3877 -4597 -5317 0
-277 157 -4597 0
277 4597 0
-157 4597 0
277 -157 -5317 0
-277 5317 0
157 5317 0
3997 4717 0
3997 5437 0
-3997 -4717 -5437 0
-397 277 -4717 0
397 4717 0
-277 4717 0
397 -277 -5437 0
-397 5437 0
277 5437 0
4117 4837 0
4117 5557 0
-4117 -4837 -5557 0
-517 397 -4837 0
517 4837 0
-397 4837 0
517 -397 -5557 0
-517 5557 0
397 5557 0
4237 4957 0
4237 5677 0
-4237 -4957 -5677 0
-637 517 -4957 0
637 4957 0
-517 4957 0
637 -517 -5677 0
-637 5677 0
517 5677 0
758 0
-1358 0
-1478 2198 0
-1478 2918 0
-1478 758 0
-1478 -878 0
1478 -2198 -2918 -758 878 0
-38 158 -2198 0
38 2198 0
-158 2198 0
38 -158 -2918 0
-38 2918 0
158 2918 0
-1598 2318 0
-1598 3038 0
-1598 878 0
-1598 -998 0
1598 -2318 -3038 -878 998 0
-158 278 -2318 0
158 2318 0
-278 2318 0
158 -278 -3038 0
-158 3038 0
278 3038 0
-1718 2438 0
-1718 3158 0
-1718 998 0
-1718 -1118 0
1718 -2438 -3158 -998 1118 0
-278 398 -2438 0
278 2438 0
-398 2438 0
278 -398 -3158 0
-278 3158 0
398 3158 0
-1838 2558 0
-1838 3278 0
-1838 1118 0
-1838 -1238 0
1838 -2558 -3278 -1118 1238 0
-398 518 -2558 0
398 2558 0
-518 2558 0
398 -518 -3278 0
-398 3278 0
518 3278 0
-1958 2678 0
-1958 3398 0
-1958 1238 0
-1958 -1358 0
1958 -2678 -3398 -1238 1358 0
-518 638 -2678 0
518 2678 0
-638 2678 0
518 -638 -3398 0
-518 3398 0
638 3398 0
3758 4478 0
3758 5198 0
-3758 -4478 -5198 0
-158 38 -4478 0
158 4478 0
-38 4478 0
158 -38 -5198 0
-158 5198 0
38 5198 0
3878 4598 0
3878 5318 0
-3878 -4598 -5318 0
-278 158 -4598 0
278 4598 0
-158 4598 0
278 -158 -5318 0
-278 5318 0
158 5318 0
3998 4718 0
3998 5438 0
-3998 -4718 -5438 0
-398 278 -4718 0
398 4718 0
-278 4718 0
398 -278 -5438 0
-398 5438 0
278 5438 0
4118 4838 0
4118 5558 0
-4118 -4838 -5558 0
-518 398 -4838 0
518 4838 0
-398 4838 0
518 -398 -5558 0
-518 5558 0
398 5558 0
4238 4958 0
4238 5678 0
-4238 -4958 -5678 0
-638 518 -4958 0
638 4958 0
-518 4958 0
638 -518 -5678 0
-638 5678 0
518 5678 0
759 0
-1359 0
-1479 2199 0
-1479 2919 0
-1479 759 0
-1479 -879 0
1479 -2199 -2919 -759 879 0
-39 159 -2199 0
39 2199 0
-159 2199 0
39 -159 -2919 0
-39 2919 0
159 2919 0
-1599 2319 0
-1599 3039 0
-1599 879 0
-1599 -999 0
1599 -2319 -3039 -879 999 0
-159 279 -2319 0
159 2319 0
-279 2319 0
159 -279 -3039 0
-159 3039 0
279 3039 0
-1719 2439 0
-1719 3159 0
-1719 999 0
-1719 -1119 0
1719 -2439 -3159 -999 1119 0
-279 399 -2439 0
279 2439 0
-399 2439 0
279 -399 -3159 0
-279 3159 0
399 3159 0
-1839 2559 0
-1839 3279 0
-1839 1119 0
-1839 -1239 0
1839 -2559 -3279 -1119 1239 0
-399 519 -2559 0
399 2559 0
-519 2559 0
399 -519 -3279 0
-399 3279 0
519 3279 0
-1959 2679 0
-1959 3399 0
-1959 1239 0
-1959 -1359 0
1959 -2679 -3399 -1239 1359 0
-519 639 -2679 0
519 2679 0
-639 2679 0
519 -639 -3399 0
-519 3399 0
639 3399 0
3759 4479 0
3759 5199 0
-3759 -4479 -5199 0
-159 39 -4479 0
159 4479 0
-39 4479 0
159 -39 -5199 0
-159 5199 0
39 5199 0
3879 4599 0
3879 5319 0
-3879 -4599 -5319 0
-279 159 -4599 0
279 4599 0
-159 4599 0
279 -159 -5319 0
-279 5319 0
159 5319 0
3999 4719 0
3999 5439 0
-3999 -4719 -5439 0
-399 279 -4719 0
399 4719 0
-279 4719 0
399 -279 -5439 0
-399 5439 0
279 5439 0
4119 4839 0
4119 5559 0
-4119 -4839 -5559 0
-519 399 -4839 0
519 4839 0
-399 4839 0
519 -399 -5559 0
-519 5559 0
399 5559 0
4239 4959 0
4239 5679 0
-4239 -4959 -5679 0
-639 519 -4959 0
639 4959 0
-519 4959 0
639 -519 -5679 0
-639 5679 0
519 5679 0
760 0
-1360 0
-1480 2200 0
-1480 2920 0
-1480 760 0
-1480 -880 0
1480 -2200 -2920 -760 880 0
-40 160 -2200 0
40 2200 0
-160 2200 0
40 -160 -2920 0
-40 2920 0
160 2920 0
-1600 2320 0
-1600 3040 0
-1600 880 0
-1600 -1000 0
1600 -2320 -3040 -880 1000 0
-160 280 -2320 0
160 2320 0
-280 2320 0
160 -280 -3040 0
-160 3040 0
280 3040 0
-1720 2440 0
-1720 3160 0
-1720 1000 0
-1720 -1120 0
1720 -2440 -3160 -1000 1120 0
-280 400 -2440 0
280 2440 0
-400 2440 0
280 -400 -3160 0
-280 3160 0
400 3160 0
-1840 2560 0
-1840 3280 0
-1840 1120 0
-1840 -1240 0
1840 -2560 -3280 -1120 1240 0
-400 520 -2560 0
400 2560 0
-520 2560 0
400 -520 -3280 0
-400 3280 0
520 3280 0
-1960 2680 0
-1960 3400 0
-1960 1240 0
-1960 -1360 0
1960 -2680 -3400 -1240 1360 0
-520 640 -2680 0
520 2680 0
-640 2680 0
520 -640 -3400 0
-520 3400 0
640 3400 0
3760 4480 0
3760 5200 0
-3760 -4480 -5200 0
-160 40 -4480 0
160 4480 0
-40 4480 0
160 -40 -5200 0
-160 5200 0
40 5200 0
3880 4600 0
3880 5320 0
-3880 -4600 -5320 0
-280 160 -4600 0
280 4600 0
-160 4600 0
280 -160 -5320 0
-280 5320 0
160 5320 0
4000 4720 0
4000 5440 0
-4000 -4720 -5440 0
-400 280 -4720 0
400 4720 0
-280 4720 0
400 -280 -5440 0
-400 5440 0
280 5440 0
4120 4840 0
4120 5560 0
-4120 -4840 -5560 0
-520 400 -4840 0
520 4840 0
-400 4840 0
520 -400 -5560 0
-520 5560 0
400 5560 0
4240 4960 0
4240 5680 0
-4240 -4960 -5680 0
-640 520 -4960 0
640 4960 0
-520 4960 0
640 -520 -5680 0
-640 5680 0
520 5680 0
761 0
-1361 0
-1481 2201 0
-1481 2921 0
-1481 761 0
-1481 -881 0
1481 -2201 -2921 -761 881 0
-41 161 -2201 0
41 2201 0
-161 2201 0
41 -161 -2921 0
-41 2921 0
161 2921 0
-1601 2321 0
-1601 3041 0
-1601 881 0
-1601 -1001 0
1601 -2321 -3041 -881 1001 0
-161 281 -2321 0
161 2321 0
-281 2321 0
161 -281 -3041 0
-161 3041 0
281 3041 0
-1721 2441 0
-1721 3161 0
-1721 1001 0
-1721 -1121 0
1721 -2441 -3161 -1001 1121 0
-281 401 -2441 0
281 2441 0
-401 2441 0
281 -401 -3161 0
-281 3161 0
401 3161 0
-1841 2561 0
-1841 3281 0
-1841 1121 0
-1841 -1241 0
1841 -2561 -3281 -1121 1241 0
-401 521 -2561 0
401 2561 0
-521 2561 0
401 -521 -3281 0
-401 3281 0
521 3281 0
-1961 2681 0
-1961 3401 0
-1961 1241 0
-1961 -1361 0
1961 -2681 -3401 -1241 1361 0
-521 641 -2681 0
521 2681 0
-641 2681 0
521 -641 -3401 0
-521 3401 0
641 3401 0
3761 4481 0
3761 5201 0
-3761 -4481 -5201 0
-161 41 -4481 0
161 4481 0
-41 4481 0
161 -41 -5201 0
-161 5201 0
41 5201 0
3881 4601 0
3881 5321 0
-3881 -4601 -5321 0
-281 161 -4601 0
281 4601 0
-161 4601 0
281 -161 -5321 0
-281 5321 0
161 5321 0
4001 4721 0
4001 5441 0
-4001 -4721 -5441 0
-401 281 -4721 0
401 4721 0
-281 4721 0
401 -281 -5441 0
-401 5441 0
281 5441 0
4121 4841 0
4121 5561 0
-4121 -4841 -5561 0
-521 401 -4841 0
521 4841 0
-401 4841 0
521 -401 -5561 0
-521 5561 0
401 5561 0
4241 4961 0
4241 5681 0
-4241 -4961 -5681 0
-641 521 -4961 0
641 4961 0
-521 4961 0
641 -521 -5681 0
-641 5681 0
521 5681 0
762 0
-1362 0
-1482 2202 0
-1482 2922 0
-1482 762 0
-1482 -882 0
1482 -2202 -2922 -762 882 0
-42 162 -2202 0
42 2202 0
-162 2202 0
42 -162 -2922 0
-42 2922 0
162 2922 0
-1602 2322 0
-1602 3042 0
-1602 882 0
-1602 -1002 0
1602 -2322 -3042 -882 1002 0
-162 282 -2322 0
162 2322 0
-282 2322 0
162 -282 -3042 0
-162 3042 0
282 3042 0
-1722 2442 0
-1722 3162 0
-1722 1002 0
-1722 -1122 0
1722 -2442 -3162 -1002 1122 0
-282 402 -2442 0
282 2442 0
-402 2442 0
282 -402 -3162 0
-282 3162 0
402 3162 0
-1842 2562 0
-1842 3282 0
-1842 1122 0
-1842 -1242 0
1842 -2562 -3282 -1122 1242 0
-402 522 -2562 0
402 2562 0
-522 2562 0
402 -522 -3282 0
-402 3282 0
522 3282 0
-1962 2682 0
-1962 3402 0
-1962 1242 0
-1962 -1362 0
1962 -2682 -3402 -1242 1362 0
-522 642 -2682 0
522 2682 0
-642 2682 0
522 -642 -3402 0
-522 3402 0
642 3402 0
3762 4482 0
3762 5202 0
-3762 -4482 -5202 0
-162 42 -4482 0
162 4482 0
-42 4482 0
162 -42 -5202 0
-162 5202 0
42 5202 0
3882 4602 0
3882 5322 0
-3882 -4602 -5322 0
-282 162 -4602 0
282 4602 0
-162 4602 0
282 -162 -5322 0
-282 5322 0
162 5322 0
4002 4722 0
4002 5442 0
-4002 -4722 -5442 0
-402 282 -4722 0
402 4722 0
-282 4722 0
402 -282 -5442 0
-402 5442 0
282 5442 0
4122 4842 0
4122 5562 0
-4122 -4842 -5562 0
-522 402 -4842 0
522 4842 0
-402 4842 0
522 -402 -5562 0
-522 5562 0
402 5562 0
4242 4962 0
4242 5682 0
-4242 -4962 -5682 0
-642 522 -4962 0
642 4962 0
-522 4962 0
642 -522 -5682 0
-642 5682 0
522 5682 0
763 0
-1363 0
-1483 2203 0
-1483 2923 0
-1483 763 0
-1483 -883 0
1483 -2203 -2923 -763 883 0
-43 163 -2203 0
43 2203 0
-163 2203 0
43 -163 -2923 0
-43 2923 0
163 2923 0
-1603 2323 0
-1603 3043 0
-1603 883 0
-1603 -1003 0
1603 -2323 -3043 -883 1003 0
-163 283 -2323 0
163 2323 0
-283 2323 0
163 -283 -3043 0
-163 3043 0
283 3043 0
-1723 2443 0
-1723 3163 0
-1723 1003 0
-1723 -1123 0
1723 -2443 -3163 -1003 1123 0
-283 403 -2443 0
283 2443 0
-403 2443 0
283 -403 -3163 0
-283 3163 0
403 3163 0
-1843 2563 0
-1843 3283 0
-1843 1123 0
-1843 -1243 0
1843 -2563 -3283 -1123 1243 0
-403 523 -2563 0
403 2563 0
-523 2563 0
403 -523 -3283 0
-403 3283 0
523 3283 0
-1963 2683 0
-1963 3403 0
-1963 1243 0
-1963 -1363 0
1963 -2683 -3403 -1243 1363 0
-523 643 -2683 0
523 2683 0
-643 2683 0
523 -643 -3403 0
-523 3403 0
643 3403 0
3763 4483 0
3763 5203 0
-3763 -4483 -5203 0
-163 43 -4483 0
163 4483 0
-43 4483 0
163 -43 -5203 0
-163 5203 0
43 5203 0
3883 4603 0
3883 5323 0
-3883 -4603 -5323 0
-283 163 -4603 0
283 4603 0
-163 4603 0
283 -163 -5323 0
-283 5323 0
163 5323 0
4003 4723 0
4003 5443 0
-4003 -4723 -5443 0
-403 283 -4723 0
403 4723 0
-283 4723 0
403 -283 -5443 0
-403 5443 0
283 5443 0
4123 4843 0
4123 5563 0
-4123 -4843 -5563 0
-523 403 -4843 0
523 4843 0
-403 4843 0
523 -403 -5563 0
-523 5563 0
403 5563 0
4243 4963 0
4243 5683 0
-4243 -4963 -5683 0
-643 523 -4963 0
643 4963 0
-523 4963 0
643 -523 -5683 0
-643 5683 0
523 5683 0
764 0
-1364 0
-1484 2204 0
-1484 2924 0
-1484 764 0
-1484 -884 0
1484 -2204 -2924 -764 884 0
-44 164 -2204 0
44 2204 0
-164 2204 0
44 -164 -2924 0
-44 2924 0
164 2924 0
-1604 2324 0
-1604 3044 0
-1604 884 0
-1604 -1004 0
1604 -2324 -3044 -884 1004 0
-164 284 -2324 0
164 2324 0
-284 2324 0
164 -284 -3044 0
-164 3044 0
284 3044 0
-1724 2444 0
-1724 3164 0
-1724 1004 0
-1724 -1124 0
1724 -2444 -3164 -1004 1124 0
-284 404 -2444 0
284 2444 0
-404 2444 0
284 -404 -3164 0
-284 3164 0
404 3164 0
-1844 2564 0
-1844 3284 0
-1844 1124 0
-1844 -1244 0
1844 -2564 -3284 -1124 1244 0
-404 524 -2564 0
404 2564 0
-524 2564 0
404 -524 -3284 0
-404 3284 0
524 3284 0
-1964 2684 0
-1964 3404 0
-1964 1244 0
-1964 -1364 0
1964 -2684 -3404 -1244 1364 0
-524 644 -2684 0
524 2684 0
-644 2684 0
524 -644 -3404 0
-524 3404 0
644 3404 0
3764 4484 0
3764 5204 0
-3764 -4484 -5204 0
-164 44 -4484 0
164 4484 0
-44 4484 0
164 -44 -5204 0
-164 5204 0
44 5204 0
3884 4604 0
3884 5324 0
-3884 -4604 -5324 0
-284 164 -4604 0
284 4604 0
-164 4604 0
284 -164 -5324 0
-284 5324 0
164 5324 0
4004 4724 0
4004 5444 0
-4004 -4724 -5444 0
-404 284 -4724 0
404 4724 0
-284 4724 0
404 -284 -5444 0
-404 5444 0
284 5444 0
4124 4844 0
4124 5564 0
-4124 -4844 -5564 0
-524 404 -4844 0
524 4844 0
-404 4844 0
524 -404 -5564 0
-524 5564 0
404 5564 0
4244 4964 0
4244 5684 0
-4244 -4964 -5684 0
-644 524 -4964 0
644 4964 0
-524 4964 0
644 -524 -5684 0
-644 5684 0
524 5684 0
765 0
-1365 0
-1485 2205 0
-1485 2925 0
-1485 765 0
-1485 -885 0
1485 -2205 -2925 -765 885 0
-45 165 -2205 0
45 2205 0
-165 2205 0
45 -165 -2925 0
-45 2925 0
165 2925 0
-1605 2325 0
-1605 3045 0
-1605 885 0
-1605 -1005 0
1605 -2325 -3045 -885 1005 0
-165 285 -2325 0
165 2325 0
-285 2325 0
165 -285 -3045 0
-165 3045 0
285 3045 0
-1725 2445 0
-1725 3165 0
-1725 1005 0
-1725 -1125 0
1725 -2445 -3165 -1005 1125 0
-285 405 -2445 0
285 2445 0
-405 2445 0
285 -405 -3165 0
-285 3165 0
405 3165 0
-1845 2565 0
-1845 3285 0
-1845 1125 0
-1845 -1245 0
1845 -2565 -3285 -1125 1245 0
-405 525 -2565 0
405 2565 0
-525 2565 0
405 -525 -3285 0
-405 3285 0
525 3285 0
-1965 2685 0
-1965 3405 0
-1965 1245 0
-1965 -1365 0
1965 -2685 -3405 -1245 1365 0
-525 645 -2685 0
525 2685 0
-645 2685 0
525 -645 -3405 0
-525 3405 0
645 3405 0
3765 4485 0
3765 5205 0
-3765 -4485 -5205 0
-165 45 -4485 0
165 4485 0
-45 4485 0
165 -45 -5205 0
-165 5205 0
45 5205 0
3885 4605 0
3885 5325 0
-3885 -4605 -5325 0
-285 165 -4605 0
285 4605 0
-165 4605 0
285 -165 -5325 0
-285 5325 0
165 5325 0
4005 4725 0
4005 5445 0
-4005 -4725 -5445 0
-405 285 -4725 0
405 4725 0
-285 4725 0
405 -285 -5445 0
-405 5445 0
285 5445 0
4125 4845 0
4125 5565 0
-4125 -4845 -5565 0
-525 405 -4845 0
525 4845 0
-405 4845 0
525 -405 -5565 0
-525 5565 0
405 5565 0
4245 4965 0
4245 5685 0
-4245 -4965 -5685 0
-645 525 -4965 0
645 4965 0
-525 4965 0
645 -525 -5685 0
-645 5685 0
525 5685 0
766 0
-1366 0
-1486 2206 0
-1486 2926 0
-1486 766 0
-1486 -886 0
1486 -2206 -2926 -766 886 0
-46 166 -2206 0
46 2206 0
-166 2206 0
46 -166 -2926 0
-46 2926 0
166 2926 0
-1606 2326 0
-1606 3046 0
-1606 886 0
-1606 -1006 0
1606 -2326 -3046 -886 1006 0
-166 286 -2326 0
166 2326 0
-286 2326 0
166 -286 -3046 0
-166 3046 0
286 3046 0
-1726 2446 0
-1726 3166 0
-1726 1006 0
-1726 -1126 0
1726 -2446 -3166 -1006 1126 0
-286 406 -2446 0
286 2446 0
-406 2446 0
286 -406 -3166 0
-286 3166 0
406 3166 0
-1846 2566 0
-1846 3286 0
-1846 1126 0
-1846 -1246 0
1846 -2566 -3286 -1126 1246 0
-406 526 -2566 0
406 2566 0
-526 2566 0
406 -526 -3286 0
-406 3286 0
526 3286 0
-1966 2686 0
-1966 3406 0
-1966 1246 0
-1966 -1366 0
1966 -2686 -3406 -1246 1366 0
-526 646 -2686 0
526 2686 0
-646 2686 0
526 -646 -3406 0
-526 3406 0
646 3406 0
3766 4486 0
3766 5206 0
-3766 -4486 -5206 0
-166 46 -4486 0
166 4486 0
-46 4486 0
166 -46 -5206 0
-166 5206 0
46 5206 0
3886 4606 0
3886 5326 0
-3886 -4606 -5326 0
-286 166 -4606 0
286 4606 0
-166 4606 0
286 -166 -5326 0
-286 5326 0
166 5326 0
4006 4726 0
4006 5446 0
-4006 -4726 -5446 0
-406 286 -4726 0
406 4726 0
-286 4726 0
406 -286 -5446 0
-406 5446 0
286 5446 0
4126 4846 0
4126 5566 0
-4126 -4846 -5566 0
-526 406 -4846 0
526 4846 0
-406 4846 0
526 -406 -5566 0
-526 5566 0
406 5566 0
4246 4966 0
4246 5686 0
-4246 -4966 -5686 0
-646 526 -4966 0
646 4966 0
-526 4966 0
646 -526 -5686 0
-646 5686 0
526 5686 0
767 0
-1367 0
-1487 2207 0
-1487 2927 0
-1487 767 0
-1487 -887 0
1487 -2207 -2927 -767 887 0
-47 167 -2207 0
47 2207 0
-167 2207 0
47 -167 -2927 0
-47 2927 0
167 2927 0
-1607 2327 0
-1607 3047 0
-1607 887 0
-1607 -1007 0
1607 -2327 -3047 -887 1007 0
-167 287 -2327 0
167 2327 0
-287 2327 0
167 -287 -3047 0
-167 3047 0
287 3047 0
-1727 2447 0
-1727 3167 0
-1727 1007 0
-1727 -1127 0
1727 -2447 -3167 -1007 1127 0
-287 407 -2447 0
287 2447 0
-407 2447 0
287 -407 -3167 0
-287 3167 0
407 3167 0
-1847 2567 0
-1847 3287 0
-1847 1127 0
-1847 -1247 0
1847 -2567 -3287 -1127 1247 0
-407 527 -2567 0
407 2567 0
-527 2567 0
407 -527 -3287 0
-407 3287 0
527 3287 0
-1967 2687 0
-1967 3407 0
-1967 1247 0
-1967 -1367 0
1967 -2687 -3407 -1247 1367 0
-527 647 -2687 0
527 2687 0
-647 2687 0
527 -647 -3407 0
-527 3407 0
647 3407 0
3767 4487 0
3767 5207 0
-3767 -4487 -5207 0
-167 47 -4487 0
167 4487 0
-47 4487 0
167 -47 -5207 0
-167 5207 0
47 5207 0
3887 4607 0
3887 5327 0
-3887 -4607 -5327 0
-287 167 -4607 0
287 4607 0
-167 4607 0
287 -167 -5327 0
-287 5327 0
167 5327 0
4007 4727 0
4007 5447 0
-4007 -4727 -5447 0
-407 287 -4727 0
407 4727 0
-287 4727 0
407 -287 -5447 0
-407 5447 0
287 5447 0
4127 4847 0
4127 5567 0
-4127 -4847 -5567 0
-527 407 -4847 0
527 4847 0
-407 4847 0
527 -407 -5567 0
-527 5567 0
407 5567 0
4247 4967 0
4247 5687 0
-4247 -4967 -5687 0
-647 527 -4967 0
647 4967 0
-527 4967 0
647 -527 -5687 0
-647 5687 0
527 5687 0
768 0
-1368 0
-1488 2208 0
-1488 2928 0
-1488 768 0
-1488 -888 0
1488 -2208 -2928 -768 888 0
-48 168 -2208 0
48 2208 0
-168 2208 0
48 -168 -2928 0
-48 2928 0
168 2928 0
-1608 2328 0
-1608 3048 0
-1608 888 0
-1608 -1008 0
1608 -2328 -3048 -888 1008 0
-168 288 -2328 0
168 2328 0
-288 2328 0
168 -288 -3048 0
-168 3048 0
288 3048 0
-1728 2448 0
-1728 3168 0
-1728 1008 0
-1728 -1128 0
1728 -2448 -3168 -1008 1128 0
-288 408 -2448 0
288 2448 0
-408 2448 0
288 -408 -3168 0
-288 3168 0
408 3168 0
-1848 2568 0
-1848 3288 0
-1848 1128 0
-1848 -1248 0
1848 -2568 -3288 -1128 1248 0
-408 528 -2568 0
408 2568 0
-528 2568 0
408 -528 -3288 0
-408 3288 0
528 3288 0
-1968 2688 0
-1968 3408 0
-1968 1248 0
-1968 -1368 0
1968 -2688 -3408 -1248 1368 0
-528 648 -2688 0
528 2688 0
-648 2688 0
528 -648 -3408 0
-528 3408 0
648 3408 0
3768 4488 0
3768 5208 0
-3768 -4488 -5208 0
-168 48 -4488 0
168 4488 0
-48 4488 0
168 -48 -5208 0
-168 5208 0
48 5208 0
3888 4608 0
3888 5328 0
-3888 -4608 -5328 0
-288 168 -4608 0
288 4608 0
-168 4608 0
288 -168 -5328 0
-288 5328 0
168 5328 0
4008 4728 0
4008 5448 0
-4008 -4728 -5448 0
-408 288 -4728 0
408 4728 0
-288 4728 0
408 -288 -5448 0
-408 5448 0
288 5448 0
4128 4848 0
4128 5568 0
-4128 -4848 -5568 0
-528 408 -4848 0
528 4848 0
-408 4848 0
528 -408 -5568 0
-528 5568 0
408 5568 0
4248 4968 0
4248 5688 0
-4248 -4968 -5688 0
-648 528 -4968 0
648 4968 0
-528 4968 0
648 -528 -5688 0
-648 5688 0
528 5688 0
769 0
-1369 0
-1489 2209 0
-1489 2929 0
-1489 769 0
-1489 -889 0
1489 -2209 -2929 -769 889 0
-49 169 -2209 0
49 2209 0
-169 2209 0
49 -169 -2929 0
-49 2929 0
169 2929 0
-1609 2329 0
-1609 3049 0
-1609 889 0
-1609 -1009 0
1609 -2329 -3049 -889 1009 0
-169 289 -2329 0
169 2329 0
-289 2329 0
169 -289 -3049 0
-169 3049 0
289 3049 0
-1729 2449 0
-1729 3169 0
-1729 1009 0
-1729 -1129 0
1729 -2449 -3169 -1009 1129 0
-289 409 -2449 0
289 2449 0
-409 2449 0
289 -409 -3169 0
-289 3169 0
409 3169 0
-1849 2569 0
-1849 3289 0
-1849 1129 0
-1849 -1249 0
1849 -2569 -3289 -1129 1249 0
-409 529 -2569 0
409 2569 0
-529 2569 0
409 -529 -3289 0
-409 3289 0
529 3289 0
-1969 2689 0
-1969 3409 0
-1969 1249 0
-1969 -1369 0
1969 -2689 -3409 -1249 1369 0
-529 649 -2689 0
529 2689 0
-649 2689 0
529 -649 -3409 0
-529 3409 0
649 3409 0
3769 4489 0
3769 5209 0
-3769 -4489 -5209 0
-169 49 -4489 0
169 4489 0
-49 4489 0
169 -49 -5209 0
-169 5209 0
49 5209 0
3889 4609 0
3889 5329 0
-3889 -4609 -5329 0
-289 169 -4609 0
289 4609 0
-169 4609 0
289 -169 -5329 0
-289 5329 0
169 5329 0
4009 4729 0
4009 5449 0
-4009 -4729 -5449 0
-409 289 -4729 0
409 4729 0
-289 4729 0
409 -289 -5449 0
-409 5449 0
289 5449 0
4129 4849 0
4129 5569 0
-4129 -4849 -5569 0
-529 409 -4849 0
529 4849 0
-409 4849 0
529 -409 -5569 0
-529 5569 0
409 5569 0
4249 4969 0
4249 5689 0
-4249 -4969 -5689 0
-649 529 -4969 0
649 4969 0
-529 4969 0
649 -529 -5689 0
-649 5689 0
529 5689 0
770 0
-1370 0
-1490 2210 0
-1490 2930 0
-1490 770 0
-1490 -890 0
1490 -2210 -2930 -770 890 0
-50 170 -2210 0
50 2210 0
-170 2210 0
50 -170 -2930 0
-50 2930 0
170 2930 0
-1610 2330 0
-1610 3050 0
-1610 890 0
-1610 -1010 0
1610 -2330 -3050 -890 1010 0
-170 290 -2330 0
170 2330 0
-290 2330 0
170 -290 -3050 0
-170 3050 0
290 3050 0
-1730 2450 0
-1730 3170 0
-1730 1010 0
-1730 -1130 0
1730 -2450 -3170 -1010 1130 0
-290 410 -2450 0
290 2450 0
-410 2450 0
290 -410 -3170 0
-290 3170 0
410 3170 0
-1850 2570 0
-1850 3290 0
-1850 1130 0
-1850 -1250 0
1850 -2570 -3290 -1130 1250 0
-410 530 -2570 0
410 2570 0
-530 2570 0
410 -530 -3290 0
-410 3290 0
530 3290 0
-1970 2690 0
-1970 3410 0
-1970 1250 0
-1970 -1370 0
1970 -2690 -3410 -1250 1370 0
-530 650 -2690 0
530 2690 0
-650 2690 0
530 -650 -3410 0
-530 3410 0
650 3410 0
3770 4490 0
3770 5210 0
-3770 -4490 -5210 0
-170 50 -4490 0
170 4490 0
-50 4490 0
170 -50 -5210 0
-170 5210 0
50 5210 0
3890 4610 0
3890 5330 0
-3890 -4610 -5330 0
-290 170 -4610 0
290 4610 0
-170 4610 0
290 -170 -5330 0
-290 5330 0
170 5330 0
4010 4730 0
4010 5450 0
-4010 -4730 -5450 0
-410 290 -4730 0
410 4730 0
-290 4730 0
410 -290 -5450 0
-410 5450 0
290 5450 0
4130 4850 0
4130 5570 0
-4130 -4850 -5570 0
-530 410 -4850 0
530 4850 0
-410 4850 0
530 -410 -5570 0
-530 5570 0
410 5570 0
4250 4970 0
4250 5690 0
-4250 -4970 -5690 0
-650 530 -4970 0
650 4970 0
-530 4970 0
650 -530 -5690 0
-650 5690 0
530 5690 0
771 0
-1371 0
-1491 2211 0
-1491 2931 0
-1491 771 0
-1491 -891 0
1491 -2211 -2931 -771 891 0
-51 171 -2211 0
51 2211 0
-171 2211 0
51 -171 -2931 0
-51 2931 0
171 2931 0
-1611 2331 0
-1611 3051 0
-1611 891 0
-1611 -1011 0
1611 -2331 -3051 -891 1011 0
-171 291 -2331 0
171 2331 0
-291 2331 0
171 -291 -3051 0
-171 3051 0
291 3051 0
-1731 2451 0
-1731 3171 0
-1731 1011 0
-1731 -1131 0
1731 -2451 -3171 -1011 1131 0
-291 411 -2451 0
291 2451 0
-411 2451 0
291 -411 -3171 0
-291 3171 0
411 3171 0
-1851 2571 0
-1851 3291 0
-1851 1131 0
-1851 -1251 0
1851 -2571 -3291 -1131 1251 0
-411 531 -2571 0
411 2571 0
-531 2571 0
411 -531 -3291 0
-411 3291 0
531 3291 0
-1971 2691 0
-1971 3411 0
-1971 1251 0
-1971 -1371 0
1971 -2691 -3411 -1251 1371 0
-531 651 -2691 0
531 2691 0
-651 2691 0
531 -651 -3411 0
-531 3411 0
651 3411 0
3771 4491 0
3771 5211 0
-3771 -4491 -5211 0
-171 51 -4491 0
171 4491 0
-51 4491 0
171 -51 -5211 0
-171 5211 0
51 5211 0
3891 4611 0
3891 5331 0
-3891 -4611 -5331 0
-291 171 -4611 0
291 4611 0
-171 4611 0
291 -171 -5331 0
-291 5331 0
171 5331 0
4011 4731 0
4011 5451 0
-4011 -4731 -5451 0
-411 291 -4731 0
411 4731 0
-291 4731 0
411 -291 -5451 0
-411 5451 0
291 5451 0
4131 4851 0
4131 5571 0
-4131 -4851 -5571 0
-531 411 -4851 0
531 4851 0
-411 4851 0
531 -411 -5571 0
-531 5571 0
411 5571 0
4251 4971 0
4251 5691 0
-4251 -4971 -5691 0
-651 531 -4971 0
651 4971 0
-531 4971 0
651 -531 -5691 0
-651 5691 0
531 5691 0
772 0
-1372 0
-1492 2212 0
-1492 2932 0
-1492 772 0
-1492 -892 0
1492 -2212 -2932 -772 892 0
-52 172 -2212 0
52 2212 0
-172 2212 0
52 -172 -2932 0
-52 2932 0
172 2932 0
-1612 2332 0
-1612 3052 0
-1612 892 0
-1612 -1012 0
1612 -2332 -3052 -892 1012 0
-172 292 -2332 0
172 2332 0
-292 2332 0
172 -292 -3052 0
-172 3052 0
292 3052 0
-1732 2452 0
-1732 3172 0
-1732 1012 0
-1732 -1132 0
1732 -2452 -3172 -1012 1132 0
-292 412 -2452 0
292 2452 0
-412 2452 0
292 -412 -3172 0
-292 3172 0
412 3172 0
-1852 2572 0
-1852 3292 0
-1852 1132 0
-1852 -1252 0
1852 -2572 -3292 -1132 1252 0
-412 532 -2572 0
412 2572 0
-532 2572 0
412 -532 -3292 0
-412 3292 0
532 3292 0
-1972 2692 0
-1972 3412 0
-1972 1252 0
-1972 -1372 0
1972 -2692 -3412 -1252 1372 0
-532 652 -2692 0
532 2692 0
-652 2692 0
532 -652 -3412 0
-532 3412 0
652 3412 0
3772 4492 0
3772 5212 0
-3772 -4492 -5212 0
-172 52 -4492 0
172 4492 0
-52 4492 0
172 -52 -5212 0
-172 5212 0
52 5212 0
3892 4612 0
3892 5332 0
-3892 -4612 -5332 0
-292 172 -4612 0
292 4612 0
-172 4612 0
292 -172 -5332 0
-292 5332 0
172 5332 0
4012 4732 0
4012 5452 0
-4012 -4732 -5452 0
-412 292 -4732 0
412 4732 0
-292 4732 0
412 -292 -5452 0
-412 5452 0
292 5452 0
4132 4852 0
4132 5572 0
-4132 -4852 -5572 0
-532 412 -4852 0
532 4852 0
-412 4852 0
532 -412 -5572 0
-532 5572 0
412 5572 0
4252 4972 0
4252 5692 0
-4252 -4972 -5692 0
-652 532 -4972 0
652 4972 0
-532 4972 0
652 -532 -5692 0
-652 5692 0
532 5692 0
773 0
-1373 0
-1493 2213 0
-1493 2933 0
-1493 773 0
-1493 -893 0
1493 -2213 -2933 -773 893 0
-53 173 -2213 0
53 2213 0
-173 2213 0
53 -173 -2933 0
-53 2933 0
173 2933 0
-1613 2333 0
-1613 3053 0
-1613 893 0
-1613 -1013 0
1613 -2333 -3053 -893 1013 0
-173 293 -2333 0
173 2333 0
-293 2333 0
173 -293 -3053 0
-173 3053 0
293 3053 0
-1733 2453 0
-1733 3173 0
-1733 1013 0
-1733 -1133 0
1733 -2453 -3173 -1013 1133 0
-293 413 -2453 0
293 2453 0
-413 2453 0
293 -413 -3173 0
-293 3173 0
413 3173 0
-1853 2573 0
-1853 3293 0
-1853 1133 0
-1853 -1253 0
1853 -2573 -3293 -1133 1253 0
-413 533 -2573 0
413 2573 0
-533 2573 0
413 -533 -3293 0
-413 3293 0
533 3293 0
-1973 2693 0
-1973 3413 0
-1973 1253 0
-1973 -1373 0
1973 -2693 -3413 -1253 1373 0
-533 653 -2693 0
533 2693 0
-653 2693 0
533 -653 -3413 0
-533 3413 0
653 3413 0
3773 4493 0
3773 5213 0
-3773 -4493 -5213 0
-173 53 -4493 0
173 4493 0
-53 4493 0
173 -53 -5213 0
-173 5213 0
53 5213 0
3893 4613 0
3893 5333 0
-3893 -4613 -5333 0
-293 173 -4613 0
293 4613 0
-173 4613 0
293 -173 -5333 0
-293 5333 0
173 5333 0
4013 4733 0
4013 5453 0
-4013 -4733 -5453 0
-413 293 -4733 0
413 4733 0
-293 4733 0
413 -293 -5453 0
-413 5453 0
293 5453 0
4133 4853 0
4133 5573 0
-4133 -4853 -5573 0
-533 413 -4853 0
533 4853 0
-413 4853 0
533 -413 -5573 0
-533 5573 0
413 5573 0
4253 4973 0
4253 5693 0
-4253 -4973 -5693 0
-653 533 -4973 0
653 4973 0
-533 4973 0
653 -533 -5693 0
-653 5693 0
533 5693 0
774 0
-1374 0
-1494 2214 0
-1494 2934 0
-1494 774 0
-1494 -894 0
1494 -2214 -2934 -774 894 0
-54 174 -2214 0
54 2214 0
-174 2214 0
54 -174 -2934 0
-54 2934 0
174 2934 0
-1614 2334 0
-1614 3054 0
-1614 894 0
-1614 -1014 0
1614 -2334 -3054 -894 1014 0
-174 294 -2334 0
174 2334 0
-294 2334 0
174 -294 -3054 0
-174 3054 0
294 3054 0
-1734 2454 0
-1734 3174 0
-1734 1014 0
-1734 -1134 0
1734 -2454 -3174 -1014 1134 0
-294 414 -2454 0
294 2454 0
-414 2454 0
294 -414 -3174 0
-294 3174 0
414 3174 0
-1854 2574 0
-1854 3294 0
-1854 1134 0
-1854 -1254 0
1854 -2574 -3294 -1134 1254 0
-414 534 -2574 0
414 2574 0
-534 2574 0
414 -534 -3294 0
-414 3294 0
534 3294 0
-1974 2694 0
-1974 3414 0
-1974 1254 0
-1974 -1374 0
1974 -2694 -3414 -1254 1374 0
-534 654 -2694 0
534 2694 0
-654 2694 0
534 -654 -3414 0
-534 3414 0
654 3414 0
3774 4494 0
3774 5214 0
-3774 -4494 -5214 0
-174 54 -4494 0
174 4494 0
-54 4494 0
174 -54 -5214 0
-174 5214 0
54 5214 0
3894 4614 0
3894 5334 0
-3894 -4614 -5334 0
-294 174 -4614 0
294 4614 0
-174 4614 0
294 -174 -5334 0
-294 5334 0
174 5334 0
4014 4734 0
4014 5454 0
-4014 -4734 -5454 0
-414 294 -4734 0
414 4734 0
-294 4734 0
414 -294 -5454 0
-414 5454 0
294 5454 0
4134 4854 0
4134 5574 0
-4134 -4854 -5574 0
-534 414 -4854 0
534 4854 0
-414 4854 0
534 -414 -5574 0
-534 5574 0
414 5574 0
4254 4974 0
4254 5694 0
-4254 -4974 -5694 0
-654 534 -4974 0
654 4974 0
-534 4974 0
654 -534 -5694 0
-654 5694 0
534 5694 0
775 0
-1375 0
-1495 2215 0
-1495 2935 0
-1495 775 0
-1495 -895 0
1495 -2215 -2935 -775 895 0
-55 175 -2215 0
55 2215 0
-175 2215 0
55 -175 -2935 0
-55 2935 0
175 2935 0
-1615 2335 0
-1615 3055 0
-1615 895 0
-1615 -1015 0
1615 -2335 -3055 -895 1015 0
-175 295 -2335 0
175 2335 0
-295 2335 0
175 -295 -3055 0
-175 3055 0
295 3055 0
-1735 2455 0
-1735 3175 0
-1735 1015 0
-1735 -1135 0
1735 -2455 -3175 -1015 1135 0
-295 415 -2455 0
295 2455 0
-415 2455 0
295 -415 -3175 0
-295 3175 0
415 3175 0
-1855 2575 0
-1855 3295 0
-1855 1135 0
-1855 -1255 0
1855 -2575 -3295 -1135 1255 0
-415 535 -2575 0
415 2575 0
-535 2575 0
415 -535 -3295 0
-415 3295 0
535 3295 0
-1975 2695 0
-1975 3415 0
-1975 1255 0
-1975 -1375 0
1975 -2695 -3415 -1255 1375 0
-535 655 -2695 0
535 2695 0
-655 2695 0
535 -655 -3415 0
-535 3415 0
655 3415 0
3775 4495 0
3775 5215 0
-3775 -4495 -5215 0
-175 55 -4495 0
175 4495 0
-55 4495 0
175 -55 -5215 0
-175 5215 0
55 5215 0
3895 4615 0
3895 5335 0
-3895 -4615 -5335 0
-295 175 -4615 0
295 4615 0
-175 4615 0
295 -175 -5335 0
-295 5335 0
175 5335 0
4015 4735 0
4015 5455 0
-4015 -4735 -5455 0
-415 295 -4735 0
415 4735 0
-295 4735 0
415 -295 -5455 0
-415 5455 0
295 5455 0
4135 4855 0
4135 5575 0
-4135 -4855 -5575 0
-535 415 -4855 0
535 4855 0
-415 4855 0
535 -415 -5575 0
-535 5575 0
415 5575 0
4255 4975 0
4255 5695 0
-4255 -4975 -5695 0
-655 535 -4975 0
655 4975 0
-535 4975 0
655 -535 -5695 0
-655 5695 0
535 5695 0
776 0
-1376 0
-1496 2216 0
-1496 2936 0
-1496 776 0
-1496 -896 0
1496 -2216 -2936 -776 896 0
-56 176 -2216 0
56 2216 0
-176 2216 0
56 -176 -2936 0
-56 2936 0
176 2936 0
-1616 2336 0
-1616 3056 0
-1616 896 0
-1616 -1016 0
1616 -2336 -3056 -896 1016 0
-176 296 -2336 0
176 2336 0
-296 2336 0
176 -296 -3056 0
-176 3056 0
296 3056 0
-1736 2456 0
-1736 3176 0
-1736 1016 0
-1736 -1136 0
1736 -2456 -3176 -1016 1136 0
-296 416 -2456 0
296 2456 0
-416 2456 0
296 -416 -3176 0
-296 3176 0
416 3176 0
-1856 2576 0
-1856 3296 0
-1856 1136 0
-1856 -1256 0
1856 -2576 -3296 -1136 1256 0
-416 536 -2576 0
416 2576 0
-536 2576 0
416 -536 -3296 0
-416 3296 0
536 3296 0
-1976 2696 0
-1976 3416 0
-1976 1256 0
-1976 -1376 0
1976 -2696 -3416 -1256 1376 0
-536 656 -2696 0
536 2696 0
-656 2696 0
536 -656 -3416 0
-536 3416 0
656 3416 0
3776 4496 0
3776 5216 0
-3776 -4496 -5216 0
-176 56 -4496 0
176 4496 0
-56 4496 0
176 -56 -5216 0
-176 5216 0
56 5216 0
3896 4616 0
3896 5336 0
-3896 -4616 -5336 0
-296 176 -4616 0
296 4616 0
-176 4616 0
296 -176 -5336 0
-296 5336 0
176 5336 0
4016 4736 0
4016 5456 0
-4016 -4736 -5456 0
-416 296 -4736 0
416 4736 0
-296 4736 0
416 -296 -5456 0
-416 5456 0
296 5456 0
4136 4856 0
4136 5576 0
-4136 -4856 -5576 0
-536 416 -4856 0
536 4856 0
-416 4856 0
536 -416 -5576 0
-536 5576 0
416 5576 0
4256 4976 0
4256 5696 0
-4256 -4976 -5696 0
-656 536 -4976 0
656 4976 0
-536 4976 0
656 -536 -5696 0
-656 5696 0
536 5696 0
777 0
-1377 0
-1497 2217 0
-1497 2937 0
-1497 777 0
-1497 -897 0
1497 -2217 -2937 -777 897 0
-57 177 -2217 0
57 2217 0
-177 2217 0
57 -177 -2937 0
-57 2937 0
177 2937 0
-1617 2337 0
-1617 3057 0
-1617 897 0
-1617 -1017 0
1617 -2337 -3057 -897 1017 0
-177 297 -2337 0
177 2337 0
-297 2337 0
177 -297 -3057 0
-177 3057 0
297 3057 0
-1737 2457 0
-1737 3177 0
-1737 1017 0
-1737 -1137 0
1737 -2457 -3177 -1017 1137 0
-297 417 -2457 0
297 2457 0
-417 2457 0
297 -417 -3177 0
-297 3177 0
417 3177 0
-1857 2577 0
-1857 3297 0
-1857 1137 0
-1857 -1257 0
1857 -2577 -3297 -1137 1257 0
-417 537 -2577 0
417 2577 0
-537 2577 0
417 -537 -3297 0
-417 3297 0
537 3297 0
-1977 2697 0
-1977 3417 0
-1977 1257 0
-1977 -1377 0
1977 -2697 -3417 -1257 1377 0
-537 657 -2697 0
537 2697 0
-657 2697 0
537 -657 -3417 0
-537 3417 0
657 3417 0
3777 4497 0
3777 5217 0
-3777 -4497 -5217 0
-177 57 -4497 0
177 4497 0
-57 4497 0
177 -57 -5217 0
-177 5217 0
57 5217 0
3897 4617 0
3897 5337 0
-3897 -4617 -5337 0
-297 177 -4617 0
297 4617 0
-177 4617 0
297 -177 -5337 0
-297 5337 0
177 5337 0
4017 4737 0
4017 5457 0
-4017 -4737 -5457 0
-417 297 -4737 0
417 4737 0
-297 4737 0
417 -297 -5457 0
-417 5457 0
297 5457 0
4137 4857 0
4137 5577 0
-4137 -4857 -5577 0
-537 417 -4857 0
537 4857 0
-417 4857 0
537 -417 -5577 0
-537 5577 0
417 5577 0
4257 4977 0
4257 5697 0
-4257 -4977 -5697 0
-657 537 -4977 0
657 4977 0
-537 4977 0
657 -537 -5697 0
-657 5697 0
537 5697 0
778 0
-1378 0
-1498 2218 0
-1498 2938 0
-1498 778 0
-1498 -898 0
1498 -2218 -2938 -778 898 0
-58 178 -2218 0
58 2218 0
-178 2218 0
58 -178 -2938 0
-58 2938 0
178 2938 0
-1618 2338 0
-1618 3058 0
-1618 898 0
-1618 -1018 0
1618 -2338 -3058 -898 1018 0
-178 298 -2338 0
178 2338 0
-298 2338 0
178 -298 -3058 0
-178 3058 0
298 3058 0
-1738 2458 0
-1738 3178 0
-1738 1018 0
-1738 -1138 0
1738 -2458 -3178 -1018 1138 0
-298 418 -2458 0
298 2458 0
-418 2458 0
298 -418 -3178 0
-298 3178 0
418 3178 0
-1858 2578 0
-1858 3298 0
-1858 1138 0
-1858 -1258 0
1858 -2578 -3298 -1138 1258 0
-418 538 -2578 0
418 2578 0
-538 2578 0
418 -538 -3298 0
-418 3298 0
538 3298 0
-1978 2698 0
-1978 3418 0
-1978 1258 0
-1978 -1378 0
1978 -2698 -3418 -1258 1378 0
-538 658 -2698 0
538 2698 0
-658 2698 0
538 -658 -3418 0
-538 3418 0
658 3418 0
3778 4498 0
3778 5218 0
-3778 -4498 -5218 0
-178 58 -4498 0
178 4498 0
-58 4498 0
178 -58 -5218 0
-178 5218 0
58 5218 0
3898 4618 0
3898 5338 0
-3898 -4618 -5338 0
-298 178 -4618 0
298 4618 0
-178 4618 0
298 -178 -5338 0
-298 5338 0
178 5338 0
4018 4738 0
4018 5458 0
-4018 -4738 -5458 0
-418 298 -4738 0
418 4738 0
-298 4738 0
418 -298 -5458 0
-418 5458 0
298 5458 0
4138 4858 0
4138 5578 0
-4138 -4858 -5578 0
-538 418 -4858 0
538 4858 0
-418 4858 0
538 -418 -5578 0
-538 5578 0
418 5578 0
4258 4978 0
4258 5698 0
-4258 -4978 -5698 0
-658 538 -4978 0
658 4978 0
-538 4978 0
658 -538 -5698 0
-658 5698 0
538 5698 0
779 0
-1379 0
-1499 2219 0
-1499 2939 0
-1499 779 0
-1499 -899 0
1499 -2219 -2939 -779 899 0
-59 179 -2219 0
59 2219 0
-179 2219 0
59 -179 -2939 0
-59 2939 0
179 2939 0
-1619 2339 0
-1619 3059 0
-1619 899 0
-1619 -1019 0
1619 -2339 -3059 -899 1019 0
-179 299 -2339 0
179 2339 0
-299 2339 0
179 -299 -3059 0
-179 3059 0
299 3059 0
-1739 2459 0
-1739 3179 0
-1739 1019 0
-1739 -1139 0
1739 -2459 -3179 -1019 1139 0
-299 419 -2459 0
299 2459 0
-419 2459 0
299 -419 -3179 0
-299 3179 0
419 3179 0
-1859 2579 0
-1859 3299 0
-1859 1139 0
-1859 -1259 0
1859 -2579 -3299 -1139 1259 0
-419 539 -2579 0
419 2579 0
-539 2579 0
419 -539 -3299 0
-419 3299 0
539 3299 0
-1979 2699 0
-1979 3419 0
-1979 1259 0
-1979 -1379 0
1979 -2699 -3419 -1259 1379 0
-539 659 -2699 0
539 2699 0
-659 2699 0
539 -659 -3419 0
-539 3419 0
659 3419 0
3779 4499 0
3779 5219 0
-3779 -4499 -5219 0
-179 59 -4499 0
179 4499 0
-59 4499 0
179 -59 -5219 0
-179 5219 0
59 5219 0
3899 4619 0
3899 5339 0
-3899 -4619 -5339 0
-299 179 -4619 0
299 4619 0
-179 4619 0
299 -179 -5339 0
-299 5339 0
179 5339 0
4019 4739 0
4019 5459 0
-4019 -4739 -5459 0
-419 299 -4739 0
419 4739 0
-299 4739 0
419 -299 -5459 0
-419 5459 0
299 5459 0
4139 4859 0
4139 5579 0
-4139 -4859 -5579 0
-539 419 -4859 0
539 4859 0
-419 4859 0
539 -419 -5579 0
-539 5579 0
419 5579 0
4259 4979 0
4259 5699 0
-4259 -4979 -5699 0
-659 539 -4979 0
659 4979 0
-539 4979 0
659 -539 -5699 0
-659 5699 0
539 5699 0
780 0
-1380 0
-1500 2220 0
-1500 2940 0
-1500 780 0
-1500 -900 0
1500 -2220 -2940 -780 900 0
-60 180 -2220 0
60 2220 0
-180 2220 0
60 -180 -2940 0
-60 2940 0
180 2940 0
-1620 2340 0
-1620 3060 0
-1620 900 0
-1620 -1020 0
1620 -2340 -3060 -900 1020 0
-180 300 -2340 0
180 2340 0
-300 2340 0
180 -300 -3060 0
-180 3060 0
300 3060 0
-1740 2460 0
-1740 3180 0
-1740 1020 0
-1740 -1140 0
1740 -2460 -3180 -1020 1140 0
-300 420 -2460 0
300 2460 0
-420 2460 0
300 -420 -3180 0
-300 3180 0
420 3180 0
-1860 2580 0
-1860 3300 0
-1860 1140 0
-1860 -1260 0
1860 -2580 -3300 -1140 1260 0
-420 540 -2580 0
420 2580 0
-540 2580 0
420 -540 -3300 0
-420 3300 0
540 3300 0
-1980 2700 0
-1980 3420 0
-1980 1260 0
-1980 -1380 0
1980 -2700 -3420 -1260 1380 0
-540 660 -2700 0
540 2700 0
-660 2700 0
540 -660 -3420 0
-540 3420 0
660 3420 0
3780 4500 0
3780 5220 0
-3780 -4500 -5220 0
-180 60 -4500 0
180 4500 0
-60 4500 0
180 -60 -5220 0
-180 5220 0
60 5220 0
3900 4620 0
3900 5340 0
-3900 -4620 -5340 0
-300 180 -4620 0
300 4620 0
-180 4620 0
300 -180 -5340 0
-300 5340 0
180 5340 0
4020 4740 0
4020 5460 0
-4020 -4740 -5460 0
-420 300 -4740 0
420 4740 0
-300 4740 0
420 -300 -5460 0
-420 5460 0
300 5460 0
4140 4860 0
4140 5580 0
-4140 -4860 -5580 0
-540 420 -4860 0
540 4860 0
-420 4860 0
540 -420 -5580 0
-540 5580 0
420 5580 0
4260 4980 0
4260 5700 0
-4260 -4980 -5700 0
-660 540 -4980 0
660 4980 0
-540 4980 0
660 -540 -5700 0
-660 5700 0
540 5700 0
781 0
-1381 0
-1501 2221 0
-1501 2941 0
-1501 781 0
-1501 -901 0
1501 -2221 -2941 -781 901 0
-61 181 -2221 0
61 2221 0
-181 2221 0
61 -181 -2941 0
-61 2941 0
181 2941 0
-1621 2341 0
-1621 3061 0
-1621 901 0
-1621 -1021 0
1621 -2341 -3061 -901 1021 0
-181 301 -2341 0
181 2341 0
-301 2341 0
181 -301 -3061 0
-181 3061 0
301 3061 0
-1741 2461 0
-1741 3181 0
-1741 1021 0
-1741 -1141 0
1741 -2461 -3181 -1021 1141 0
-301 421 -2461 0
301 2461 0
-421 2461 0
301 -421 -3181 0
-301 3181 0
421 3181 0
-1861 2581 0
-1861 3301 0
-1861 1141 0
-1861 -1261 0
1861 -2581 -3301 -1141 1261 0
-421 541 -2581 0
421 2581 0
-541 2581 0
421 -541 -3301 0
-421 3301 0
541 3301 0
-1981 2701 0
-1981 3421 0
-1981 1261 0
-1981 -1381 0
1981 -2701 -3421 -1261 1381 0
-541 661 -2701 0
541 2701 0
-661 2701 0
541 -661 -3421 0
-541 3421 0
661 3421 0
3781 4501 0
3781 5221 0
-3781 -4501 -5221 0
-181 61 -4501 0
181 4501 0
-61 4501 0
181 -61 -5221 0
-181 5221 0
61 5221 0
3901 4621 0
3901 5341 0
-3901 -4621 -5341 0
-301 181 -4621 0
301 4621 0
-181 4621 0
301 -181 -5341 0
-301 5341 0
181 5341 0
4021 4741 0
4021 5461 0
-4021 -4741 -5461 0
-421 301 -4741 0
421 4741 0
-301 4741 0
421 -301 -5461 0
-421 5461 0
301 5461 0
4141 4861 0
4141 5581 0
-4141 -4861 -5581 0
-541 421 -4861 0
541 4861 0
-421 4861 0
541 -421 -5581 0
-541 5581 0
421 5581 0
4261 4981 0
4261 5701 0
-4261 -4981 -5701 0
-661 541 -4981 0
661 4981 0
-541 4981 0
661 -541 -5701 0
-661 5701 0
541 5701 0
782 0
-1382 0
-1502 2222 0
-1502 2942 0
-1502 782 0
-1502 -902 0
1502 -2222 -2942 -782 902 0
-62 182 -2222 0
62 2222 0
-182 2222 0
62 -182 -2942 0
-62 2942 0
182 2942 0
-1622 2342 0
-1622 3062 0
-1622 902 0
-1622 -1022 0
1622 -2342 -3062 -902 1022 0
-182 302 -2342 0
182 2342 0
-302 2342 0
182 -302 -3062 0
-182 3062 0
302 3062 0
-1742 2462 0
-1742 3182 0
-1742 1022 0
-1742 -1142 0
1742 -2462 -3182 -1022 1142 0
-302 422 -2462 0
302 2462 0
-422 2462 0
302 -422 -3182 0
-302 3182 0
422 3182 0
-1862 2582 0
-1862 3302 0
-1862 1142 0
-1862 -1262 0
1862 -2582 -3302 -1142 1262 0
-422 542 -2582 0
422 2582 0
-542 2582 0
422 -542 -3302 0
-422 3302 0
542 3302 0
-1982 2702 0
-1982 3422 0
-1982 1262 0
-1982 -1382 0
1982 -2702 -3422 -1262 1382 0
-542 662 -2702 0
542 2702 0
-662 2702 0
542 -662 -3422 0
-542 3422 0
662 3422 0
3782 4502 0
3782 5222 0
-3782 -4502 -5222 0
-182 62 -4502 0
182 4502 0
-62 4502 0
182 -62 -5222 0
-182 5222 0
62 5222 0
3902 4622 0
3902 5342 0
-3902 -4622 -5342 0
-302 182 -4622 0
302 4622 0
-182 4622 0
302 -182 -5342 0
-302 5342 0
182 5342 0
4022 4742 0
4022 5462 0
-4022 -4742 -5462 0
-422 302 -4742 0
422 4742 0
-302 4742 0
422 -302 -5462 0
-422 5462 0
302 5462 0
4142 4862 0
4142 5582 0
-4142 -4862 -5582 0
-542 422 -4862 0
542 4862 0
-422 4862 0
542 -422 -5582 0
-542 5582 0
422 5582 0
4262 4982 0
4262 5702 0
-4262 -4982 -5702 0
-662 542 -4982 0
662 4982 0
-542 4982 0
662 -542 -5702 0
-662 5702 0
542 5702 0
783 0
-1383 0
-1503 2223 0
-1503 2943 0
-1503 783 0
-1503 -903 0
1503 -2223 -2943 -783 903 0
-63 183 -2223 0
63 2223 0
-183 2223 0
63 -183 -2943 0
-63 2943 0
183 2943 0
-1623 2343 0
-1623 3063 0
-1623 903 0
-1623 -1023 0
1623 -2343 -3063 -903 1023 0
-183 303 -2343 0
183 2343 0
-303 2343 0
183 -303 -3063 0
-183 3063 0
303 3063 0
-1743 2463 0
-1743 3183 0
-1743 1023 0
-1743 -1143 0
1743 -2463 -3183 -1023 1143 0
-303 423 -2463 0
303 2463 0
-423 2463 0
303 -423 -3183 0
-303 3183 0
423 3183 0
-1863 2583 0
-1863 3303 0
-1863 1143 0
-1863 -1263 0
1863 -2583 -3303 -1143 1263 0
-423 543 -2583 0
423 2583 0
-543 2583 0
423 -543 -3303 0
-423 3303 0
543 3303 0
-1983 2703 0
-1983 3423 0
-1983 1263 0
-1983 -1383 0
1983 -2703 -3423 -1263 1383 0
-543 663 -2703 0
543 2703 0
-663 2703 0
543 -663 -3423 0
-543 3423 0
663 3423 0
3783 4503 0
3783 5223 0
-3783 -4503 -5223 0
-183 63 -4503 0
183 4503 0
-63 4503 0
183 -63 -5223 0
-183 5223 0
63 5223 0
3903 4623 0
3903 5343 0
-3903 -4623 -5343 0
-303 183 -4623 0
303 4623 0
-183 4623 0
303 -183 -5343 0
-303 5343 0
183 5343 0
4023 4743 0
4023 5463 0
-4023 -4743 -5463 0
-423 303 -4743 0
423 4743 0
-303 4743 0
423 -303 -5463 0
-423 5463 0
303 5463 0
4143 4863 0
4143 5583 0
-4143 -4863 -5583 0
-543 423 -4863 0
543 4863 0
-423 4863 0
543 -423 -5583 0
-543 5583 0
423 5583 0
4263 4983 0
4263 5703 0
-4263 -4983 -5703 0
-663 543 -4983 0
663 4983 0
-543 4983 0
663 -543 -5703 0
-663 5703 0
543 5703 0
784 0
-1384 0
-1504 2224 0
-1504 2944 0
-1504 784 0
-1504 -904 0
1504 -2224 -2944 -784 904 0
-64 184 -2224 0
64 2224 0
-184 2224 0
64 -184 -2944 0
-64 2944 0
184 2944 0
-1624 2344 0
-1624 3064 0
-1624 904 0
-1624 -1024 0
1624 -2344 -3064 -904 1024 0
-184 304 -2344 0
184 2344 0
-304 2344 0
184 -304 -3064 0
-184 3064 0
304 3064 0
-1744 2464 0
-1744 3184 0
-1744 1024 0
-1744 -1144 0
1744 -2464 -3184 -1024 1144 0
-304 424 -2464 0
304 2464 0
-424 2464 0
304 -424 -3184 0
-304 3184 0
424 3184 0
-1864 2584 0
-1864 3304 0
-1864 1144 0
-1864 -1264 0
1864 -2584 -3304 -1144 1264 0
-424 544 -2584 0
424 2584 0
-544 2584 0
424 -544 -3304 0
-424 3304 0
544 3304 0
-1984 2704 0
-1984 3424 0
-1984 1264 0
-1984 -1384 0
1984 -2704 -3424 -1264 1384 0
-544 664 -2704 0
544 2704 0
-664 2704 0
544 -664 -3424 0
-544 3424 0
664 3424 0
3784 4504 0
3784 5224 0
-3784 -4504 -5224 0
-184 64 -4504 0
184 4504 0
-64 4504 0
184 -64 -5224 0
-184 5224 0
64 5224 0
3904 4624 0
3904 5344 0
-3904 -4624 -5344 0
-304 184 -4624 0
304 4624 0
-184 4624 0
304 -184 -5344 0
-304 5344 0
184 5344 0
4024 4744 0
4024 5464 0
-4024 -4744 -5464 0
-424 304 -4744 0
424 4744 0
-304 4744 0
424 -304 -5464 0
-424 5464 0
304 5464 0
4144 4864 0
4144 5584 0
-4144 -4864 -5584 0
-544 424 -4864 0
544 4864 0
-424 4864 0
544 -424 -5584 0
-544 5584 0
424 5584 0
4264 4984 0
4264 5704 0
-4264 -4984 -5704 0
-664 544 -4984 0
664 4984 0
-544 4984 0
664 -544 -5704 0
-664 5704 0
544 5704 0
785 0
-1385 0
-1505 2225 0
-1505 2945 0
-1505 785 0
-1505 -905 0
1505 -2225 -2945 -785 905 0
-65 185 -2225 0
65 2225 0
-185 2225 0
65 -185 -2945 0
-65 2945 0
185 2945 0
-1625 2345 0
-1625 3065 0
-1625 905 0
-1625 -1025 0
1625 -2345 -3065 -905 1025 0
-185 305 -2345 0
185 2345 0
-305 2345 0
185 -305 -3065 0
-185 3065 0
305 3065 0
-1745 2465 0
-1745 3185 0
-1745 1025 0
-1745 -1145 0
1745 -2465 -3185 -1025 1145 0
-305 425 -2465 0
305 2465 0
-425 2465 0
305 -425 -3185 0
-305 3185 0
425 3185 0
-1865 2585 0
-1865 3305 0
-1865 1145 0
-1865 -1265 0
1865 -2585 -3305 -1145 1265 0
-425 545 -2585 0
425 2585 0
-545 2585 0
425 -545 -3305 0
-425 3305 0
545 3305 0
-1985 2705 0
-1985 3425 0
-1985 1265 0
-1985 -1385 0
1985 -2705 -3425 -1265 1385 0
-545 665 -2705 0
545 2705 0
-665 2705 0
545 -665 -3425 0
-545 3425 0
665 3425 0
3785 4505 0
3785 5225 0
-3785 -4505 -5225 0
-185 65 -4505 0
185 4505 0
-65 4505 0
185 -65 -5225 0
-185 5225 0
65 5225 0
3905 4625 0
3905 5345 0
-3905 -4625 -5345 0
-305 185 -4625 0
305 4625 0
-185 4625 0
305 -185 -5345 0
-305 5345 0
185 5345 0
4025 4745 0
4025 5465 0
-4025 -4745 -5465 0
-425 305 -4745 0
425 4745 0
-305 4745 0
425 -305 -5465 0
-425 5465 0
305 5465 0
4145 4865 0
4145 5585 0
-4145 -4865 -5585 0
-545 425 -4865 0
545 4865 0
-425 4865 0
545 -425 -5585 0
-545 5585 0
425 5585 0
4265 4985 0
4265 5705 0
-4265 -4985 -5705 0
-665 545 -4985 0
665 4985 0
-545 4985 0
665 -545 -5705 0
-665 5705 0
545 5705 0
786 0
-1386 0
-1506 2226 0
-1506 2946 0
-1506 786 0
-1506 -906 0
1506 -2226 -2946 -786 906 0
-66 186 -2226 0
66 2226 0
-186 2226 0
66 -186 -2946 0
-66 2946 0
186 2946 0
-1626 2346 0
-1626 3066 0
-1626 906 0
-1626 -1026 0
1626 -2346 -3066 -906 1026 0
-186 306 -2346 0
186 2346 0
-306 2346 0
186 -306 -3066 0
-186 3066 0
306 3066 0
-1746 2466 0
-1746 3186 0
-1746 1026 0
-1746 -1146 0
1746 -2466 -3186 -1026 1146 0
-306 426 -2466 0
306 2466 0
-426 2466 0
306 -426 -3186 0
-306 3186 0
426 3186 0
-1866 2586 0
-1866 3306 0
-1866 1146 0
-1866 -1266 0
1866 -2586 -3306 -1146 1266 0
-426 546 -2586 0
426 2586 0
-546 2586 0
426 -546 -3306 0
-426 3306 0
546 3306 0
-1986 2706 0
-1986 3426 0
-1986 1266 0
-1986 -1386 0
1986 -2706 -3426 -1266 1386 0
-546 666 -2706 0
546 2706 0
-666 2706 0
546 -666 -3426 0
-546 3426 0
666 3426 0
3786 4506 0
3786 5226 0
-3786 -4506 -5226 0
-186 66 -4506 0
186 4506 0
-66 4506 0
186 -66 -5226 0
-186 5226 0
66 5226 0
3906 4626 0
3906 5346 0
-3906 -4626 -5346 0
-306 186 -4626 0
306 4626 0
-186 4626 0
306 -186 -5346 0
-306 5346 0
186 5346 0
4026 4746 0
4026 5466 0
-4026 -4746 -5466 0
-426 306 -4746 0
426 4746 0
-306 4746 0
426 -306 -5466 0
-426 5466 0
306 5466 0
4146 4866 0
4146 5586 0
-4146 -4866 -5586 0
-546 426 -4866 0
546 4866 0
-426 4866 0
546 -426 -5586 0
-546 5586 0
426 5586 0
4266 4986 0
4266 5706 0
-4266 -4986 -5706 0
-666 546 -4986 0
666 4986 0
-546 4986 0
666 -546 -5706 0
-666 5706 0
546 5706 0
787 0
-1387 0
-1507 2227 0
-1507 2947 0
-1507 787 0
-1507 -907 0
1507 -2227 -2947 -787 907 0
-67 187 -2227 0
67 2227 0
-187 2227 0
67 -187 -2947 0
-67 2947 0
187 2947 0
-1627 2347 0
-1627 3067 0
-1627 907 0
-1627 -1027 0
1627 -2347 -3067 -907 1027 0
-187 307 -2347 0
187 2347 0
-307 2347 0
187 -307 -3067 0
-187 3067 0
307 3067 0
-1747 2467 0
-1747 3187 0
-1747 1027 0
-1747 -1147 0
1747 -2467 -3187 -1027 1147 0
-307 427 -2467 0
307 2467 0
-427 2467 0
307 -427 -3187 0
-307 3187 0
427 3187 0
-1867 2587 0
-1867 3307 0
-1867 1147 0
-1867 -1267 0
1867 -2587 -3307 -1147 1267 0
-427 547 -2587 0
427 2587 0
-547 2587 0
427 -547 -3307 0
-427 3307 0
547 3307 0
-1987 2707 0
-1987 3427 0
-1987 1267 0
-1987 -1387 0
1987 -2707 -3427 -1267 1387 0
-547 667 -2707 0
547 2707 0
-667 2707 0
547 -667 -3427 0
-547 3427 0
667 3427 0
3787 4507 0
3787 5227 0
-3787 -4507 -5227 0
-187 67 -4507 0
187 4507 0
-67 4507 0
187 -67 -5227 0
-187 5227 0
67 5227 0
3907 4627 0
3907 5347 0
-3907 -4627 -5347 0
-307 187 -4627 0
307 4627 0
-187 4627 0
307 -187 -5347 0
-307 5347 0
187 5347 0
4027 4747 0
4027 5467 0
-4027 -4747 -5467 0
-427 307 -4747 0
427 4747 0
-307 4747 0
427 -307 -5467 0
-427 5467 0
307 5467 0
4147 4867 0
4147 5587 0
-4147 -4867 -5587 0
-547 427 -4867 0
547 4867 0
-427 4867 0
547 -427 -5587 0
-547 5587 0
427 5587 0
4267 4987 0
4267 5707 0
-4267 -4987 -5707 0
-667 547 -4987 0
667 4987 0
-547 4987 0
667 -547 -5707 0
-667 5707 0
547 5707 0
788 0
-1388 0
-1508 2228 0
-1508 2948 0
-1508 788 0
-1508 -908 0
1508 -2228 -2948 -788 908 0
-68 188 -2228 0
68 2228 0
-188 2228 0
68 -188 -2948 0
-68 2948 0
188 2948 0
-1628 2348 0
-1628 3068 0
-1628 908 0
-1628 -1028 0
1628 -2348 -3068 -908 1028 0
-188 308 -2348 0
188 2348 0
-308 2348 0
188 -308 -3068 0
-188 3068 0
308 3068 0
-1748 2468 0
-1748 3188 0
-1748 1028 0
-1748 -1148 0
1748 -2468 -3188 -1028 1148 0
-308 428 -2468 0
308 2468 0
-428 2468 0
308 -428 -3188 0
-308 3188 0
428 3188 0
-1868 2588 0
-1868 3308 0
-1868 1148 0
-1868 -1268 0
1868 -2588 -3308 -1148 1268 0
-428 548 -2588 0
428 2588 0
-548 2588 0
428 -548 -3308 0
-428 3308 0
548 3308 0
-1988 2708 0
-1988 3428 0
-1988 1268 0
-1988 -1388 0
1988 -2708 -3428 -1268 1388 0
-548 668 -2708 0
548 2708 0
-668 2708 0
548 -668 -3428 0
-548 3428 0
668 3428 0
3788 4508 0
3788 5228 0
-3788 -4508 -5228 0
-188 68 -4508 0
188 4508 0
-68 4508 0
188 -68 -5228 0
-188 5228 0
68 5228 0
3908 4628 0
3908 5348 0
-3908 -4628 -5348 0
-308 188 -4628 0
308 4628 0
-188 4628 0
308 -188 -5348 0
-308 5348 0
188 5348 0
4028 4748 0
4028 5468 0
-4028 -4748 -5468 0
-428 308 -4748 0
428 4748 0
-308 4748 0
428 -308 -5468 0
-428 5468 0
308 5468 0
4148 4868 0
4148 5588 0
-4148 -4868 -5588 0
-548 428 -4868 0
548 4868 0
-428 4868 0
548 -428 -5588 0
-548 5588 0
428 5588 0
4268 4988 0
4268 5708 0
-4268 -4988 -5708 0
-668 548 -4988 0
668 4988 0
-548 4988 0
668 -548 -5708 0
-668 5708 0
548 5708 0
789 0
-1389 0
-1509 2229 0
-1509 2949 0
-1509 789 0
-1509 -909 0
1509 -2229 -2949 -789 909 0
-69 189 -2229 0
69 2229 0
-189 2229 0
69 -189 -2949 0
-69 2949 0
189 2949 0
-1629 2349 0
-1629 3069 0
-1629 909 0
-1629 -1029 0
1629 -2349 -3069 -909 1029 0
-189 309 -2349 0
189 2349 0
-309 2349 0
189 -309 -3069 0
-189 3069 0
309 3069 0
-1749 2469 0
-1749 3189 0
-1749 1029 0
-1749 -1149 0
1749 -2469 -3189 -1029 1149 0
-309 429 -2469 0
309 2469 0
-429 2469 0
309 -429 -3189 0
-309 3189 0
429 3189 0
-1869 2589 0
-1869 3309 0
-1869 1149 0
-1869 -1269 0
1869 -2589 -3309 -1149 1269 0
-429 549 -2589 0
429 2589 0
-549 2589 0
429 -549 -3309 0
-429 3309 0
549 3309 0
-1989 2709 0
-1989 3429 0
-1989 1269 0
-1989 -1389 0
1989 -2709 -3429 -1269 1389 0
-549 669 -2709 0
549 2709 0
-669 2709 0
549 -669 -3429 0
-549 3429 0
669 3429 0
3789 4509 0
3789 5229 0
-3789 -4509 -5229 0
-189 69 -4509 0
189 4509 0
-69 4509 0
189 -69 -5229 0
-189 5229 0
69 5229 0
3909 4629 0
3909 5349 0
-3909 -4629 -5349 0
-309 189 -4629 0
309 4629 0
-189 4629 0
309 -189 -5349 0
-309 5349 0
189 5349 0
4029 4749 0
4029 5469 0
-4029 -4749 -5469 0
-429 309 -4749 0
429 4749 0
-309 4749 0
429 -309 -5469 0
-429 5469 0
309 5469 0
4149 4869 0
4149 5589 0
-4149 -4869 -5589 0
-549 429 -4869 0
549 4869 0
-429 4869 0
549 -429 -5589 0
-549 5589 0
429 5589 0
4269 4989 0
4269 5709 0
-4269 -4989 -5709 0
-669 549 -4989 0
669 4989 0
-549 4989 0
669 -549 -5709 0
-669 5709 0
549 5709 0
790 0
-1390 0
-1510 2230 0
-1510 2950 0
-1510 790 0
-1510 -910 0
1510 -2230 -2950 -790 910 0
-70 190 -2230 0
70 2230 0
-190 2230 0
70 -190 -2950 0
-70 2950 0
190 2950 0
-1630 2350 0
-1630 3070 0
-1630 910 0
-1630 -1030 0
1630 -2350 -3070 -910 1030 0
-190 310 -2350 0
190 2350 0
-310 2350 0
190 -310 -3070 0
-190 3070 0
310 3070 0
-1750 2470 0
-1750 3190 0
-1750 1030 0
-1750 -1150 0
1750 -2470 -3190 -1030 1150 0
-310 430 -2470 0
310 2470 0
-430 2470 0
310 -430 -3190 0
-310 3190 0
430 3190 0
-1870 2590 0
-1870 3310 0
-1870 1150 0
-1870 -1270 0
1870 -2590 -3310 -1150 1270 0
-430 550 -2590 0
430 2590 0
-550 2590 0
430 -550 -3310 0
-430 3310 0
550 3310 0
-1990 2710 0
-1990 3430 0
-1990 1270 0
-1990 -1390 0
1990 -2710 -3430 -1270 1390 0
-550 670 -2710 0
550 2710 0
-670 2710 0
550 -670 -3430 0
-550 3430 0
670 3430 0
3790 4510 0
3790 5230 0
-3790 -4510 -5230 0
-190 70 -4510 0
190 4510 0
-70 4510 0
190 -70 -5230 0
-190 5230 0
70 5230 0
3910 4630 0
3910 5350 0
-3910 -4630 -5350 0
-310 190 -4630 0
310 4630 0
-190 4630 0
310 -190 -5350 0
-310 5350 0
190 5350 0
4030 4750 0
4030 5470 0
-4030 -4750 -5470 0
-430 310 -4750 0
430 4750 0
-310 4750 0
430 -310 -5470 0
-430 5470 0
310 5470 0
4150 4870 0
4150 5590 0
-4150 -4870 -5590 0
-550 430 -4870 0
550 4870 0
-430 4870 0
550 -430 -5590 0
-550 5590 0
430 5590 0
4270 4990 0
4270 5710 0
-4270 -4990 -5710 0
-670 550 -4990 0
670 4990 0
-550 4990 0
670 -550 -5710 0
-670 5710 0
550 5710 0
791 0
-1391 0
-1511 2231 0
-1511 2951 0
-1511 791 0
-1511 -911 0
1511 -2231 -2951 -791 911 0
-71 191 -2231 0
71 2231 0
-191 2231 0
71 -191 -2951 0
-71 2951 0
191 2951 0
-1631 2351 0
-1631 3071 0
-1631 911 0
-1631 -1031 0
1631 -2351 -3071 -911 1031 0
-191 311 -2351 0
191 2351 0
-311 2351 0
191 -311 -3071 0
-191 3071 0
311 3071 0
-1751 2471 0
-1751 3191 0
-1751 1031 0
-1751 -1151 0
1751 -2471 -3191 -1031 1151 0
-311 431 -2471 0
311 2471 0
-431 2471 0
311 -431 -3191 0
-311 3191 0
431 3191 0
-1871 2591 0
-1871 3311 0
-1871 1151 0
-1871 -1271 0
1871 -2591 -3311 -1151 1271 0
-431 551 -2591 0
431 2591 0
-551 2591 0
431 -551 -3311 0
-431 3311 0
551 3311 0
-1991 2711 0
-1991 3431 0
-1991 1271 0
-1991 -1391 0
1991 -2711 -3431 -1271 1391 0
-551 671 -2711 0
551 2711 0
-671 2711 0
551 -671 -3431 0
-551 3431 0
671 3431 0
3791 4511 0
3791 5231 0
-3791 -4511 -5231 0
-191 71 -4511 0
191 4511 0
-71 4511 0
191 -71 -5231 0
-191 5231 0
71 5231 0
3911 4631 0
3911 5351 0
-3911 -4631 -5351 0
-311 191 -4631 0
311 4631 0
-191 4631 0
311 -191 -5351 0
-311 5351 0
191 5351 0
4031 4751 0
4031 5471 0
-4031 -4751 -5471 0
-431 311 -4751 0
431 4751 0
-311 4751 0
431 -311 -5471 0
-431 5471 0
311 5471 0
4151 4871 0
4151 5591 0
-4151 -4871 -5591 0
-551 431 -4871 0
551 4871 0
-431 4871 0
551 -431 -5591 0
-551 5591 0
431 5591 0
4271 4991 0
4271 5711 0
-4271 -4991 -5711 0
-671 551 -4991 0
671 4991 0
-551 4991 0
671 -551 -5711 0
-671 5711 0
551 5711 0
792 0
-1392 0
-1512 2232 0
-1512 2952 0
-1512 792 0
-1512 -912 0
1512 -2232 -2952 -792 912 0
-72 192 -2232 0
72 2232 0
-192 2232 0
72 -192 -2952 0
-72 2952 0
192 2952 0
-1632 2352 0
-1632 3072 0
-1632 912 0
-1632 -1032 0
1632 -2352 -3072 -912 1032 0
-192 312 -2352 0
192 2352 0
-312 2352 0
192 -312 -3072 0
-192 3072 0
312 3072 0
-1752 2472 0
-1752 3192 0
-1752 1032 0
-1752 -1152 0
1752 -2472 -3192 -1032 1152 0
-312 432 -2472 0
312 2472 0
-432 2472 0
312 -432 -3192 0
-312 3192 0
432 3192 0
-1872 2592 0
-1872 3312 0
-1872 1152 0
-1872 -1272 0
1872 -2592 -3312 -1152 1272 0
-432 552 -2592 0
432 2592 0
-552 2592 0
432 -552 -3312 0
-432 3312 0
552 3312 0
-1992 2712 0
-1992 3432 0
-1992 1272 0
-1992 -1392 0
1992 -2712 -3432 -1272 1392 0
-552 672 -2712 0
552 2712 0
-672 2712 0
552 -672 -3432 0
-552 3432 0
672 3432 0
3792 4512 0
3792 5232 0
-3792 -4512 -5232 0
-192 72 -4512 0
192 4512 0
-72 4512 0
192 -72 -5232 0
-192 5232 0
72 5232 0
3912 4632 0
3912 5352 0
-3912 -4632 -5352 0
-312 192 -4632 0
312 4632 0
-192 4632 0
312 -192 -5352 0
-312 5352 0
192 5352 0
4032 4752 0
4032 5472 0
-4032 -4752 -5472 0
-432 312 -4752 0
432 4752 0
-312 4752 0
432 -312 -5472 0
-432 5472 0
312 5472 0
4152 4872 0
4152 5592 0
-4152 -4872 -5592 0
-552 432 -4872 0
552 4872 0
-432 4872 0
552 -432 -5592 0
-552 5592 0
432 5592 0
4272 4992 0
4272 5712 0
-4272 -4992 -5712 0
-672 552 -4992 0
672 4992 0
-552 4992 0
672 -552 -5712 0
-672 5712 0
552 5712 0
793 0
-1393 0
-1513 2233 0
-1513 2953 0
-1513 793 0
-1513 -913 0
1513 -2233 -2953 -793 913 0
-73 193 -2233 0
73 2233 0
-193 2233 0
73 -193 -2953 0
-73 2953 0
193 2953 0
-1633 2353 0
-1633 3073 0
-1633 913 0
-1633 -1033 0
1633 -2353 -3073 -913 1033 0
-193 313 -2353 0
193 2353 0
-313 2353 0
193 -313 -3073 0
-193 3073 0
313 3073 0
-1753 2473 0
-1753 3193 0
-1753 1033 0
-1753 -1153 0
1753 -2473 -3193 -1033 1153 0
-313 433 -2473 0
313 2473 0
-433 2473 0
313 -433 -3193 0
-313 3193 0
433 3193 0
-1873 2593 0
-1873 3313 0
-1873 1153 0
-1873 -1273 0
1873 -2593 -3313 -1153 1273 0
-433 553 -2593 0
433 2593 0
-553 2593 0
433 -553 -3313 0
-433 3313 0
553 3313 0
-1993 2713 0
-1993 3433 0
-1993 1273 0
-1993 -1393 0
1993 -2713 -3433 -1273 1393 0
-553 673 -2713 0
553 2713 0
-673 2713 0
553 -673 -3433 0
-553 3433 0
673 3433 0
3793 4513 0
3793 5233 0
-3793 -4513 -5233 0
-193 73 -4513 0
193 4513 0
-73 4513 0
193 -73 -5233 0
-193 5233 0
73 5233 0
3913 4633 0
3913 5353 0
-3913 -4633 -5353 0
-313 193 -4633 0
313 4633 0
-193 4633 0
313 -193 -5353 0
-313 5353 0
193 5353 0
4033 4753 0
4033 5473 0
-4033 -4753 -5473 0
-433 313 -4753 0
433 4753 0
-313 4753 0
433 -313 -5473 0
-433 5473 0
313 5473 0
4153 4873 0
4153 5593 0
-4153 -4873 -5593 0
-553 433 -4873 0
553 4873 0
-433 4873 0
553 -433 -5593 0
-553 5593 0
433 5593 0
4273 4993 0
4273 5713 0
-4273 -4993 -5713 0
-673 553 -4993 0
673 4993 0
-553 4993 0
673 -553 -5713 0
-673 5713 0
553 5713 0
794 0
-1394 0
-1514 2234 0
-1514 2954 0
-1514 794 0
-1514 -914 0
1514 -2234 -2954 -794 914 0
-74 194 -2234 0
74 2234 0
-194 2234 0
74 -194 -2954 0
-74 2954 0
194 2954 0
-1634 2354 0
-1634 3074 0
-1634 914 0
-1634 -1034 0
1634 -2354 -3074 -914 1034 0
-194 314 -2354 0
194 2354 0
-314 2354 0
194 -314 -3074 0
-194 3074 0
314 3074 0
-1754 2474 0
-1754 3194 0
-1754 1034 0
-1754 -1154 0
1754 -2474 -3194 -1034 1154 0
-314 434 -2474 0
314 2474 0
-434 2474 0
314 -434 -3194 0
-314 3194 0
434 3194 0
-1874 2594 0
-1874 3314 0
-1874 1154 0
-1874 -1274 0
1874 -2594 -3314 -1154 1274 0
-434 554 -2594 0
434 2594 0
-554 2594 0
434 -554 -3314 0
-434 3314 0
554 3314 0
-1994 2714 0
-1994 3434 0
-1994 1274 0
-1994 -1394 0
1994 -2714 -3434 -1274 1394 0
-554 674 -2714 0
554 2714 0
-674 2714 0
554 -674 -3434 0
-554 3434 0
674 3434 0
3794 4514 0
3794 5234 0
-3794 -4514 -5234 0
-194 74 -4514 0
194 4514 0
-74 4514 0
194 -74 -5234 0
-194 5234 0
74 5234 0
3914 4634 0
3914 5354 0
-3914 -4634 -5354 0
-314 194 -4634 0
314 4634 0
-194 4634 0
314 -194 -5354 0
-314 5354 0
194 5354 0
4034 4754 0
4034 5474 0
-4034 -4754 -5474 0
-434 314 -4754 0
434 4754 0
-314 4754 0
434 -314 -5474 0
-434 5474 0
314 5474 0
4154 4874 0
4154 5594 0
-4154 -4874 -5594 0
-554 434 -4874 0
554 4874 0
-434 4874 0
554 -434 -5594 0
-554 5594 0
434 5594 0
4274 4994 0
4274 5714 0
-4274 -4994 -5714 0
-674 554 -4994 0
674 4994 0
-554 4994 0
674 -554 -5714 0
-674 5714 0
554 5714 0
795 0
-1395 0
-1515 2235 0
-1515 2955 0
-1515 795 0
-1515 -915 0
1515 -2235 -2955 -795 915 0
-75 195 -2235 0
75 2235 0
-195 2235 0
75 -195 -2955 0
-75 2955 0
195 2955 0
-1635 2355 0
-1635 3075 0
-1635 915 0
-1635 -1035 0
1635 -2355 -3075 -915 1035 0
-195 315 -2355 0
195 2355 0
-315 2355 0
195 -315 -3075 0
-195 3075 0
315 3075 0
-1755 2475 0
-1755 3195 0
-1755 1035 0
-1755 -1155 0
1755 -2475 -3195 -1035 1155 0
-315 435 -2475 0
315 2475 0
-435 2475 0
315 -435 -3195 0
-315 3195 0
435 3195 0
-1875 2595 0
-1875 3315 0
-1875 1155 0
-1875 -1275 0
1875 -2595 -3315 -1155 1275 0
-435 555 -2595 0
435 2595 0
-555 2595 0
435 -555 -3315 0
-435 3315 0
555 3315 0
-1995 2715 0
-1995 3435 0
-1995 1275 0
-1995 -1395 0
1995 -2715 -3435 -1275 1395 0
-555 675 -2715 0
555 2715 0
-675 2715 0
555 -675 -3435 0
-555 3435 0
675 3435 0
3795 4515 0
3795 5235 0
-3795 -4515 -5235 0
-195 75 -4515 0
195 4515 0
-75 4515 0
195 -75 -5235 0
-195 5235 0
75 5235 0
3915 4635 0
3915 5355 0
-3915 -4635 -5355 0
-315 195 -4635 0
315 4635 0
-195 4635 0
315 -195 -5355 0
-315 5355 0
195 5355 0
4035 4755 0
4035 5475 0
-4035 -4755 -5475 0
-435 315 -4755 0
435 4755 0
-315 4755 0
435 -315 -5475 0
-435 5475 0
315 5475 0
4155 4875 0
4155 5595 0
-4155 -4875 -5595 0
-555 435 -4875 0
555 4875 0
-435 4875 0
555 -435 -5595 0
-555 5595 0
435 5595 0
4275 4995 0
4275 5715 0
-4275 -4995 -5715 0
-675 555 -4995 0
675 4995 0
-555 4995 0
675 -555 -5715 0
-675 5715 0
555 5715 0
796 0
-1396 0
-1516 2236 0
-1516 2956 0
-1516 796 0
-1516 -916 0
1516 -2236 -2956 -796 916 0
-76 196 -2236 0
76 2236 0
-196 2236 0
76 -196 -2956 0
-76 2956 0
196 2956 0
-1636 2356 0
-1636 3076 0
-1636 916 0
-1636 -1036 0
1636 -2356 -3076 -916 1036 0
-196 316 -2356 0
196 2356 0
-316 2356 0
196 -316 -3076 0
-196 3076 0
316 3076 0
-1756 2476 0
-1756 3196 0
-1756 1036 0
-1756 -1156 0
1756 -2476 -3196 -1036 1156 0
-316 436 -2476 0
316 2476 0
-436 2476 0
316 -436 -3196 0
-316 3196 0
436 3196 0
-1876 2596 0
-1876 3316 0
-1876 1156 0
-1876 -1276 0
1876 -2596 -3316 -1156 1276 0
-436 556 -2596 0
436 2596 0
-556 2596 0
436 -556 -3316 0
-436 3316 0
556 3316 0
-1996 2716 0
-1996 3436 0
-1996 1276 0
-1996 -1396 0
1996 -2716 -3436 -1276 1396 0
-556 676 -2716 0
556 2716 0
-676 2716 0
556 -676 -3436 0
-556 3436 0
676 3436 0
3796 4516 0
3796 5236 0
-3796 -4516 -5236 0
-196 76 -4516 0
196 4516 0
-76 4516 0
196 -76 -5236 0
-196 5236 0
76 5236 0
3916 4636 0
3916 5356 0
-3916 -4636 -5356 0
-316 196 -4636 0
316 4636 0
-196 4636 0
316 -196 -5356 0
-316 5356 0
196 5356 0
4036 4756 0
4036 5476 0
-4036 -4756 -5476 0
-436 316 -4756 0
436 4756 0
-316 4756 0
436 -316 -5476 0
-436 5476 0
316 5476 0
4156 4876 0
4156 5596 0
-4156 -4876 -5596 0
-556 436 -4876 0
556 4876 0
-436 4876 0
556 -436 -5596 0
-556 5596 0
436 5596 0
4276 4996 0
4276 5716 0
-4276 -4996 -5716 0
-676 556 -4996 0
676 4996 0
-556 4996 0
676 -556 -5716 0
-676 5716 0
556 5716 0
797 0
-1397 0
-1517 2237 0
-1517 2957 0
-1517 797 0
-1517 -917 0
1517 -2237 -2957 -797 917 0
-77 197 -2237 0
77 2237 0
-197 2237 0
77 -197 -2957 0
-77 2957 0
197 2957 0
-1637 2357 0
-1637 3077 0
-1637 917 0
-1637 -1037 0
1637 -2357 -3077 -917 1037 0
-197 317 -2357 0
197 2357 0
-317 2357 0
197 -317 -3077 0
-197 3077 0
317 3077 0
-1757 2477 0
-1757 3197 0
-1757 1037 0
-1757 -1157 0
1757 -2477 -3197 -1037 1157 0
-317 437 -2477 0
317 2477 0
-437 2477 0
317 -437 -3197 0
-317 3197 0
437 3197 0
-1877 2597 0
-1877 3317 0
-1877 1157 0
-1877 -1277 0
1877 -2597 -3317 -1157 1277 0
-437 557 -2597 0
437 2597 0
-557 2597 0
437 -557 -3317 0
-437 3317 0
557 3317 0
-1997 2717 0
-1997 3437 0
-1997 1277 0
-1997 -1397 0
1997 -2717 -3437 -1277 1397 0
-557 677 -2717 0
557 2717 0
-677 2717 0
557 -677 -3437 0
-557 3437 0
677 3437 0
3797 4517 0
3797 5237 0
-3797 -4517 -5237 0
-197 77 -4517 0
197 4517 0
-77 4517 0
197 -77 -5237 0
-197 5237 0
77 5237 0
3917 4637 0
3917 5357 0
-3917 -4637 -5357 0
-317 197 -4637 0
317 4637 0
-197 4637 0
317 -197 -5357 0
-317 5357 0
197 5357 0
4037 4757 0
4037 5477 0
-4037 -4757 -5477 0
-437 317 -4757 0
437 4757 0
-317 4757 0
437 -317 -5477 0
-437 5477 0
317 5477 0
4157 4877 0
4157 5597 0
-4157 -4877 -5597 0
-557 437 -4877 0
557 4877 0
-437 4877 0
557 -437 -5597 0
-557 5597 0
437 5597 0
4277 4997 0
4277 5717 0
-4277 -4997 -5717 0
-677 557 -4997 0
677 4997 0
-557 4997 0
677 -557 -5717 0
-677 5717 0
557 5717 0
798 0
-1398 0
-1518 2238 0
-1518 2958 0
-1518 798 0
-1518 -918 0
1518 -2238 -2958 -798 918 0
-78 198 -2238 0
78 2238 0
-198 2238 0
78 -198 -2958 0
-78 2958 0
198 2958 0
-1638 2358 0
-1638 3078 0
-1638 918 0
-1638 -1038 0
1638 -2358 -3078 -918 1038 0
-198 318 -2358 0
198 2358 0
-318 2358 0
198 -318 -3078 0
-198 3078 0
318 3078 0
-1758 2478 0
-1758 3198 0
-1758 1038 0
-1758 -1158 0
1758 -2478 -3198 -1038 1158 0
-318 438 -2478 0
318 2478 0
-438 2478 0
318 -438 -3198 0
-318 3198 0
438 3198 0
-1878 2598 0
-1878 3318 0
-1878 1158 0
-1878 -1278 0
1878 -2598 -3318 -1158 1278 0
-438 558 -2598 0
438 2598 0
-558 2598 0
438 -558 -3318 0
-438 3318 0
558 3318 0
-1998 2718 0
-1998 3438 0
-1998 1278 0
-1998 -1398 0
1998 -2718 -3438 -1278 1398 0
-558 678 -2718 0
558 2718 0
-678 2718 0
558 -678 -3438 0
-558 3438 0
678 3438 0
3798 4518 0
3798 5238 0
-3798 -4518 -5238 0
-198 78 -4518 0
198 4518 0
-78 4518 0
198 -78 -5238 0
-198 5238 0
78 5238 0
3918 4638 0
3918 5358 0
-3918 -4638 -5358 0
-318 198 -4638 0
318 4638 0
-198 4638 0
318 -198 -5358 0
-318 5358 0
198 5358 0
4038 4758 0
4038 5478 0
-4038 -4758 -5478 0
-438 318 -4758 0
438 4758 0
-318 4758 0
438 -318 -5478 0
-438 5478 0
318 5478 0
4158 4878 0
4158 5598 0
-4158 -4878 -5598 0
-558 438 -4878 0
558 4878 0
-438 4878 0
558 -438 -5598 0
-558 5598 0
438 5598 0
4278 4998 0
4278 5718 0
-4278 -4998 -5718 0
-678 558 -4998 0
678 4998 0
-558 4998 0
678 -558 -5718 0
-678 5718 0
558 5718 0
799 0
-1399 0
-1519 2239 0
-1519 2959 0
-1519 799 0
-1519 -919 0
1519 -2239 -2959 -799 919 0
-79 199 -2239 0
79 2239 0
-199 2239 0
79 -199 -2959 0
-79 2959 0
199 2959 0
-1639 2359 0
-1639 3079 0
-1639 919 0
-1639 -1039 0
1639 -2359 -3079 -919 1039 0
-199 319 -2359 0
199 2359 0
-319 2359 0
199 -319 -3079 0
-199 3079 0
319 3079 0
-1759 2479 0
-1759 3199 0
-1759 1039 0
-1759 -1159 0
1759 -2479 -3199 -1039 1159 0
-319 439 -2479 0
319 2479 0
-439 2479 0
319 -439 -3199 0
-319 3199 0
439 3199 0
-1879 2599 0
-1879 3319 0
-1879 1159 0
-1879 -1279 0
1879 -2599 -3319 -1159 1279 0
-439 559 -2599 0
439 2599 0
-559 2599 0
439 -559 -3319 0
-439 3319 0
559 3319 0
-1999 2719 0
-1999 3439 0
-1999 1279 0
-1999 -1399 0
1999 -2719 -3439 -1279 1399 0
-559 679 -2719 0
559 2719 0
-679 2719 0
559 -679 -3439 0
-559 3439 0
679 3439 0
3799 4519 0
3799 5239 0
-3799 -4519 -5239 0
-199 79 -4519 0
199 4519 0
-79 4519 0
199 -79 -5239 0
-199 5239 0
79 5239 0
3919 4639 0
3919 5359 0
-3919 -4639 -5359 0
-319 199 -4639 0
319 4639 0
-199 4639 0
319 -199 -5359 0
-319 5359 0
199 5359 0
4039 4759 0
4039 5479 0
-4039 -4759 -5479 0
-439 319 -4759 0
439 4759 0
-319 4759 0
439 -319 -5479 0
-439 5479 0
319 5479 0
4159 4879 0
4159 5599 0
-4159 -4879 -5599 0
-559 439 -4879 0
559 4879 0
-439 4879 0
559 -439 -5599 0
-559 5599 0
439 5599 0
4279 4999 0
4279 5719 0
-4279 -4999 -5719 0
-679 559 -4999 0
679 4999 0
-559 4999 0
679 -559 -5719 0
-679 5719 0
559 5719 0
800 0
-1400 0
-1520 2240 0
-1520 2960 0
-1520 800 0
-1520 -920 0
1520 -2240 -2960 -800 920 0
-80 200 -2240 0
80 2240 0
-200 2240 0
80 -200 -2960 0
-80 2960 0
200 2960 0
-1640 2360 0
-1640 3080 0
-1640 920 0
-1640 -1040 0
1640 -2360 -3080 -920 1040 0
-200 320 -2360 0
200 2360 0
-320 2360 0
200 -320 -3080 0
-200 3080 0
320 3080 0
-1760 2480 0
-1760 3200 0
-1760 1040 0
-1760 -1160 0
1760 -2480 -3200 -1040 1160 0
-320 440 -2480 0
320 2480 0
-440 2480 0
320 -440 -3200 0
-320 3200 0
440 3200 0
-1880 2600 0
-1880 3320 0
-1880 1160 0
-1880 -1280 0
1880 -2600 -3320 -1160 1280 0
-440 560 -2600 0
440 2600 0
-560 2600 0
440 -560 -3320 0
-440 3320 0
560 3320 0
-2000 2720 0
-2000 3440 0
-2000 1280 0
-2000 -1400 0
2000 -2720 -3440 -1280 1400 0
-560 680 -2720 0
560 2720 0
-680 2720 0
560 -680 -3440 0
-560 3440 0
680 3440 0
3800 4520 0
3800 5240 0
-3800 -4520 -5240 0
-200 80 -4520 0
200 4520 0
-80 4520 0
200 -80 -5240 0
-200 5240 0
80 5240 0
3920 4640 0
3920 5360 0
-3920 -4640 -5360 0
-320 200 -4640 0
320 4640 0
-200 4640 0
320 -200 -5360 0
-320 5360 0
200 5360 0
4040 4760 0
4040 5480 0
-4040 -4760 -5480 0
-440 320 -4760 0
440 4760 0
-320 4760 0
440 -320 -5480 0
-440 5480 0
320 5480 0
4160 4880 0
4160 5600 0
-4160 -4880 -5600 0
-560 440 -4880 0
560 4880 0
-440 4880 0
560 -440 -5600 0
-560 5600 0
440 5600 0
4280 5000 0
4280 5720 0
-4280 -5000 -5720 0
-680 560 -5000 0
680 5000 0
-560 5000 0
680 -560 -5720 0
-680 5720 0
560 5720 0
801 0
-1401 0
-1521 2241 0
-1521 2961 0
-1521 801 0
-1521 -921 0
1521 -2241 -2961 -801 921 0
-81 201 -2241 0
81 2241 0
-201 2241 0
81 -201 -2961 0
-81 2961 0
201 2961 0
-1641 2361 0
-1641 3081 0
-1641 921 0
-1641 -1041 0
1641 -2361 -3081 -921 1041 0
-201 321 -2361 0
201 2361 0
-321 2361 0
201 -321 -3081 0
-201 3081 0
321 3081 0
-1761 2481 0
-1761 3201 0
-1761 1041 0
-1761 -1161 0
1761 -2481 -3201 -1041 1161 0
-321 441 -2481 0
321 2481 0
-441 2481 0
321 -441 -3201 0
-321 3201 0
441 3201 0
-1881 2601 0
-1881 3321 0
-1881 1161 0
-1881 -1281 0
1881 -2601 -3321 -1161 1281 0
-441 561 -2601 0
441 2601 0
-561 2601 0
441 -561 -3321 0
-441 3321 0
561 3321 0
-2001 2721 0
-2001 3441 0
-2001 1281 0
-2001 -1401 0
2001 -2721 -3441 -1281 1401 0
-561 681 -2721 0
561 2721 0
-681 2721 0
561 -681 -3441 0
-561 3441 0
681 3441 0
3801 4521 0
3801 5241 0
-3801 -4521 -5241 0
-201 81 -4521 0
201 4521 0
-81 4521 0
201 -81 -5241 0
-201 5241 0
81 5241 0
3921 4641 0
3921 5361 0
-3921 -4641 -5361 0
-321 201 -4641 0
321 4641 0
-201 4641 0
321 -201 -5361 0
-321 5361 0
201 5361 0
4041 4761 0
4041 5481 0
-4041 -4761 -5481 0
-441 321 -4761 0
441 4761 0
-321 4761 0
441 -321 -5481 0
-441 5481 0
321 5481 0
4161 4881 0
4161 5601 0
-4161 -4881 -5601 0
-561 441 -4881 0
561 4881 0
-441 4881 0
561 -441 -5601 0
-561 5601 0
441 5601 0
4281 5001 0
4281 5721 0
-4281 -5001 -5721 0
-681 561 -5001 0
681 5001 0
-561 5001 0
681 -561 -5721 0
-681 5721 0
561 5721 0
802 0
-1402 0
-1522 2242 0
-1522 2962 0
-1522 802 0
-1522 -922 0
1522 -2242 -2962 -802 922 0
-82 202 -2242 0
82 2242 0
-202 2242 0
82 -202 -2962 0
-82 2962 0
202 2962 0
-1642 2362 0
-1642 3082 0
-1642 922 0
-1642 -1042 0
1642 -2362 -3082 -922 1042 0
-202 322 -2362 0
202 2362 0
-322 2362 0
202 -322 -3082 0
-202 3082 0
322 3082 0
-1762 2482 0
-1762 3202 0
-1762 1042 0
-1762 -1162 0
1762 -2482 -3202 -1042 1162 0
-322 442 -2482 0
322 2482 0
-442 2482 0
322 -442 -3202 0
-322 3202 0
442 3202 0
-1882 2602 0
-1882 3322 0
-1882 1162 0
-1882 -1282 0
1882 -2602 -3322 -1162 1282 0
-442 562 -2602 0
442 2602 0
-562 2602 0
442 -562 -3322 0
-442 3322 0
562 3322 0
-2002 2722 0
-2002 3442 0
-2002 1282 0
-2002 -1402 0
2002 -2722 -3442 -1282 1402 0
-562 682 -2722 0
562 2722 0
-682 2722 0
562 -682 -3442 0
-562 3442 0
682 3442 0
3802 4522 0
3802 5242 0
-3802 -4522 -5242 0
-202 82 -4522 0
202 4522 0
-82 4522 0
202 -82 -5242 0
-202 5242 0
82 5242 0
3922 4642 0
3922 5362 0
-3922 -4642 -5362 0
-322 202 -4642 0
322 4642 0
-202 4642 0
322 -202 -5362 0
-322 5362 0
202 5362 0
4042 4762 0
4042 5482 0
-4042 -4762 -5482 0
-442 322 -4762 0
442 4762 0
-322 4762 0
442 -322 -5482 0
-442 5482 0
322 5482 0
4162 4882 0
4162 5602 0
-4162 -4882 -5602 0
-562 442 -4882 0
562 4882 0
-442 4882 0
562 -442 -5602 0
-562 5602 0
442 5602 0
4282 5002 0
4282 5722 0
-4282 -5002 -5722 0
-682 562 -5002 0
682 5002 0
-562 5002 0
682 -562 -5722 0
-682 5722 0
562 5722 0
803 0
-1403 0
-1523 2243 0
-1523 2963 0
-1523 803 0
-1523 -923 0
1523 -2243 -2963 -803 923 0
-83 203 -2243 0
83 2243 0
-203 2243 0
83 -203 -2963 0
-83 2963 0
203 2963 0
-1643 2363 0
-1643 3083 0
-1643 923 0
-1643 -1043 0
1643 -2363 -3083 -923 1043 0
-203 323 -2363 0
203 2363 0
-323 2363 0
203 -323 -3083 0
-203 3083 0
323 3083 0
-1763 2483 0
-1763 3203 0
-1763 1043 0
-1763 -1163 0
1763 -2483 -3203 -1043 1163 0
-323 443 -2483 0
323 2483 0
-443 2483 0
323 -443 -3203 0
-323 3203 0
443 3203 0
-1883 2603 0
-1883 3323 0
-1883 1163 0
-1883 -1283 0
1883 -2603 -3323 -1163 1283 0
-443 563 -2603 0
443 2603 0
-563 2603 0
443 -563 -3323 0
-443 3323 0
563 3323 0
-2003 2723 0
-2003 3443 0
-2003 1283 0
-2003 -1403 0
2003 -2723 -3443 -1283 1403 0
-563 683 -2723 0
563 2723 0
-683 2723 0
563 -683 -3443 0
-563 3443 0
683 3443 0
3803 4523 0
3803 5243 0
-3803 -4523 -5243 0
-203 83 -4523 0
203 4523 0
-83 4523 0
203 -83 -5243 0
-203 5243 0
83 5243 0
3923 4643 0
3923 5363 0
-3923 -4643 -5363 0
-323 203 -4643 0
323 4643 0
-203 4643 0
323 -203 -5363 0
-323 5363 0
203 5363 0
4043 4763 0
4043 5483 0
-4043 -4763 -5483 0
-443 323 -4763 0
443 4763 0
-323 4763 0
443 -323 -5483 0
-443 5483 0
323 5483 0
4163 4883 0
4163 5603 0
-4163 -4883 -5603 0
-563 443 -4883 0
563 4883 0
-443 4883 0
563 -443 -5603 0
-563 5603 0
443 5603 0
4283 5003 0
4283 5723 0
-4283 -5003 -5723 0
-683 563 -5003 0
683 5003 0
-563 5003 0
683 -563 -5723 0
-683 5723 0
563 5723 0
804 0
-1404 0
-1524 2244 0
-1524 2964 0
-1524 804 0
-1524 -924 0
1524 -2244 -2964 -804 924 0
-84 204 -2244 0
84 2244 0
-204 2244 0
84 -204 -2964 0
-84 2964 0
204 2964 0
-1644 2364 0
-1644 3084 0
-1644 924 0
-1644 -1044 0
1644 -2364 -3084 -924 1044 0
-204 324 -2364 0
204 2364 0
-324 2364 0
204 -324 -3084 0
-204 3084 0
324 3084 0
-1764 2484 0
-1764 3204 0
-1764 1044 0
-1764 -1164 0
1764 -2484 -3204 -1044 1164 0
-324 444 -2484 0
324 2484 0
-444 2484 0
324 -444 -3204 0
-324 3204 0
444 3204 0
-1884 2604 0
-1884 3324 0
-1884 1164 0
-1884 -1284 0
1884 -2604 -3324 -1164 1284 0
-444 564 -2604 0
444 2604 0
-564 2604 0
444 -564 -3324 0
-444 3324 0
564 3324 0
-2004 2724 0
-2004 3444 0
-2004 1284 0
-2004 -1404 0
2004 -2724 -3444 -1284 1404 0
-564 684 -2724 0
564 2724 0
-684 2724 0
564 -684 -3444 0
-564 3444 0
684 3444 0
3804 4524 0
3804 5244 0
-3804 -4524 -5244 0
-204 84 -4524 0
204 4524 0
-84 4524 0
204 -84 -5244 0
-204 5244 0
84 5244 0
3924 4644 0
3924 5364 0
-3924 -4644 -5364 0
-324 204 -4644 0
324 4644 0
-204 4644 0
324 -204 -5364 0
-324 5364 0
204 5364 0
4044 4764 0
4044 5484 0
-4044 -4764 -5484 0
-444 324 -4764 0
444 4764 0
-324 4764 0
444 -324 -5484 0
-444 5484 0
324 5484 0
4164 4884 0
4164 5604 0
-4164 -4884 -5604 0
-564 444 -4884 0
564 4884 0
-444 4884 0
564 -444 -5604 0
-564 5604 0
444 5604 0
4284 5004 0
4284 5724 0
-4284 -5004 -5724 0
-684 564 -5004 0
684 5004 0
-564 5004 0
684 -564 -5724 0
-684 5724 0
564 5724 0
805 0
-1405 0
-1525 2245 0
-1525 2965 0
-1525 805 0
-1525 -925 0
1525 -2245 -2965 -805 925 0
-85 205 -2245 0
85 2245 0
-205 2245 0
85 -205 -2965 0
-85 2965 0
205 2965 0
-1645 2365 0
-1645 3085 0
-1645 925 0
-1645 -1045 0
1645 -2365 -3085 -925 1045 0
-205 325 -2365 0
205 2365 0
-325 2365 0
205 -325 -3085 0
-205 3085 0
325 3085 0
-1765 2485 0
-1765 3205 0
-1765 1045 0
-1765 -1165 0
1765 -2485 -3205 -1045 1165 0
-325 445 -2485 0
325 2485 0
-445 2485 0
325 -445 -3205 0
-325 3205 0
445 3205 0
-1885 2605 0
-1885 3325 0
-1885 1165 0
-1885 -1285 0
1885 -2605 -3325 -1165 1285 0
-445 565 -2605 0
445 2605 0
-565 2605 0
445 -565 -3325 0
-445 3325 0
565 3325 0
-2005 2725 0
-2005 3445 0
-2005 1285 0
-2005 -1405 0
2005 -2725 -3445 -1285 1405 0
-565 685 -2725 0
565 2725 0
-685 2725 0
565 -685 -3445 0
-565 3445 0
685 3445 0
3805 4525 0
3805 5245 0
-3805 -4525 -5245 0
-205 85 -4525 0
205 4525 0
-85 4525 0
205 -85 -5245 0
-205 5245 0
85 5245 0
3925 4645 0
3925 5365 0
-3925 -4645 -5365 0
-325 205 -4645 0
325 4645 0
-205 4645 0
325 -205 -5365 0
-325 5365 0
205 5365 0
4045 4765 0
4045 5485 0
-4045 -4765 -5485 0
-445 325 -4765 0
445 4765 0
-325 4765 0
445 -325 -5485 0
-445 5485 0
325 5485 0
4165 4885 0
4165 5605 0
-4165 -4885 -5605 0
-565 445 -4885 0
565 4885 0
-445 4885 0
565 -445 -5605 0
-565 5605 0
445 5605 0
4285 5005 0
4285 5725 0
-4285 -5005 -5725 0
-685 565 -5005 0
685 5005 0
-565 5005 0
685 -565 -5725 0
-685 5725 0
565 5725 0
806 0
-1406 0
-1526 2246 0
-1526 2966 0
-1526 806 0
-1526 -926 0
1526 -2246 -2966 -806 926 0
-86 206 -2246 0
86 2246 0
-206 2246 0
86 -206 -2966 0
-86 2966 0
206 2966 0
-1646 2366 0
-1646 3086 0
-1646 926 0
-1646 -1046 0
1646 -2366 -3086 -926 1046 0
-206 326 -2366 0
206 2366 0
-326 2366 0
206 -326 -3086 0
-206 3086 0
326 3086 0
-1766 2486 0
-1766 3206 0
-1766 1046 0
-1766 -1166 0
1766 -2486 -3206 -1046 1166 0
-326 446 -2486 0
326 2486 0
-446 2486 0
326 -446 -3206 0
-326 3206 0
446 3206 0
-1886 2606 0
-1886 3326 0
-1886 1166 0
-1886 -1286 0
1886 -2606 -3326 -1166 1286 0
-446 566 -2606 0
446 2606 0
-566 2606 0
446 -566 -3326 0
-446 3326 0
566 3326 0
-2006 2726 0
-2006 3446 0
-2006 1286 0
-2006 -1406 0
2006 -2726 -3446 -1286 1406 0
-566 686 -2726 0
566 2726 0
-686 2726 0
566 -686 -3446 0
-566 3446 0
686 3446 0
3806 4526 0
3806 5246 0
-3806 -4526 -5246 0
-206 86 -4526 0
206 4526 0
-86 4526 0
206 -86 -5246 0
-206 5246 0
86 5246 0
3926 4646 0
3926 5366 0
-3926 -4646 -5366 0
-326 206 -4646 0
326 4646 0
-206 4646 0
326 -206 -5366 0
-326 5366 0
206 5366 0
4046 4766 0
4046 5486 0
-4046 -4766 -5486 0
-446 326 -4766 0
446 4766 0
-326 4766 0
446 -326 -5486 0
-446 5486 0
326 5486 0
4166 4886 0
4166 5606 0
-4166 -4886 -5606 0
-566 446 -4886 0
566 4886 0
-446 4886 0
566 -446 -5606 0
-566 5606 0
446 5606 0
4286 5006 0
4286 5726 0
-4286 -5006 -5726 0
-686 566 -5006 0
686 5006 0
-566 5006 0
686 -566 -5726 0
-686 5726 0
566 5726 0
807 0
-1407 0
-1527 2247 0
-1527 2967 0
-1527 807 0
-1527 -927 0
1527 -2247 -2967 -807 927 0
-87 207 -2247 0
87 2247 0
-207 2247 0
87 -207 -2967 0
-87 2967 0
207 2967 0
-1647 2367 0
-1647 3087 0
-1647 927 0
-1647 -1047 0
1647 -2367 -3087 -927 1047 0
-207 327 -2367 0
207 2367 0
-327 2367 0
207 -327 -3087 0
-207 3087 0
327 3087 0
-1767 2487 0
-1767 3207 0
-1767 1047 0
-1767 -1167 0
1767 -2487 -3207 -1047 1167 0
-327 447 -2487 0
327 2487 0
-447 2487 0
327 -447 -3207 0
-327 3207 0
447 3207 0
-1887 2607 0
-1887 3327 0
-1887 1167 0
-1887 -1287 0
1887 -2607 -3327 -1167 1287 0
-447 567 -2607 0
447 2607 0
-567 2607 0
447 -567 -3327 0
-447 3327 0
567 3327 0
-2007 2727 0
-2007 3447 0
-2007 1287 0
-2007 -1407 0
2007 -2727 -3447 -1287 1407 0
-567 687 -2727 0
567 2727 0
-687 2727 0
567 -687 -3447 0
-567 3447 0
687 3447 0
3807 4527 0
3807 5247 0
-3807 -4527 -5247 0
-207 87 -4527 0
207 4527 0
-87 4527 0
207 -87 -5247 0
-207 5247 0
87 5247 0
3927 4647 0
3927 5367 0
-3927 -4647 -5367 0
-327 207 -4647 0
327 4647 0
-207 4647 0
327 -207 -5367 0
-327 5367 0
207 5367 0
4047 4767 0
4047 5487 0
-4047 -4767 -5487 0
-447 327 -4767 0
447 4767 0
-327 4767 0
447 -327 -5487 0
-447 5487 0
327 5487 0
4167 4887 0
4167 5607 0
-4167 -4887 -5607 0
-567 447 -4887 0
567 4887 0
-447 4887 0
567 -447 -5607 0
-567 5607 0
447 5607 0
4287 5007 0
4287 5727 0
-4287 -5007 -5727 0
-687 567 -5007 0
687 5007 0
-567 5007 0
687 -567 -5727 0
-687 5727 0
567 5727 0
808 0
-1408 0
-1528 2248 0
-1528 2968 0
-1528 808 0
-1528 -928 0
1528 -2248 -2968 -808 928 0
-88 208 -2248 0
88 2248 0
-208 2248 0
88 -208 -2968 0
-88 2968 0
208 2968 0
-1648 2368 0
-1648 3088 0
-1648 928 0
-1648 -1048 0
1648 -2368 -3088 -928 1048 0
-208 328 -2368 0
208 2368 0
-328 2368 0
208 -328 -3088 0
-208 3088 0
328 3088 0
-1768 2488 0
-1768 3208 0
-1768 1048 0
-1768 -1168 0
1768 -2488 -3208 -1048 1168 0
-328 448 -2488 0
328 2488 0
-448 2488 0
328 -448 -3208 0
-328 3208 0
448 3208 0
-1888 2608 0
-1888 3328 0
-1888 1168 0
-1888 -1288 0
1888 -2608 -3328 -1168 1288 0
-448 568 -2608 0
448 2608 0
-568 2608 0
448 -568 -3328 0
-448 3328 0
568 3328 0
-2008 2728 0
-2008 3448 0
-2008 1288 0
-2008 -1408 0
2008 -2728 -3448 -1288 1408 0
-568 688 -2728 0
568 2728 0
-688 2728 0
568 -688 -3448 0
-568 3448 0
688 3448 0
3808 4528 0
3808 5248 0
-3808 -4528 -5248 0
-208 88 -4528 0
208 4528 0
-88 4528 0
208 -88 -5248 0
-208 5248 0
88 5248 0
3928 4648 0
3928 5368 0
-3928 -4648 -5368 0
-328 208 -4648 0
328 4648 0
-208 4648 0
328 -208 -5368 0
-328 5368 0
208 5368 0
4048 4768 0
4048 5488 0
-4048 -4768 -5488 0
-448 328 -4768 0
448 4768 0
-328 4768 0
448 -328 -5488 0
-448 5488 0
328 5488 0
4168 4888 0
4168 5608 0
-4168 -4888 -5608 0
-568 448 -4888 0
568 4888 0
-448 4888 0
568 -448 -5608 0
-568 5608 0
448 5608 0
4288 5008 0
4288 5728 0
-4288 -5008 -5728 0
-688 568 -5008 0
688 5008 0
-568 5008 0
688 -568 -5728 0
-688 5728 0
568 5728 0
809 0
-1409 0
-1529 2249 0
-1529 2969 0
-1529 809 0
-1529 -929 0
1529 -2249 -2969 -809 929 0
-89 209 -2249 0
89 2249 0
-209 2249 0
89 -209 -2969 0
-89 2969 0
209 2969 0
-1649 2369 0
-1649 3089 0
-1649 929 0
-1649 -1049 0
1649 -2369 -3089 -929 1049 0
-209 329 -2369 0
209 2369 0
-329 2369 0
209 -329 -3089 0
-209 3089 0
329 3089 0
-1769 2489 0
-1769 3209 0
-1769 1049 0
-1769 -1169 0
1769 -2489 -3209 -1049 1169 0
-329 449 -2489 0
329 2489 0
-449 2489 0
329 -449 -3209 0
-329 3209 0
449 3209 0
-1889 2609 0
-1889 3329 0
-1889 1169 0
-1889 -1289 0
1889 -2609 -3329 -1169 1289 0
-449 569 -2609 0
449 2609 0
-569 2609 0
449 -569 -3329 0
-449 3329 0
569 3329 0
-2009 2729 0
-2009 3449 0
-2009 1289 0
-2009 -1409 0
2009 -2729 -3449 -1289 1409 0
-569 689 -2729 0
569 2729 0
-689 2729 0
569 -689 -3449 0
-569 3449 0
689 3449 0
3809 4529 0
3809 5249 0
-3809 -4529 -5249 0
-209 89 -4529 0
209 4529 0
-89 4529 0
209 -89 -5249 0
-209 5249 0
89 5249 0
3929 4649 0
3929 5369 0
-3929 -4649 -5369 0
-329 209 -4649 0
329 4649 0
-209 4649 0
329 -209 -5369 0
-329 5369 0
209 5369 0
4049 4769 0
4049 5489 0
-4049 -4769 -5489 0
-449 329 -4769 0
449 4769 0
-329 4769 0
449 -329 -5489 0
-449 5489 0
329 5489 0
4169 4889 0
4169 5609 0
-4169 -4889 -5609 0
-569 449 -4889 0
569 4889 0
-449 4889 0
569 -449 -5609 0
-569 5609 0
449 5609 0
4289 5009 0
4289 5729 0
-4289 -5009 -5729 0
-689 569 -5009 0
689 5009 0
-569 5009 0
689 -569 -5729 0
-689 5729 0
569 5729 0
810 0
-1410 0
-1530 2250 0
-1530 2970 0
-1530 810 0
-1530 -930 0
1530 -2250 -2970 -810 930 0
-90 210 -2250 0
90 2250 0
-210 2250 0
90 -210 -2970 0
-90 2970 0
210 2970 0
-1650 2370 0
-1650 3090 0
-1650 930 0
-1650 -1050 0
1650 -2370 -3090 -930 1050 0
-210 330 -2370 0
210 2370 0
-330 2370 0
210 -330 -3090 0
-210 3090 0
330 3090 0
-1770 2490 0
-1770 3210 0
-1770 1050 0
-1770 -1170 0
1770 -2490 -3210 -1050 1170 0
-330 450 -2490 0
330 2490 0
-450 2490 0
330 -450 -3210 0
-330 3210 0
450 3210 0
-1890 2610 0
-1890 3330 0
-1890 1170 0
-1890 -1290 0
1890 -2610 -3330 -1170 1290 0
-450 570 -2610 0
450 2610 0
-570 2610 0
450 -570 -3330 0
-450 3330 0
570 3330 0
-2010 2730 0
-2010 3450 0
-2010 1290 0
-2010 -1410 0
2010 -2730 -3450 -1290 1410 0
-570 690 -2730 0
570 2730 0
-690 2730 0
570 -690 -3450 0
-570 3450 0
690 3450 0
3810 4530 0
3810 5250 0
-3810 -4530 -5250 0
-210 90 -4530 0
210 4530 0
-90 4530 0
210 -90 -5250 0
-210 5250 0
90 5250 0
3930 4650 0
3930 5370 0
-3930 -4650 -5370 0
-330 210 -4650 0
330 4650 0
-210 4650 0
330 -210 -5370 0
-330 5370 0
210 5370 0
4050 4770 0
4050 5490 0
-4050 -4770 -5490 0
-450 330 -4770 0
450 4770 0
-330 4770 0
450 -330 -5490 0
-450 5490 0
330 5490 0
4170 4890 0
4170 5610 0
-4170 -4890 -5610 0
-570 450 -4890 0
570 4890 0
-450 4890 0
570 -450 -5610 0
-570 5610 0
450 5610 0
4290 5010 0
4290 5730 0
-4290 -5010 -5730 0
-690 570 -5010 0
690 5010 0
-570 5010 0
690 -570 -5730 0
-690 5730 0
570 5730 0
811 0
-1411 0
-1531 2251 0
-1531 2971 0
-1531 811 0
-1531 -931 0
1531 -2251 -2971 -811 931 0
-91 211 -2251 0
91 2251 0
-211 2251 0
91 -211 -2971 0
-91 2971 0
211 2971 0
-1651 2371 0
-1651 3091 0
-1651 931 0
-1651 -1051 0
1651 -2371 -3091 -931 1051 0
-211 331 -2371 0
211 2371 0
-331 2371 0
211 -331 -3091 0
-211 3091 0
331 3091 0
-1771 2491 0
-1771 3211 0
-1771 1051 0
-1771 -1171 0
1771 -2491 -3211 -1051 1171 0
-331 451 -2491 0
331 2491 0
-451 2491 0
331 -451 -3211 0
-331 3211 0
451 3211 0
-1891 2611 0
-1891 3331 0
-1891 1171 0
-1891 -1291 0
1891 -2611 -3331 -1171 1291 0
-451 571 -2611 0
451 2611 0
-571 2611 0
451 -571 -3331 0
-451 3331 0
571 3331 0
-2011 2731 0
-2011 3451 0
-2011 1291 0
-2011 -1411 0
2011 -2731 -3451 -1291 1411 0
-571 691 -2731 0
571 2731 0
-691 2731 0
571 -691 -3451 0
-571 3451 0
691 3451 0
3811 4531 0
3811 5251 0
-3811 -4531 -5251 0
-211 91 -4531 0
211 4531 0
-91 4531 0
211 -91 -5251 0
-211 5251 0
91 5251 0
3931 4651 0
3931 5371 0
-3931 -4651 -5371 0
-331 211 -4651 0
331 4651 0
-211 4651 0
331 -211 -5371 0
-331 5371 0
211 5371 0
4051 4771 0
4051 5491 0
-4051 -4771 -5491 0
-451 331 -4771 0
451 4771 0
-331 4771 0
451 -331 -5491 0
-451 5491 0
331 5491 0
4171 4891 0
4171 5611 0
-4171 -4891 -5611 0
-571 451 -4891 0
571 4891 0
-451 4891 0
571 -451 -5611 0
-571 5611 0
451 5611 0
4291 5011 0
4291 5731 0
-4291 -5011 -5731 0
-691 571 -5011 0
691 5011 0
-571 5011 0
691 -571 -5731 0
-691 5731 0
571 5731 0
812 0
-1412 0
-1532 2252 0
-1532 2972 0
-1532 812 0
-1532 -932 0
1532 -2252 -2972 -812 932 0
-92 212 -2252 0
92 2252 0
-212 2252 0
92 -212 -2972 0
-92 2972 0
212 2972 0
-1652 2372 0
-1652 3092 0
-1652 932 0
-1652 -1052 0
1652 -2372 -3092 -932 1052 0
-212 332 -2372 0
212 2372 0
-332 2372 0
212 -332 -3092 0
-212 3092 0
332 3092 0
-1772 2492 0
-1772 3212 0
-1772 1052 0
-1772 -1172 0
1772 -2492 -3212 -1052 1172 0
-332 452 -2492 0
332 2492 0
-452 2492 0
332 -452 -3212 0
-332 3212 0
452 3212 0
-1892 2612 0
-1892 3332 0
-1892 1172 0
-1892 -1292 0
1892 -2612 -3332 -1172 1292 0
-452 572 -2612 0
452 2612 0
-572 2612 0
452 -572 -3332 0
-452 3332 0
572 3332 0
-2012 2732 0
-2012 3452 0
-2012 1292 0
-2012 -1412 0
2012 -2732 -3452 -1292 1412 0
-572 692 -2732 0
572 2732 0
-692 2732 0
572 -692 -3452 0
-572 3452 0
692 3452 0
3812 4532 0
3812 5252 0
-3812 -4532 -5252 0
-212 92 -4532 0
212 4532 0
-92 4532 0
212 -92 -5252 0
-212 5252 0
92 5252 0
3932 4652 0
3932 5372 0
-3932 -4652 -5372 0
-332 212 -4652 0
332 4652 0
-212 4652 0
332 -212 -5372 0
-332 5372 0
212 5372 0
4052 4772 0
4052 5492 0
-4052 -4772 -5492 0
-452 332 -4772 0
452 4772 0
-332 4772 0
452 -332 -5492 0
-452 5492 0
332 5492 0
4172 4892 0
4172 5612 0
-4172 -4892 -5612 0
-572 452 -4892 0
572 4892 0
-452 4892 0
572 -452 -5612 0
-572 5612 0
452 5612 0
4292 5012 0
4292 5732 0
-4292 -5012 -5732 0
-692 572 -5012 0
692 5012 0
-572 5012 0
692 -572 -5732 0
-692 5732 0
572 5732 0
813 0
-1413 0
-1533 2253 0
-1533 2973 0
-1533 813 0
-1533 -933 0
1533 -2253 -2973 -813 933 0
-93 213 -2253 0
93 2253 0
-213 2253 0
93 -213 -2973 0
-93 2973 0
213 2973 0
-1653 2373 0
-1653 3093 0
-1653 933 0
-1653 -1053 0
1653 -2373 -3093 -933 1053 0
-213 333 -2373 0
213 2373 0
-333 2373 0
213 -333 -3093 0
-213 3093 0
333 3093 0
-1773 2493 0
-1773 3213 0
-1773 1053 0
-1773 -1173 0
1773 -2493 -3213 -1053 1173 0
-333 453 -2493 0
333 2493 0
-453 2493 0
333 -453 -3213 0
-333 3213 0
453 3213 0
-1893 2613 0
-1893 3333 0
-1893 1173 0
-1893 -1293 0
1893 -2613 -3333 -1173 1293 0
-453 573 -2613 0
453 2613 0
-573 2613 0
453 -573 -3333 0
-453 3333 0
573 3333 0
-2013 2733 0
-2013 3453 0
-2013 1293 0
-2013 -1413 0
2013 -2733 -3453 -1293 1413 0
-573 693 -2733 0
573 2733 0
-693 2733 0
573 -693 -3453 0
-573 3453 0
693 3453 0
3813 4533 0
3813 5253 0
-3813 -4533 -5253 0
-213 93 -4533 0
213 4533 0
-93 4533 0
213 -93 -5253 0
-213 5253 0
93 5253 0
3933 4653 0
3933 5373 0
-3933 -4653 -5373 0
-333 213 -4653 0
333 4653 0
-213 4653 0
333 -213 -5373 0
-333 5373 0
213 5373 0
4053 4773 0
4053 5493 0
-4053 -4773 -5493 0
-453 333 -4773 0
453 4773 0
-333 4773 0
453 -333 -5493 0
-453 5493 0
333 5493 0
4173 4893 0
4173 5613 0
-4173 -4893 -5613 0
-573 453 -4893 0
573 4893 0
-453 4893 0
573 -453 -5613 0
-573 5613 0
453 5613 0
4293 5013 0
4293 5733 0
-4293 -5013 -5733 0
-693 573 -5013 0
693 5013 0
-573 5013 0
693 -573 -5733 0
-693 5733 0
573 5733 0
814 0
-1414 0
-1534 2254 0
-1534 2974 0
-1534 814 0
-1534 -934 0
1534 -2254 -2974 -814 934 0
-94 214 -2254 0
94 2254 0
-214 2254 0
94 -214 -2974 0
-94 2974 0
214 2974 0
-1654 2374 0
-1654 3094 0
-1654 934 0
-1654 -1054 0
1654 -2374 -3094 -934 1054 0
-214 334 -2374 0
214 2374 0
-334 2374 0
214 -334 -3094 0
-214 3094 0
334 3094 0
-1774 2494 0
-1774 3214 0
-1774 1054 0
-1774 -1174 0
1774 -2494 -3214 -1054 1174 0
-334 454 -2494 0
334 2494 0
-454 2494 0
334 -454 -3214 0
-334 3214 0
454 3214 0
-1894 2614 0
-1894 3334 0
-1894 1174 0
-1894 -1294 0
1894 -2614 -3334 -1174 1294 0
-454 574 -2614 0
454 2614 0
-574 2614 0
454 -574 -3334 0
-454 3334 0
574 3334 0
-2014 2734 0
-2014 3454 0
-2014 1294 0
-2014 -1414 0
2014 -2734 -3454 -1294 1414 0
-574 694 -2734 0
574 2734 0
-694 2734 0
574 -694 -3454 0
-574 3454 0
694 3454 0
3814 4534 0
3814 5254 0
-3814 -4534 -5254 0
-214 94 -4534 0
214 4534 0
-94 4534 0
214 -94 -5254 0
-214 5254 0
94 5254 0
3934 4654 0
3934 5374 0
-3934 -4654 -5374 0
-334 214 -4654 0
334 4654 0
-214 4654 0
334 -214 -5374 0
-334 5374 0
214 5374 0
4054 4774 0
4054 5494 0
-4054 -4774 -5494 0
-454 334 -4774 0
454 4774 0
-334 4774 0
454 -334 -5494 0
-454 5494 0
334 5494 0
4174 4894 0
4174 5614 0
-4174 -4894 -5614 0
-574 454 -4894 0
574 4894 0
-454 4894 0
574 -454 -5614 0
-574 5614 0
454 5614 0
4294 5014 0
4294 5734 0
-4294 -5014 -5734 0
-694 574 -5014 0
694 5014 0
-574 5014 0
694 -574 -5734 0
-694 5734 0
574 5734 0
815 0
-1415 0
-1535 2255 0
-1535 2975 0
-1535 815 0
-1535 -935 0
1535 -2255 -2975 -815 935 0
-95 215 -2255 0
95 2255 0
-215 2255 0
95 -215 -2975 0
-95 2975 0
215 2975 0
-1655 2375 0
-1655 3095 0
-1655 935 0
-1655 -1055 0
1655 -2375 -3095 -935 1055 0
-215 335 -2375 0
215 2375 0
-335 2375 0
215 -335 -3095 0
-215 3095 0
335 3095 0
-1775 2495 0
-1775 3215 0
-1775 1055 0
-1775 -1175 0
1775 -2495 -3215 -1055 1175 0
-335 455 -2495 0
335 2495 0
-455 2495 0
335 -455 -3215 0
-335 3215 0
455 3215 0
-1895 2615 0
-1895 3335 0
-1895 1175 0
-1895 -1295 0
1895 -2615 -3335 -1175 1295 0
-455 575 -2615 0
455 2615 0
-575 2615 0
455 -575 -3335 0
-455 3335 0
575 3335 0
-2015 2735 0
-2015 3455 0
-2015 1295 0
-2015 -1415 0
2015 -2735 -3455 -1295 1415 0
-575 695 -2735 0
575 2735 0
-695 2735 0
575 -695 -3455 0
-575 3455 0
695 3455 0
3815 4535 0
3815 5255 0
-3815 -4535 -5255 0
-215 95 -4535 0
215 4535 0
-95 4535 0
215 -95 -5255 0
-215 5255 0
95 5255 0
3935 4655 0
3935 5375 0
-3935 -4655 -5375 0
-335 215 -4655 0
335 4655 0
-215 4655 0
335 -215 -5375 0
-335 5375 0
215 5375 0
4055 4775 0
4055 5495 0
-4055 -4775 -5495 0
-455 335 -4775 0
455 4775 0
-335 4775 0
455 -335 -5495 0
-455 5495 0
335 5495 0
4175 4895 0
4175 5615 0
-4175 -4895 -5615 0
-575 455 -4895 0
575 4895 0
-455 4895 0
575 -455 -5615 0
-575 5615 0
455 5615 0
4295 5015 0
4295 5735 0
-4295 -5015 -5735 0
-695 575 -5015 0
695 5015 0
-575 5015 0
695 -575 -5735 0
-695 5735 0
575 5735 0
816 0
-1416 0
-1536 2256 0
-1536 2976 0
-1536 816 0
-1536 -936 0
1536 -2256 -2976 -816 936 0
-96 216 -2256 0
96 2256 0
-216 2256 0
96 -216 -2976 0
-96 2976 0
216 2976 0
-1656 2376 0
-1656 3096 0
-1656 936 0
-1656 -1056 0
1656 -2376 -3096 -936 1056 0
-216 336 -2376 0
216 2376 0
-336 2376 0
216 -336 -3096 0
-216 3096 0
336 3096 0
-1776 2496 0
-1776 3216 0
-1776 1056 0
-1776 -1176 0
1776 -2496 -3216 -1056 1176 0
-336 456 -2496 0
336 2496 0
-456 2496 0
336 -456 -3216 0
-336 3216 0
456 3216 0
-1896 2616 0
-1896 3336 0
-1896 1176 0
-1896 -1296 0
1896 -2616 -3336 -1176 1296 0
-456 576 -2616 0
456 2616 0
-576 2616 0
456 -576 -3336 0
-456 3336 0
576 3336 0
-2016 2736 0
-2016 3456 0
-2016 1296 0
-2016 -1416 0
2016 -2736 -3456 -1296 1416 0
-576 696 -2736 0
576 2736 0
-696 2736 0
576 -696 -3456 0
-576 3456 0
696 3456 0
3816 4536 0
3816 5256 0
-3816 -4536 -5256 0
-216 96 -4536 0
216 4536 0
-96 4536 0
216 -96 -5256 0
-216 5256 0
96 5256 0
3936 4656 0
3936 5376 0
-3936 -4656 -5376 0
-336 216 -4656 0
336 4656 0
-216 4656 0
336 -216 -5376 0
-336 5376 0
216 5376 0
4056 4776 0
4056 5496 0
-4056 -4776 -5496 0
-456 336 -4776 0
456 4776 0
-336 4776 0
456 -336 -5496 0
-456 5496 0
336 5496 0
4176 4896 0
4176 5616 0
-4176 -4896 -5616 0
-576 456 -4896 0
576 4896 0
-456 4896 0
576 -456 -5616 0
-576 5616 0
456 5616 0
4296 5016 0
4296 5736 0
-4296 -5016 -5736 0
-696 576 -5016 0
696 5016 0
-576 5016 0
696 -576 -5736 0
-696 5736 0
576 5736 0
817 0
-1417 0
-1537 2257 0
-1537 2977 0
-1537 817 0
-1537 -937 0
1537 -2257 -2977 -817 937 0
-97 217 -2257 0
97 2257 0
-217 2257 0
97 -217 -2977 0
-97 2977 0
217 2977 0
-1657 2377 0
-1657 3097 0
-1657 937 0
-1657 -1057 0
1657 -2377 -3097 -937 1057 0
-217 337 -2377 0
217 2377 0
-337 2377 0
217 -337 -3097 0
-217 3097 0
337 3097 0
-1777 2497 0
-1777 3217 0
-1777 1057 0
-1777 -1177 0
1777 -2497 -3217 -1057 1177 0
-337 457 -2497 0
337 2497 0
-457 2497 0
337 -457 -3217 0
-337 3217 0
457 3217 0
-1897 2617 0
-1897 3337 0
-1897 1177 0
-1897 -1297 0
1897 -2617 -3337 -1177 1297 0
-457 577 -2617 0
457 2617 0
-577 2617 0
457 -577 -3337 0
-457 3337 0
577 3337 0
-2017 2737 0
-2017 3457 0
-2017 1297 0
-2017 -1417 0
2017 -2737 -3457 -1297 1417 0
-577 697 -2737 0
577 2737 0
-697 2737 0
577 -697 -3457 0
-577 3457 0
697 3457 0
3817 4537 0
3817 5257 0
-3817 -4537 -5257 0
-217 97 -4537 0
217 4537 0
-97 4537 0
217 -97 -5257 0
-217 5257 0
97 5257 0
3937 4657 0
3937 5377 0
-3937 -4657 -5377 0
-337 217 -4657 0
337 4657 0
-217 4657 0
337 -217 -5377 0
-337 5377 0
217 5377 0
4057 4777 0
4057 5497 0
-4057 -4777 -5497 0
-457 337 -4777 0
457 4777 0
-337 4777 0
457 -337 -5497 0
-457 5497 0
337 5497 0
4177 4897 0
4177 5617 0
-4177 -4897 -5617 0
-577 457 -4897 0
577 4897 0
-457 4897 0
577 -457 -5617 0
-577 5617 0
457 5617 0
4297 5017 0
4297 5737 0
-4297 -5017 -5737 0
-697 577 -5017 0
697 5017 0
-577 5017 0
697 -577 -5737 0
-697 5737 0
577 5737 0
818 0
-1418 0
-1538 2258 0
-1538 2978 0
-1538 818 0
-1538 -938 0
1538 -2258 -2978 -818 938 0
-98 218 -2258 0
98 2258 0
-218 2258 0
98 -218 -2978 0
-98 2978 0
218 2978 0
-1658 2378 0
-1658 3098 0
-1658 938 0
-1658 -1058 0
1658 -2378 -3098 -938 1058 0
-218 338 -2378 0
218 2378 0
-338 2378 0
218 -338 -3098 0
-218 3098 0
338 3098 0
-1778 2498 0
-1778 3218 0
-1778 1058 0
-1778 -1178 0
1778 -2498 -3218 -1058 1178 0
-338 458 -2498 0
338 2498 0
-458 2498 0
338 -458 -3218 0
-338 3218 0
458 3218 0
-1898 2618 0
-1898 3338 0
-1898 1178 0
-1898 -1298 0
1898 -2618 -3338 -1178 1298 0
-458 578 -2618 0
458 2618 0
-578 2618 0
458 -578 -3338 0
-458 3338 0
578 3338 0
-2018 2738 0
-2018 3458 0
-2018 1298 0
-2018 -1418 0
2018 -2738 -3458 -1298 1418 0
-578 698 -2738 0
578 2738 0
-698 2738 0
578 -698 -3458 0
-578 3458 0
698 3458 0
3818 4538 0
3818 5258 0
-3818 -4538 -5258 0
-218 98 -4538 0
218 4538 0
-98 4538 0
218 -98 -5258 0
-218 5258 0
98 5258 0
3938 4658 0
3938 5378 0
-3938 -4658 -5378 0
-338 218 -4658 0
338 4658 0
-218 4658 0
338 -218 -5378 0
-338 5378 0
218 5378 0
4058 4778 0
4058 5498 0
-4058 -4778 -5498 0
-458 338 -4778 0
458 4778 0
-338 4778 0
458 -338 -5498 0
-458 5498 0
338 5498 0
4178 4898 0
4178 5618 0
-4178 -4898 -5618 0
-578 458 -4898 0
578 4898 0
-458 4898 0
578 -458 -5618 0
-578 5618 0
458 5618 0
4298 5018 0
4298 5738 0
-4298 -5018 -5738 0
-698 578 -5018 0
698 5018 0
-578 5018 0
698 -578 -5738 0
-698 5738 0
578 5738 0
819 0
-1419 0
-1539 2259 0
-1539 2979 0
-1539 819 0
-1539 -939 0
1539 -2259 -2979 -819 939 0
-99 219 -2259 0
99 2259 0
-219 2259 0
99 -219 -2979 0
-99 2979 0
219 2979 0
-1659 2379 0
-1659 3099 0
-1659 939 0
-1659 -1059 0
1659 -2379 -3099 -939 1059 0
-219 339 -2379 0
219 2379 0
-339 2379 0
219 -339 -3099 0
-219 3099 0
339 3099 0
-1779 2499 0
-1779 3219 0
-1779 1059 0
-1779 -1179 0
1779 -2499 -3219 -1059 1179 0
-339 459 -2499 0
339 2499 0
-459 2499 0
339 -459 -3219 0
-339 3219 0
459 3219 0
-1899 2619 0
-1899 3339 0
-1899 1179 0
-1899 -1299 0
1899 -2619 -3339 -1179 1299 0
-459 579 -2619 0
459 2619 0
-579 2619 0
459 -579 -3339 0
-459 3339 0
579 3339 0
-2019 2739 0
-2019 3459 0
-2019 1299 0
-2019 -1419 0
2019 -2739 -3459 -1299 1419 0
-579 699 -2739 0
579 2739 0
-699 2739 0
579 -699 -3459 0
-579 3459 0
699 3459 0
3819 4539 0
3819 5259 0
-3819 -4539 -5259 0
-219 99 -4539 0
219 4539 0
-99 4539 0
219 -99 -5259 0
-219 5259 0
99 5259 0
3939 4659 0
3939 5379 0
-3939 -4659 -5379 0
-339 219 -4659 0
339 4659 0
-219 4659 0
339 -219 -5379 0
-339 5379 0
219 5379 0
4059 4779 0
4059 5499 0
-4059 -4779 -5499 0
-459 339 -4779 0
459 4779 0
-339 4779 0
459 -339 -5499 0
-459 5499 0
339 5499 0
4179 4899 0
4179 5619 0
-4179 -4899 -5619 0
-579 459 -4899 0
579 4899 0
-459 4899 0
579 -459 -5619 0
-579 5619 0
459 5619 0
4299 5019 0
4299 5739 0
-4299 -5019 -5739 0
-699 579 -5019 0
699 5019 0
-579 5019 0
699 -579 -5739 0
-699 5739 0
579 5739 0
820 0
-1420 0
-1540 2260 0
-1540 2980 0
-1540 820 0
-1540 -940 0
1540 -2260 -2980 -820 940 0
-100 220 -2260 0
100 2260 0
-220 2260 0
100 -220 -2980 0
-100 2980 0
220 2980 0
-1660 2380 0
-1660 3100 0
-1660 940 0
-1660 -1060 0
1660 -2380 -3100 -940 1060 0
-220 340 -2380 0
220 2380 0
-340 2380 0
220 -340 -3100 0
-220 3100 0
340 3100 0
-1780 2500 0
-1780 3220 0
-1780 1060 0
-1780 -1180 0
1780 -2500 -3220 -1060 1180 0
-340 460 -2500 0
340 2500 0
-460 2500 0
340 -460 -3220 0
-340 3220 0
460 3220 0
-1900 2620 0
-1900 3340 0
-1900 1180 0
-1900 -1300 0
1900 -2620 -3340 -1180 1300 0
-460 580 -2620 0
460 2620 0
-580 2620 0
460 -580 -3340 0
-460 3340 0
580 3340 0
-2020 2740 0
-2020 3460 0
-2020 1300 0
-2020 -1420 0
2020 -2740 -3460 -1300 1420 0
-580 700 -2740 0
580 2740 0
-700 2740 0
580 -700 -3460 0
-580 3460 0
700 3460 0
3820 4540 0
3820 5260 0
-3820 -4540 -5260 0
-220 100 -4540 0
220 4540 0
-100 4540 0
220 -100 -5260 0
-220 5260 0
100 5260 0
3940 4660 0
3940 5380 0
-3940 -4660 -5380 0
-340 220 -4660 0
340 4660 0
-220 4660 0
340 -220 -5380 0
-340 5380 0
220 5380 0
4060 4780 0
4060 5500 0
-4060 -4780 -5500 0
-460 340 -4780 0
460 4780 0
-340 4780 0
460 -340 -5500 0
-460 5500 0
340 5500 0
4180 4900 0
4180 5620 0
-4180 -4900 -5620 0
-580 460 -4900 0
580 4900 0
-460 4900 0
580 -460 -5620 0
-580 5620 0
460 5620 0
4300 5020 0
4300 5740 0
-4300 -5020 -5740 0
-700 580 -5020 0
700 5020 0
-580 5020 0
700 -580 -5740 0
-700 5740 0
580 5740 0
821 0
-1421 0
-1541 2261 0
-1541 2981 0
-1541 821 0
-1541 -941 0
1541 -2261 -2981 -821 941 0
-101 221 -2261 0
101 2261 0
-221 2261 0
101 -221 -2981 0
-101 2981 0
221 2981 0
-1661 2381 0
-1661 3101 0
-1661 941 0
-1661 -1061 0
1661 -2381 -3101 -941 1061 0
-221 341 -2381 0
221 2381 0
-341 2381 0
221 -341 -3101 0
-221 3101 0
341 3101 0
-1781 2501 0
-1781 3221 0
-1781 1061 0
-1781 -1181 0
1781 -2501 -3221 -1061 1181 0
-341 461 -2501 0
341 2501 0
-461 2501 0
341 -461 -3221 0
-341 3221 0
461 3221 0
-1901 2621 0
-1901 3341 0
-1901 1181 0
-1901 -1301 0
1901 -2621 -3341 -1181 1301 0
-461 581 -2621 0
461 2621 0
-581 2621 0
461 -581 -3341 0
-461 3341 0
581 3341 0
-2021 2741 0
-2021 3461 0
-2021 1301 0
-2021 -1421 0
2021 -2741 -3461 -1301 1421 0
-581 701 -2741 0
581 2741 0
-701 2741 0
581 -701 -3461 0
-581 3461 0
701 3461 0
3821 4541 0
3821 5261 0
-3821 -4541 -5261 0
-221 101 -4541 0
221 4541 0
-101 4541 0
221 -101 -5261 0
-221 5261 0
101 5261 0
3941 4661 0
3941 5381 0
-3941 -4661 -5381 0
-341 221 -4661 0
341 4661 0
-221 4661 0
341 -221 -5381 0
-341 5381 0
221 5381 0
4061 4781 0
4061 5501 0
-4061 -4781 -5501 0
-461 341 -4781 0
461 4781 0
-341 4781 0
461 -341 -5501 0
-461 5501 0
341 5501 0
4181 4901 0
4181 5621 0
-4181 -4901 -5621 0
-581 461 -4901 0
581 4901 0
-461 4901 0
581 -461 -5621 0
-581 5621 0
461 5621 0
4301 5021 0
4301 5741 0
-4301 -5021 -5741 0
-701 581 -5021 0
701 5021 0
-581 5021 0
701 -581 -5741 0
-701 5741 0
581 5741 0
822 0
-1422 0
-1542 2262 0
-1542 2982 0
-1542 822 0
-1542 -942 0
1542 -2262 -2982 -822 942 0
-102 222 -2262 0
102 2262 0
-222 2262 0
102 -222 -2982 0
-102 2982 0
222 2982 0
-1662 2382 0
-1662 3102 0
-1662 942 0
-1662 -1062 0
1662 -2382 -3102 -942 1062 0
-222 342 -2382 0
222 2382 0
-342 2382 0
222 -342 -3102 0
-222 3102 0
342 3102 0
-1782 2502 0
-1782 3222 0
-1782 1062 0
-1782 -1182 0
1782 -2502 -3222 -1062 1182 0
-342 462 -2502 0
342 2502 0
-462 2502 0
342 -462 -3222 0
-342 3222 0
462 3222 0
-1902 2622 0
-1902 3342 0
-1902 1182 0
-1902 -1302 0
1902 -2622 -3342 -1182 1302 0
-462 582 -2622 0
462 2622 0
-582 2622 0
462 -582 -3342 0
-462 3342 0
582 3342 0
-2022 2742 0
-2022 3462 0
-2022 1302 0
-2022 -1422 0
2022 -2742 -3462 -1302 1422 0
-582 702 -2742 0
582 2742 0
-702 2742 0
582 -702 -3462 0
-582 3462 0
702 3462 0
3822 4542 0
3822 5262 0
-3822 -4542 -5262 0
-222 102 -4542 0
222 4542 0
-102 4542 0
222 -102 -5262 0
-222 5262 0
102 5262 0
3942 4662 0
3942 5382 0
-3942 -4662 -5382 0
-342 222 -4662 0
342 4662 0
-222 4662 0
342 -222 -5382 0
-342 5382 0
222 5382 0
4062 4782 0
4062 5502 0
-4062 -4782 -5502 0
-462 342 -4782 0
462 4782 0
-342 4782 0
462 -342 -5502 0
-462 5502 0
342 5502 0
4182 4902 0
4182 5622 0
-4182 -4902 -5622 0
-582 462 -4902 0
582 4902 0
-462 4902 0
582 -462 -5622 0
-582 5622 0
462 5622 0
4302 5022 0
4302 5742 0
-4302 -5022 -5742 0
-702 582 -5022 0
702 5022 0
-582 5022 0
702 -582 -5742 0
-702 5742 0
582 5742 0
823 0
-1423 0
-1543 2263 0
-1543 2983 0
-1543 823 0
-1543 -943 0
1543 -2263 -2983 -823 943 0
-103 223 -2263 0
103 2263 0
-223 2263 0
103 -223 -2983 0
-103 2983 0
223 2983 0
-1663 2383 0
-1663 3103 0
-1663 943 0
-1663 -1063 0
1663 -2383 -3103 -943 1063 0
-223 343 -2383 0
223 2383 0
-343 2383 0
223 -343 -3103 0
-223 3103 0
343 3103 0
-1783 2503 0
-1783 3223 0
-1783 1063 0
-1783 -1183 0
1783 -2503 -3223 -1063 1183 0
-343 463 -2503 0
343 2503 0
-463 2503 0
343 -463 -3223 0
-343 3223 0
463 3223 0
-1903 2623 0
-1903 3343 0
-1903 1183 0
-1903 -1303 0
1903 -2623 -3343 -1183 1303 0
-463 583 -2623 0
463 2623 0
-583 2623 0
463 -583 -3343 0
-463 3343 0
583 3343 0
-2023 2743 0
-2023 3463 0
-2023 1303 0
-2023 -1423 0
2023 -2743 -3463 -1303 1423 0
-583 703 -2743 0
583 2743 0
-703 2743 0
583 -703 -3463 0
-583 3463 0
703 3463 0
3823 4543 0
3823 5263 0
-3823 -4543 -5263 0
-223 103 -4543 0
223 4543 0
-103 4543 0
223 -103 -5263 0
-223 5263 0
103 5263 0
3943 4663 0
3943 5383 0
-3943 -4663 -5383 0
-343 223 -4663 0
343 4663 0
-223 4663 0
343 -223 -5383 0
-343 5383 0
223 5383 0
4063 4783 0
4063 5503 0
-4063 -4783 -5503 0
-463 343 -4783 0
463 4783 0
-343 4783 0
463 -343 -5503 0
-463 5503 0
343 5503 0
4183 4903 0
4183 5623 0
-4183 -4903 -5623 0
-583 463 -4903 0
583 4903 0
-463 4903 0
583 -463 -5623 0
-583 5623 0
463 5623 0
4303 5023 0
4303 5743 0
-4303 -5023 -5743 0
-703 583 -5023 0
703 5023 0
-583 5023 0
703 -583 -5743 0
-703 5743 0
583 5743 0
824 0
-1424 0
-1544 2264 0
-1544 2984 0
-1544 824 0
-1544 -944 0
1544 -2264 -2984 -824 944 0
-104 224 -2264 0
104 2264 0
-224 2264 0
104 -224 -2984 0
-104 2984 0
224 2984 0
-1664 2384 0
-1664 3104 0
-1664 944 0
-1664 -1064 0
1664 -2384 -3104 -944 1064 0
-224 344 -2384 0
224 2384 0
-344 2384 0
224 -344 -3104 0
-224 3104 0
344 3104 0
-1784 2504 0
-1784 3224 0
-1784 1064 0
-1784 -1184 0
1784 -2504 -3224 -1064 1184 0
-344 464 -2504 0
344 2504 0
-464 2504 0
344 -464 -3224 0
-344 3224 0
464 3224 0
-1904 2624 0
-1904 3344 0
-1904 1184 0
-1904 -1304 0
1904 -2624 -3344 -1184 1304 0
-464 584 -2624 0
464 2624 0
-584 2624 0
464 -584 -3344 0
-464 3344 0
584 3344 0
-2024 2744 0
-2024 3464 0
-2024 1304 0
-2024 -1424 0
2024 -2744 -3464 -1304 1424 0
-584 704 -2744 0
584 2744 0
-704 2744 0
584 -704 -3464 0
-584 3464 0
704 3464 0
3824 4544 0
3824 5264 0
-3824 -4544 -5264 0
-224 104 -4544 0
224 4544 0
-104 4544 0
224 -104 -5264 0
-224 5264 0
104 5264 0
3944 4664 0
3944 5384 0
-3944 -4664 -5384 0
-344 224 -4664 0
344 4664 0
-224 4664 0
344 -224 -5384 0
-344 5384 0
224 5384 0
4064 4784 0
4064 5504 0
-4064 -4784 -5504 0
-464 344 -4784 0
464 4784 0
-344 4784 0
464 -344 -5504 0
-464 5504 0
344 5504 0
4184 4904 0
4184 5624 0
-4184 -4904 -5624 0
-584 464 -4904 0
584 4904 0
-464 4904 0
584 -464 -5624 0
-584 5624 0
464 5624 0
4304 5024 0
4304 5744 0
-4304 -5024 -5744 0
-704 584 -5024 0
704 5024 0
-584 5024 0
704 -584 -5744 0
-704 5744 0
584 5744 0
825 0
-1425 0
-1545 2265 0
-1545 2985 0
-1545 825 0
-1545 -945 0
1545 -2265 -2985 -825 945 0
-105 225 -2265 0
105 2265 0
-225 2265 0
105 -225 -2985 0
-105 2985 0
225 2985 0
-1665 2385 0
-1665 3105 0
-1665 945 0
-1665 -1065 0
1665 -2385 -3105 -945 1065 0
-225 345 -2385 0
225 2385 0
-345 2385 0
225 -345 -3105 0
-225 3105 0
345 3105 0
-1785 2505 0
-1785 3225 0
-1785 1065 0
-1785 -1185 0
1785 -2505 -3225 -1065 1185 0
-345 465 -2505 0
345 2505 0
-465 2505 0
345 -465 -3225 0
-345 3225 0
465 3225 0
-1905 2625 0
-1905 3345 0
-1905 1185 0
-1905 -1305 0
1905 -2625 -3345 -1185 1305 0
-465 585 -2625 0
465 2625 0
-585 2625 0
465 -585 -3345 0
-465 3345 0
585 3345 0
-2025 2745 0
-2025 3465 0
-2025 1305 0
-2025 -1425 0
2025 -2745 -3465 -1305 1425 0
-585 705 -2745 0
585 2745 0
-705 2745 0
585 -705 -3465 0
-585 3465 0
705 3465 0
3825 4545 0
3825 5265 0
-3825 -4545 -5265 0
-225 105 -4545 0
225 4545 0
-105 4545 0
225 -105 -5265 0
-225 5265 0
105 5265 0
3945 4665 0
3945 5385 0
-3945 -4665 -5385 0
-345 225 -4665 0
345 4665 0
-225 4665 0
345 -225 -5385 0
-345 5385 0
225 5385 0
4065 4785 0
4065 5505 0
-4065 -4785 -5505 0
-465 345 -4785 0
465 4785 0
-345 4785 0
465 -345 -5505 0
-465 5505 0
345 5505 0
4185 4905 0
4185 5625 0
-4185 -4905 -5625 0
-585 465 -4905 0
585 4905 0
-465 4905 0
585 -465 -5625 0
-585 5625 0
465 5625 0
4305 5025 0
4305 5745 0
-4305 -5025 -5745 0
-705 585 -5025 0
705 5025 0
-585 5025 0
705 -585 -5745 0
-705 5745 0
585 5745 0
826 0
-1426 0
-1546 2266 0
-1546 2986 0
-1546 826 0
-1546 -946 0
1546 -2266 -2986 -826 946 0
-106 226 -2266 0
106 2266 0
-226 2266 0
106 -226 -2986 0
-106 2986 0
226 2986 0
-1666 2386 0
-1666 3106 0
-1666 946 0
-1666 -1066 0
1666 -2386 -3106 -946 1066 0
-226 346 -2386 0
226 2386 0
-346 2386 0
226 -346 -3106 0
-226 3106 0
346 3106 0
-1786 2506 0
-1786 3226 0
-1786 1066 0
-1786 -1186 0
1786 -2506 -3226 -1066 1186 0
-346 466 -2506 0
346 2506 0
-466 2506 0
346 -466 -3226 0
-346 3226 0
466 3226 0
-1906 2626 0
-1906 3346 0
-1906 1186 0
-1906 -1306 0
1906 -2626 -3346 -1186 1306 0
-466 586 -2626 0
466 2626 0
-586 2626 0
466 -586 -3346 0
-466 3346 0
586 3346 0
-2026 2746 0
-2026 3466 0
-2026 1306 0
-2026 -1426 0
2026 -2746 -3466 -1306 1426 0
-586 706 -2746 0
586 2746 0
-706 2746 0
586 -706 -3466 0
-586 3466 0
706 3466 0
3826 4546 0
3826 5266 0
-3826 -4546 -5266 0
-226 106 -4546 0
226 4546 0
-106 4546 0
226 -106 -5266 0
-226 5266 0
106 5266 0
3946 4666 0
3946 5386 0
-3946 -4666 -5386 0
-346 226 -4666 0
346 4666 0
-226 4666 0
346 -226 -5386 0
-346 5386 0
226 5386 0
4066 4786 0
4066 5506 0
-4066 -4786 -5506 0
-466 346 -4786 0
466 4786 0
-346 4786 0
466 -346 -5506 0
-466 5506 0
346 5506 0
4186 4906 0
4186 5626 0
-4186 -4906 -5626 0
-586 466 -4906 0
586 4906 0
-466 4906 0
586 -466 -5626 0
-586 5626 0
466 5626 0
4306 5026 0
4306 5746 0
-4306 -5026 -5746 0
-706 586 -5026 0
706 5026 0
-586 5026 0
706 -586 -5746 0
-706 5746 0
586 5746 0
827 0
-1427 0
-1547 2267 0
-1547 2987 0
-1547 827 0
-1547 -947 0
1547 -2267 -2987 -827 947 0
-107 227 -2267 0
107 2267 0
-227 2267 0
107 -227 -2987 0
-107 2987 0
227 2987 0
-1667 2387 0
-1667 3107 0
-1667 947 0
-1667 -1067 0
1667 -2387 -3107 -947 1067 0
-227 347 -2387 0
227 2387 0
-347 2387 0
227 -347 -3107 0
-227 3107 0
347 3107 0
-1787 2507 0
-1787 3227 0
-1787 1067 0
-1787 -1187 0
1787 -2507 -3227 -1067 1187 0
-347 467 -2507 0
347 2507 0
-467 2507 0
347 -467 -3227 0
-347 3227 0
467 3227 0
-1907 2627 0
-1907 3347 0
-1907 1187 0
-1907 -1307 0
1907 -2627 -3347 -1187 1307 0
-467 587 -2627 0
467 2627 0
-587 2627 0
467 -587 -3347 0
-467 3347 0
587 3347 0
-2027 2747 0
-2027 3467 0
-2027 1307 0
-2027 -1427 0
2027 -2747 -3467 -1307 1427 0
-587 707 -2747 0
587 2747 0
-707 2747 0
587 -707 -3467 0
-587 3467 0
707 3467 0
3827 4547 0
3827 5267 0
-3827 -4547 -5267 0
-227 107 -4547 0
227 4547 0
-107 4547 0
227 -107 -5267 0
-227 5267 0
107 5267 0
3947 4667 0
3947 5387 0
-3947 -4667 -5387 0
-347 227 -4667 0
347 4667 0
-227 4667 0
347 -227 -5387 0
-347 5387 0
227 5387 0
4067 4787 0
4067 5507 0
-4067 -4787 -5507 0
-467 347 -4787 0
467 4787 0
-347 4787 0
467 -347 -5507 0
-467 5507 0
347 5507 0
4187 4907 0
4187 5627 0
-4187 -4907 -5627 0
-587 467 -4907 0
587 4907 0
-467 4907 0
587 -467 -5627 0
-587 5627 0
467 5627 0
4307 5027 0
4307 5747 0
-4307 -5027 -5747 0
-707 587 -5027 0
707 5027 0
-587 5027 0
707 -587 -5747 0
-707 5747 0
587 5747 0
828 0
-1428 0
-1548 2268 0
-1548 2988 0
-1548 828 0
-1548 -948 0
1548 -2268 -2988 -828 948 0
-108 228 -2268 0
108 2268 0
-228 2268 0
108 -228 -2988 0
-108 2988 0
228 2988 0
-1668 2388 0
-1668 3108 0
-1668 948 0
-1668 -1068 0
1668 -2388 -3108 -948 1068 0
-228 348 -2388 0
228 2388 0
-348 2388 0
228 -348 -3108 0
-228 3108 0
348 3108 0
-1788 2508 0
-1788 3228 0
-1788 1068 0
-1788 -1188 0
1788 -2508 -3228 -1068 1188 0
-348 468 -2508 0
348 2508 0
-468 2508 0
348 -468 -3228 0
-348 3228 0
468 3228 0
-1908 2628 0
-1908 3348 0
-1908 1188 0
-1908 -1308 0
1908 -2628 -3348 -1188 1308 0
-468 588 -2628 0
468 2628 0
-588 2628 0
468 -588 -3348 0
-468 3348 0
588 3348 0
-2028 2748 0
-2028 3468 0
-2028 1308 0
-2028 -1428 0
2028 -2748 -3468 -1308 1428 0
-588 708 -2748 0
588 2748 0
-708 2748 0
588 -708 -3468 0
-588 3468 0
708 3468 0
3828 4548 0
3828 5268 0
-3828 -4548 -5268 0
-228 108 -4548 0
228 4548 0
-108 4548 0
228 -108 -5268 0
-228 5268 0
108 5268 0
3948 4668 0
3948 5388 0
-3948 -4668 -5388 0
-348 228 -4668 0
348 4668 0
-228 4668 0
348 -228 -5388 0
-348 5388 0
228 5388 0
4068 4788 0
4068 5508 0
-4068 -4788 -5508 0
-468 348 -4788 0
468 4788 0
-348 4788 0
468 -348 -5508 0
-468 5508 0
348 5508 0
4188 4908 0
4188 5628 0
-4188 -4908 -5628 0
-588 468 -4908 0
588 4908 0
-468 4908 0
588 -468 -5628 0
-588 5628 0
468 5628 0
4308 5028 0
4308 5748 0
-4308 -5028 -5748 0
-708 588 -5028 0
708 5028 0
-588 5028 0
708 -588 -5748 0
-708 5748 0
588 5748 0
829 0
-1429 0
-1549 2269 0
-1549 2989 0
-1549 829 0
-1549 -949 0
1549 -2269 -2989 -829 949 0
-109 229 -2269 0
109 2269 0
-229 2269 0
109 -229 -2989 0
-109 2989 0
229 2989 0
-1669 2389 0
-1669 3109 0
-1669 949 0
-1669 -1069 0
1669 -2389 -3109 -949 1069 0
-229 349 -2389 0
229 2389 0
-349 2389 0
229 -349 -3109 0
-229 3109 0
349 3109 0
-1789 2509 0
-1789 3229 0
-1789 1069 0
-1789 -1189 0
1789 -2509 -3229 -1069 1189 0
-349 469 -2509 0
349 2509 0
-469 2509 0
349 -469 -3229 0
-349 3229 0
469 3229 0
-1909 2629 0
-1909 3349 0
-1909 1189 0
-1909 -1309 0
1909 -2629 -3349 -1189 1309 0
-469 589 -2629 0
469 2629 0
-589 2629 0
469 -589 -3349 0
-469 3349 0
589 3349 0
-2029 2749 0
-2029 3469 0
-2029 1309 0
-2029 -1429 0
2029 -2749 -3469 -1309 1429 0
-589 709 -2749 0
589 2749 0
-709 2749 0
589 -709 -3469 0
-589 3469 0
709 3469 0
3829 4549 0
3829 5269 0
-3829 -4549 -5269 0
-229 109 -4549 0
229 4549 0
-109 4549 0
229 -109 -5269 0
-229 5269 0
109 5269 0
3949 4669 0
3949 5389 0
-3949 -4669 -5389 0
-349 229 -4669 0
349 4669 0
-229 4669 0
349 -229 -5389 0
-349 5389 0
229 5389 0
4069 4789 0
4069 5509 0
-4069 -4789 -5509 0
-469 349 -4789 0
469 4789 0
-349 4789 0
469 -349 -5509 0
-469 5509 0
349 5509 0
4189 4909 0
4189 5629 0
-4189 -4909 -5629 0
-589 469 -4909 0
589 4909 0
-469 4909 0
589 -469 -5629 0
-589 5629 0
469 5629 0
4309 5029 0
4309 5749 0
-4309 -5029 -5749 0
-709 589 -5029 0
709 5029 0
-589 5029 0
709 -589 -5749 0
-709 5749 0
589 5749 0
830 0
-1430 0
-1550 2270 0
-1550 2990 0
-1550 830 0
-1550 -950 0
1550 -2270 -2990 -830 950 0
-110 230 -2270 0
110 2270 0
-230 2270 0
110 -230 -2990 0
-110 2990 0
230 2990 0
-1670 2390 0
-1670 3110 0
-1670 950 0
-1670 -1070 0
1670 -2390 -3110 -950 1070 0
-230 350 -2390 0
230 2390 0
-350 2390 0
230 -350 -3110 0
-230 3110 0
350 3110 0
-1790 2510 0
-1790 3230 0
-1790 1070 0
-1790 -1190 0
1790 -2510 -3230 -1070 1190 0
-350 470 -2510 0
350 2510 0
-470 2510 0
350 -470 -3230 0
-350 3230 0
470 3230 0
-1910 2630 0
-1910 3350 0
-1910 1190 0
-1910 -1310 0
1910 -2630 -3350 -1190 1310 0
-470 590 -2630 0
470 2630 0
-590 2630 0
470 -590 -3350 0
-470 3350 0
590 3350 0
-2030 2750 0
-2030 3470 0
-2030 1310 0
-2030 -1430 0
2030 -2750 -3470 -1310 1430 0
-590 710 -2750 0
590 2750 0
-710 2750 0
590 -710 -3470 0
-590 3470 0
710 3470 0
3830 4550 0
3830 5270 0
-3830 -4550 -5270 0
-230 110 -4550 0
230 4550 0
-110 4550 0
230 -110 -5270 0
-230 5270 0
110 5270 0
3950 4670 0
3950 5390 0
-3950 -4670 -5390 0
-350 230 -4670 0
350 4670 0
-230 4670 0
350 -230 -5390 0
-350 5390 0
230 5390 0
4070 4790 0
4070 5510 0
-4070 -4790 -5510 0
-470 350 -4790 0
470 4790 0
-350 4790 0
470 -350 -5510 0
-470 5510 0
350 5510 0
4190 4910 0
4190 5630 0
-4190 -4910 -5630 0
-590 470 -4910 0
590 4910 0
-470 4910 0
590 -470 -5630 0
-590 5630 0
470 5630 0
4310 5030 0
4310 5750 0
-4310 -5030 -5750 0
-710 590 -5030 0
710 5030 0
-590 5030 0
710 -590 -5750 0
-710 5750 0
590 5750 0
831 0
-1431 0
-1551 2271 0
-1551 2991 0
-1551 831 0
-1551 -951 0
1551 -2271 -2991 -831 951 0
-111 231 -2271 0
111 2271 0
-231 2271 0
111 -231 -2991 0
-111 2991 0
231 2991 0
-1671 2391 0
-1671 3111 0
-1671 951 0
-1671 -1071 0
1671 -2391 -3111 -951 1071 0
-231 351 -2391 0
231 2391 0
-351 2391 0
231 -351 -3111 0
-231 3111 0
351 3111 0
-1791 2511 0
-1791 3231 0
-1791 1071 0
-1791 -1191 0
1791 -2511 -3231 -1071 1191 0
-351 471 -2511 0
351 2511 0
-471 2511 0
351 -471 -3231 0
-351 3231 0
471 3231 0
-1911 2631 0
-1911 3351 0
-1911 1191 0
-1911 -1311 0
1911 -2631 -3351 -1191 1311 0
-471 591 -2631 0
471 2631 0
-591 2631 0
471 -591 -3351 0
-471 3351 0
591 3351 0
-2031 2751 0
-2031 3471 0
-2031 1311 0
-2031 -1431 0
2031 -2751 -3471 -1311 1431 0
-591 711 -2751 0
591 2751 0
-711 2751 0
591 -711 -3471 0
-591 3471 0
711 3471 0
3831 4551 0
3831 5271 0
-3831 -4551 -5271 0
-231 111 -4551 0
231 4551 0
-111 4551 0
231 -111 -5271 0
-231 5271 0
111 5271 0
3951 4671 0
3951 5391 0
-3951 -4671 -5391 0
-351 231 -4671 0
351 4671 0
-231 4671 0
351 -231 -5391 0
-351 5391 0
231 5391 0
4071 4791 0
4071 5511 0
-4071 -4791 -5511 0
-471 351 -4791 0
471 4791 0
-351 4791 0
471 -351 -5511 0
-471 5511 0
351 5511 0
4191 4911 0
4191 5631 0
-4191 -4911 -5631 0
-591 471 -4911 0
591 4911 0
-471 4911 0
591 -471 -5631 0
-591 5631 0
471 5631 0
4311 5031 0
4311 5751 0
-4311 -5031 -5751 0
-711 591 -5031 0
711 5031 0
-591 5031 0
711 -591 -5751 0
-711 5751 0
591 5751 0
832 0
-1432 0
-1552 2272 0
-1552 2992 0
-1552 832 0
-1552 -952 0
1552 -2272 -2992 -832 952 0
-112 232 -2272 0
112 2272 0
-232 2272 0
112 -232 -2992 0
-112 2992 0
232 2992 0
-1672 2392 0
-1672 3112 0
-1672 952 0
-1672 -1072 0
1672 -2392 -3112 -952 1072 0
-232 352 -2392 0
232 2392 0
-352 2392 0
232 -352 -3112 0
-232 3112 0
352 3112 0
-1792 2512 0
-1792 3232 0
-1792 1072 0
-1792 -1192 0
1792 -2512 -3232 -1072 1192 0
-352 472 -2512 0
352 2512 0
-472 2512 0
352 -472 -3232 0
-352 3232 0
472 3232 0
-1912 2632 0
-1912 3352 0
-1912 1192 0
-1912 -1312 0
1912 -2632 -3352 -1192 1312 0
-472 592 -2632 0
472 2632 0
-592 2632 0
472 -592 -3352 0
-472 3352 0
592 3352 0
-2032 2752 0
-2032 3472 0
-2032 1312 0
-2032 -1432 0
2032 -2752 -3472 -1312 1432 0
-592 712 -2752 0
592 2752 0
-712 2752 0
592 -712 -3472 0
-592 3472 0
712 3472 0
3832 4552 0
3832 5272 0
-3832 -4552 -5272 0
-232 112 -4552 0
232 4552 0
-112 4552 0
232 -112 -5272 0
-232 5272 0
112 5272 0
3952 4672 0
3952 5392 0
-3952 -4672 -5392 0
-352 232 -4672 0
352 4672 0
-232 4672 0
352 -232 -5392 0
-352 5392 0
232 5392 0
4072 4792 0
4072 5512 0
-4072 -4792 -5512 0
-472 352 -4792 0
472 4792 0
-352 4792 0
472 -352 -5512 0
-472 5512 0
352 5512 0
4192 4912 0
4192 5632 0
-4192 -4912 -5632 0
-592 472 -4912 0
592 4912 0
-472 4912 0
592 -472 -5632 0
-592 5632 0
472 5632 0
4312 5032 0
4312 5752 0
-4312 -5032 -5752 0
-712 592 -5032 0
712 5032 0
-592 5032 0
712 -592 -5752 0
-712 5752 0
592 5752 0
833 0
-1433 0
-1553 2273 0
-1553 2993 0
-1553 833 0
-1553 -953 0
1553 -2273 -2993 -833 953 0
-113 233 -2273 0
113 2273 0
-233 2273 0
113 -233 -2993 0
-113 2993 0
233 2993 0
-1673 2393 0
-1673 3113 0
-1673 953 0
-1673 -1073 0
1673 -2393 -3113 -953 1073 0
-233 353 -2393 0
233 2393 0
-353 2393 0
233 -353 -3113 0
-233 3113 0
353 3113 0
-1793 2513 0
-1793 3233 0
-1793 1073 0
-1793 -1193 0
1793 -2513 -3233 -1073 1193 0
-353 473 -2513 0
353 2513 0
-473 2513 0
353 -473 -3233 0
-353 3233 0
473 3233 0
-1913 2633 0
-1913 3353 0
-1913 1193 0
-1913 -1313 0
1913 -2633 -3353 -1193 1313 0
-473 593 -2633 0
473 2633 0
-593 2633 0
473 -593 -3353 0
-473 3353 0
593 3353 0
-2033 2753 0
-2033 3473 0
-2033 1313 0
-2033 -1433 0
2033 -2753 -3473 -1313 1433 0
-593 713 -2753 0
593 2753 0
-713 2753 0
593 -713 -3473 0
-593 3473 0
713 3473 0
3833 4553 0
3833 5273 0
-3833 -4553 -5273 0
-233 113 -4553 0
233 4553 0
-113 4553 0
233 -113 -5273 0
-233 5273 0
113 5273 0
3953 4673 0
3953 5393 0
-3953 -4673 -5393 0
-353 233 -4673 0
353 4673 0
-233 4673 0
353 -233 -5393 0
-353 5393 0
233 5393 0
4073 4793 0
4073 5513 0
-4073 -4793 -5513 0
-473 353 -4793 0
473 4793 0
-353 4793 0
473 -353 -5513 0
-473 5513 0
353 5513 0
4193 4913 0
4193 5633 0
-4193 -4913 -5633 0
-593 473 -4913 0
593 4913 0
-473 4913 0
593 -473 -5633 0
-593 5633 0
473 5633 0
4313 5033 0
4313 5753 0
-4313 -5033 -5753 0
-713 593 -5033 0
713 5033 0
-593 5033 0
713 -593 -5753 0
-713 5753 0
593 5753 0
834 0
-1434 0
-1554 2274 0
-1554 2994 0
-1554 834 0
-1554 -954 0
1554 -2274 -2994 -834 954 0
-114 234 -2274 0
114 2274 0
-234 2274 0
114 -234 -2994 0
-114 2994 0
234 2994 0
-1674 2394 0
-1674 3114 0
-1674 954 0
-1674 -1074 0
1674 -2394 -3114 -954 1074 0
-234 354 -2394 0
234 2394 0
-354 2394 0
234 -354 -3114 0
-234 3114 0
354 3114 0
-1794 2514 0
-1794 3234 0
-1794 1074 0
-1794 -1194 0
1794 -2514 -3234 -1074 1194 0
-354 474 -2514 0
354 2514 0
-474 2514 0
354 -474 -3234 0
-354 3234 0
474 3234 0
-1914 2634 0
-1914 3354 0
-1914 1194 0
-1914 -1314 0
1914 -2634 -3354 -1194 1314 0
-474 594 -2634 0
474 2634 0
-594 2634 0
474 -594 -3354 0
-474 3354 0
594 3354 0
-2034 2754 0
-2034 3474 0
-2034 1314 0
-2034 -1434 0
2034 -2754 -3474 -1314 1434 0
-594 714 -2754 0
594 2754 0
-714 2754 0
594 -714 -3474 0
-594 3474 0
714 3474 0
3834 4554 0
3834 5274 0
-3834 -4554 -5274 0
-234 114 -4554 0
234 4554 0
-114 4554 0
234 -114 -5274 0
-234 5274 0
114 5274 0
3954 4674 0
3954 5394 0
-3954 -4674 -5394 0
-354 234 -4674 0
354 4674 0
-234 4674 0
354 -234 -5394 0
-354 5394 0
234 5394 0
4074 4794 0
4074 5514 0
-4074 -4794 -5514 0
-474 354 -4794 0
474 4794 0
-354 4794 0
474 -354 -5514 0
-474 5514 0
354 5514 0
4194 4914 0
4194 5634 0
-4194 -4914 -5634 0
-594 474 -4914 0
594 4914 0
-474 4914 0
594 -474 -5634 0
-594 5634 0
474 5634 0
4314 5034 0
4314 5754 0
-4314 -5034 -5754 0
-714 594 -5034 0
714 5034 0
-594 5034 0
714 -594 -5754 0
-714 5754 0
594 5754 0
835 0
-1435 0
-1555 2275 0
-1555 2995 0
-1555 835 0
-1555 -955 0
1555 -2275 -2995 -835 955 0
-115 235 -2275 0
115 2275 0
-235 2275 0
115 -235 -2995 0
-115 2995 0
235 2995 0
-1675 2395 0
-1675 3115 0
-1675 955 0
-1675 -1075 0
1675 -2395 -3115 -955 1075 0
-235 355 -2395 0
235 2395 0
-355 2395 0
235 -355 -3115 0
-235 3115 0
355 3115 0
-1795 2515 0
-1795 3235 0
-1795 1075 0
-1795 -1195 0
1795 -2515 -3235 -1075 1195 0
-355 475 -2515 0
355 2515 0
-475 2515 0
355 -475 -3235 0
-355 3235 0
475 3235 0
-1915 2635 0
-1915 3355 0
-1915 1195 0
-1915 -1315 0
1915 -2635 -3355 -1195 1315 0
-475 595 -2635 0
475 2635 0
-595 2635 0
475 -595 -3355 0
-475 3355 0
595 3355 0
-2035 2755 0
-2035 3475 0
-2035 1315 0
-2035 -1435 0
2035 -2755 -3475 -1315 1435 0
-595 715 -2755 0
595 2755 0
-715 2755 0
595 -715 -3475 0
-595 3475 0
715 3475 0
3835 4555 0
3835 5275 0
-3835 -4555 -5275 0
-235 115 -4555 0
235 4555 0
-115 4555 0
235 -115 -5275 0
-235 5275 0
115 5275 0
3955 4675 0
3955 5395 0
-3955 -4675 -5395 0
-355 235 -4675 0
355 4675 0
-235 4675 0
355 -235 -5395 0
-355 5395 0
235 5395 0
4075 4795 0
4075 5515 0
-4075 -4795 -5515 0
-475 355 -4795 0
475 4795 0
-355 4795 0
475 -355 -5515 0
-475 5515 0
355 5515 0
4195 4915 0
4195 5635 0
-4195 -4915 -5635 0
-595 475 -4915 0
595 4915 0
-475 4915 0
595 -475 -5635 0
-595 5635 0
475 5635 0
4315 5035 0
4315 5755 0
-4315 -5035 -5755 0
-715 595 -5035 0
715 5035 0
-595 5035 0
715 -595 -5755 0
-715 5755 0
595 5755 0
836 0
-1436 0
-1556 2276 0
-1556 2996 0
-1556 836 0
-1556 -956 0
1556 -2276 -2996 -836 956 0
-116 236 -2276 0
116 2276 0
-236 2276 0
116 -236 -2996 0
-116 2996 0
236 2996 0
-1676 2396 0
-1676 3116 0
-1676 956 0
-1676 -1076 0
1676 -2396 -3116 -956 1076 0
-236 356 -2396 0
236 2396 0
-356 2396 0
236 -356 -3116 0
-236 3116 0
356 3116 0
-1796 2516 0
-1796 3236 0
-1796 1076 0
-1796 -1196 0
1796 -2516 -3236 -1076 1196 0
-356 476 -2516 0
356 2516 0
-476 2516 0
356 -476 -3236 0
-356 3236 0
476 3236 0
-1916 2636 0
-1916 3356 0
-1916 1196 0
-1916 -1316 0
1916 -2636 -3356 -1196 1316 0
-476 596 -2636 0
476 2636 0
-596 2636 0
476 -596 -3356 0
-476 3356 0
596 3356 0
-2036 2756 0
-2036 3476 0
-2036 1316 0
-2036 -1436 0
2036 -2756 -3476 -1316 1436 0
-596 716 -2756 0
596 2756 0
-716 2756 0
596 -716 -3476 0
-596 3476 0
716 3476 0
3836 4556 0
3836 5276 0
-3836 -4556 -5276 0
-236 116 -4556 0
236 4556 0
-116 4556 0
236 -116 -5276 0
-236 5276 0
116 5276 0
3956 4676 0
3956 5396 0
-3956 -4676 -5396 0
-356 236 -4676 0
356 4676 0
-236 4676 0
356 -236 -5396 0
-356 5396 0
236 5396 0
4076 4796 0
4076 5516 0
-4076 -4796 -5516 0
-476 356 -4796 0
476 4796 0
-356 4796 0
476 -356 -5516 0
-476 5516 0
356 5516 0
4196 4916 0
4196 5636 0
-4196 -4916 -5636 0
-596 476 -4916 0
596 4916 0
-476 4916 0
596 -476 -5636 0
-596 5636 0
476 5636 0
4316 5036 0
4316 5756 0
-4316 -5036 -5756 0
-716 596 -5036 0
716 5036 0
-596 5036 0
716 -596 -5756 0
-716 5756 0
596 5756 0
837 0
-1437 0
-1557 2277 0
-1557 2997 0
-1557 837 0
-1557 -957 0
1557 -2277 -2997 -837 957 0
-117 237 -2277 0
117 2277 0
-237 2277 0
117 -237 -2997 0
-117 2997 0
237 2997 0
-1677 2397 0
-1677 3117 0
-1677 957 0
-1677 -1077 0
1677 -2397 -3117 -957 1077 0
-237 357 -2397 0
237 2397 0
-357 2397 0
237 -357 -3117 0
-237 3117 0
357 3117 0
-1797 2517 0
-1797 3237 0
-1797 1077 0
-1797 -1197 0
1797 -2517 -3237 -1077 1197 0
-357 477 -2517 0
357 2517 0
-477 2517 0
357 -477 -3237 0
-357 3237 0
477 3237 0
-1917 2637 0
-1917 3357 0
-1917 1197 0
-1917 -1317 0
1917 -2637 -3357 -1197 1317 0
-477 597 -2637 0
477 2637 0
-597 2637 0
477 -597 -3357 0
-477 3357 0
597 3357 0
-2037 2757 0
-2037 3477 0
-2037 1317 0
-2037 -1437 0
2037 -2757 -3477 -1317 1437 0
-597 717 -2757 0
597 2757 0
-717 2757 0
597 -717 -3477 0
-597 3477 0
717 3477 0
3837 4557 0
3837 5277 0
-3837 -4557 -5277 0
-237 117 -4557 0
237 4557 0
-117 4557 0
237 -117 -5277 0
-237 5277 0
117 5277 0
3957 4677 0
3957 5397 0
-3957 -4677 -5397 0
-357 237 -4677 0
357 4677 0
-237 4677 0
357 -237 -5397 0
-357 5397 0
237 5397 0
4077 4797 0
4077 5517 0
-4077 -4797 -5517 0
-477 357 -4797 0
477 4797 0
-357 4797 0
477 -357 -5517 0
-477 5517 0
357 5517 0
4197 4917 0
4197 5637 0
-4197 -4917 -5637 0
-597 477 -4917 0
597 4917 0
-477 4917 0
597 -477 -5637 0
-597 5637 0
477 5637 0
4317 5037 0
4317 5757 0
-4317 -5037 -5757 0
-717 597 -5037 0
717 5037 0
-597 5037 0
717 -597 -5757 0
-717 5757 0
597 5757 0
838 0
-1438 0
-1558 2278 0
-1558 2998 0
-1558 838 0
-1558 -958 0
1558 -2278 -2998 -838 958 0
-118 238 -2278 0
118 2278 0
-238 2278 0
118 -238 -2998 0
-118 2998 0
238 2998 0
-1678 2398 0
-1678 3118 0
-1678 958 0
-1678 -1078 0
1678 -2398 -3118 -958 1078 0
-238 358 -2398 0
238 2398 0
-358 2398 0
238 -358 -3118 0
-238 3118 0
358 3118 0
-1798 2518 0
-1798 3238 0
-1798 1078 0
-1798 -1198 0
1798 -2518 -3238 -1078 1198 0
-358 478 -2518 0
358 2518 0
-478 2518 0
358 -478 -3238 0
-358 3238 0
478 3238 0
-1918 2638 0
-1918 3358 0
-1918 1198 0
-1918 -1318 0
1918 -2638 -3358 -1198 1318 0
-478 598 -2638 0
478 2638 0
-598 2638 0
478 -598 -3358 0
-478 3358 0
598 3358 0
-2038 2758 0
-2038 3478 0
-2038 1318 0
-2038 -1438 0
2038 -2758 -3478 -1318 1438 0
-598 718 -2758 0
598 2758 0
-718 2758 0
598 -718 -3478 0
-598 3478 0
718 3478 0
3838 4558 0
3838 5278 0
-3838 -4558 -5278 0
-238 118 -4558 0
238 4558 0
-118 4558 0
238 -118 -5278 0
-238 5278 0
118 5278 0
3958 4678 0
3958 5398 0
-3958 -4678 -5398 0
-358 238 -4678 0
358 4678 0
-238 4678 0
358 -238 -5398 0
-358 5398 0
238 5398 0
4078 4798 0
4078 5518 0
-4078 -4798 -5518 0
-478 358 -4798 0
478 4798 0
-358 4798 0
478 -358 -5518 0
-478 5518 0
358 5518 0
4198 4918 0
4198 5638 0
-4198 -4918 -5638 0
-598 478 -4918 0
598 4918 0
-478 4918 0
598 -478 -5638 0
-598 5638 0
478 5638 0
4318 5038 0
4318 5758 0
-4318 -5038 -5758 0
-718 598 -5038 0
718 5038 0
-598 5038 0
718 -598 -5758 0
-718 5758 0
598 5758 0
839 0
-1439 0
-1559 2279 0
-1559 2999 0
-1559 839 0
-1559 -959 0
1559 -2279 -2999 -839 959 0
-119 239 -2279 0
119 2279 0
-239 2279 0
119 -239 -2999 0
-119 2999 0
239 2999 0
-1679 2399 0
-1679 3119 0
-1679 959 0
-1679 -1079 0
1679 -2399 -3119 -959 1079 0
-239 359 -2399 0
239 2399 0
-359 2399 0
239 -359 -3119 0
-239 3119 0
359 3119 0
-1799 2519 0
-1799 3239 0
-1799 1079 0
-1799 -1199 0
1799 -2519 -3239 -1079 1199 0
-359 479 -2519 0
359 2519 0
-479 2519 0
359 -479 -3239 0
-359 3239 0
479 3239 0
-1919 2639 0
-1919 3359 0
-1919 1199 0
-1919 -1319 0
1919 -2639 -3359 -1199 1319 0
-479 599 -2639 0
479 2639 0
-599 2639 0
479 -599 -3359 0
-479 3359 0
599 3359 0
-2039 2759 0
-2039 3479 0
-2039 1319 0
-2039 -1439 0
2039 -2759 -3479 -1319 1439 0
-599 719 -2759 0
599 2759 0
-719 2759 0
599 -719 -3479 0
-599 3479 0
719 3479 0
3839 4559 0
3839 5279 0
-3839 -4559 -5279 0
-239 119 -4559 0
239 4559 0
-119 4559 0
239 -119 -5279 0
-239 5279 0
119 5279 0
3959 4679 0
3959 5399 0
-3959 -4679 -5399 0
-359 239 -4679 0
359 4679 0
-239 4679 0
359 -239 -5399 0
-359 5399 0
239 5399 0
4079 4799 0
4079 5519 0
-4079 -4799 -5519 0
-479 359 -4799 0
479 4799 0
-359 4799 0
479 -359 -5519 0
-479 5519 0
359 5519 0
4199 4919 0
4199 5639 0
-4199 -4919 -5639 0
-599 479 -4919 0
599 4919 0
-479 4919 0
599 -479 -5639 0
-599 5639 0
479 5639 0
4319 5039 0
4319 5759 0
-4319 -5039 -5759 0
-719 599 -5039 0
719 5039 0
-599 5039 0
719 -599 -5759 0
-719 5759 0
599 5759 0
840 0
-1440 0
-1560 2280 0
-1560 3000 0
-1560 840 0
-1560 -960 0
1560 -2280 -3000 -840 960 0
-120 240 -2280 0
120 2280 0
-240 2280 0
120 -240 -3000 0
-120 3000 0
240 3000 0
-1680 2400 0
-1680 3120 0
-1680 960 0
-1680 -1080 0
1680 -2400 -3120 -960 1080 0
-240 360 -2400 0
240 2400 0
-360 2400 0
240 -360 -3120 0
-240 3120 0
360 3120 0
-1800 2520 0
-1800 3240 0
-1800 1080 0
-1800 -1200 0
1800 -2520 -3240 -1080 1200 0
-360 480 -2520 0
360 2520 0
-480 2520 0
360 -480 -3240 0
-360 3240 0
480 3240 0
-1920 2640 0
-1920 3360 0
-1920 1200 0
-1920 -1320 0
1920 -2640 -3360 -1200 1320 0
-480 600 -2640 0
480 2640 0
-600 2640 0
480 -600 -3360 0
-480 3360 0
600 3360 0
-2040 2760 0
-2040 3480 0
-2040 1320 0
-2040 -1440 0
2040 -2760 -3480 -1320 1440 0
-600 720 -2760 0
600 2760 0
-720 2760 0
600 -720 -3480 0
-600 3480 0
720 3480 0
3840 4560 0
3840 5280 0
-3840 -4560 -5280 0
-240 120 -4560 0
240 4560 0
-120 4560 0
240 -120 -5280 0
-240 5280 0
120 5280 0
3960 4680 0
3960 5400 0
-3960 -4680 -5400 0
-360 240 -4680 0
360 4680 0
-240 4680 0
360 -240 -5400 0
-360 5400 0
240 5400 0
4080 4800 0
4080 5520 0
-4080 -4800 -5520 0
-480 360 -4800 0
480 4800 0
-360 4800 0
480 -360 -5520 0
-480 5520 0
360 5520 0
4200 4920 0
4200 5640 0
-4200 -4920 -5640 0
-600 480 -4920 0
600 4920 0
-480 4920 0
600 -480 -5640 0
-600 5640 0
480 5640 0
4320 5040 0
4320 5760 0
-4320 -5040 -5760 0
-720 600 -5040 0
720 5040 0
-600 5040 0
720 -600 -5760 0
-720 5760 0
600 5760 0
-7801 4201 0
7801 -4201 0
-7201 1441 0
7201 -1441 0
-7802 4202 0
7802 -4202 0
-7202 1442 0
7202 -1442 0
-7803 4203 0
7803 -4203 0
-7203 1443 0
7203 -1443 0
-7804 4204 0
7804 -4204 0
-7204 1444 0
7204 -1444 0
-7805 4205 0
7805 -4205 0
-7205 1445 0
7205 -1445 0
-7806 4206 0
7806 -4206 0
-7206 1446 0
7206 -1446 0
-7807 4207 0
7807 -4207 0
-7207 1447 0
7207 -1447 0
-7808 4208 0
7808 -4208 0
-7208 1448 0
7208 -1448 0
-7809 4209 0
7809 -4209 0
-7209 1449 0
7209 -1449 0
-7810 4210 0
7810 -4210 0
-7210 1450 0
7210 -1450 0
-7811 4211 0
7811 -4211 0
-7211 1451 0
7211 -1451 0
-7812 4212 0
7812 -4212 0
-7212 1452 0
7212 -1452 0
-7813 4213 0
7813 -4213 0
-7213 1453 0
7213 -1453 0
-7814 4214 0
7814 -4214 0
-7214 1454 0
7214 -1454 0
-7815 4215 0
7815 -4215 0
-7215 1455 0
7215 -1455 0
-7816 4216 0
7816 -4216 0
-7216 1456 0
7216 -1456 0
-7817 4217 0
7817 -4217 0
-7217 1457 0
7217 -1457 0
-7818 4218 0
7818 -4218 0
-7218 1458 0
7218 -1458 0
-7819 4219 0
7819 -4219 0
-7219 1459 0
7219 -1459 0
-7820 4220 0
7820 -4220 0
-7220 1460 0
7220 -1460 0
-7821 4221 0
7821 -4221 0
-7221 1461 0
7221 -1461 0
-7822 4222 0
7822 -4222 0
-7222 1462 0
7222 -1462 0
-7823 4223 0
7823 -4223 0
-7223 1463 0
7223 -1463 0
-7824 4224 0
7824 -4224 0
-7224 1464 0
7224 -1464 0
-7825 4225 0
7825 -4225 0
-7225 1465 0
7225 -1465 0
-7826 4226 0
7826 -4226 0
-7226 1466 0
7226 -1466 0
-7827 4227 0
7827 -4227 0
-7227 1467 0
7227 -1467 0
-7828 4228 0
7828 -4228 0
-7228 1468 0
7228 -1468 0
-7829 4229 0
7829 -4229 0
-7229 1469 0
7229 -1469 0
-7830 4230 0
7830 -4230 0
-7230 1470 0
7230 -1470 0
-7831 4231 0
7831 -4231 0
-7231 1471 0
7231 -1471 0
-7832 4232 0
7832 -4232 0
-7232 1472 0
7232 -1472 0
-7833 4233 0
7833 -4233 0
-7233 1473 0
7233 -1473 0
-7834 4234 0
7834 -4234 0
-7234 1474 0
7234 -1474 0
-7835 4235 0
7835 -4235 0
-7235 1475 0
7235 -1475 0
-7836 4236 0
7836 -4236 0
-7236 1476 0
7236 -1476 0
-7837 4237 0
7837 -4237 0
-7237 1477 0
7237 -1477 0
-7838 4238 0
7838 -4238 0
-7238 1478 0
7238 -1478 0
-7839 4239 0
7839 -4239 0
-7239 1479 0
7239 -1479 0
-7840 4240 0
7840 -4240 0
-7240 1480 0
7240 -1480 0
-7841 4241 0
7841 -4241 0
-7241 1481 0
7241 -1481 0
-7842 4242 0
7842 -4242 0
-7242 1482 0
7242 -1482 0
-7843 4243 0
7843 -4243 0
-7243 1483 0
7243 -1483 0
-7844 4244 0
7844 -4244 0
-7244 1484 0
7244 -1484 0
-7845 4245 0
7845 -4245 0
-7245 1485 0
7245 -1485 0
-7846 4246 0
7846 -4246 0
-7246 1486 0
7246 -1486 0
-7847 4247 0
7847 -4247 0
-7247 1487 0
7247 -1487 0
-7848 4248 0
7848 -4248 0
-7248 1488 0
7248 -1488 0
-7849 4249 0
7849 -4249 0
-7249 1489 0
7249 -1489 0
-7850 4250 0
7850 -4250 0
-7250 1490 0
7250 -1490 0
-7851 4251 0
7851 -4251 0
-7251 1491 0
7251 -1491 0
-7852 4252 0
7852 -4252 0
-7252 1492 0
7252 -1492 0
-7853 4253 0
7853 -4253 0
-7253 1493 0
7253 -1493 0
-7854 4254 0
7854 -4254 0
-7254 1494 0
7254 -1494 0
-7855 4255 0
7855 -4255 0
-7255 1495 0
7255 -1495 0
-7856 4256 0
7856 -4256 0
-7256 1496 0
7256 -1496 0
-7857 4257 0
7857 -4257 0
-7257 1497 0
7257 -1497 0
-7858 4258 0
7858 -4258 0
-7258 1498 0
7258 -1498 0
-7859 4259 0
7859 -4259 0
-7259 1499 0
7259 -1499 0
-7860 4260 0
7860 -4260 0
-7260 1500 0
7260 -1500 0
-7861 4261 0
7861 -4261 0
-7261 1501 0
7261 -1501 0
-7862 4262 0
7862 -4262 0
-7262 1502 0
7262 -1502 0
-7863 4263 0
7863 -4263 0
-7263 1503 0
7263 -1503 0
-7864 4264 0
7864 -4264 0
-7264 1504 0
7264 -1504 0
-7865 4265 0
7865 -4265 0
-7265 1505 0
7265 -1505 0
-7866 4266 0
7866 -4266 0
-7266 1506 0
7266 -1506 0
-7867 4267 0
7867 -4267 0
-7267 1507 0
7267 -1507 0
-7868 4268 0
7868 -4268 0
-7268 1508 0
7268 -1508 0
-7869 4269 0
7869 -4269 0
-7269 1509 0
7269 -1509 0
-7870 4270 0
7870 -4270 0
-7270 1510 0
7270 -1510 0
-7871 4271 0
7871 -4271 0
-7271 1511 0
7271 -1511 0
-7872 4272 0
7872 -4272 0
-7272 1512 0
7272 -1512 0
-7873 4273 0
7873 -4273 0
-7273 1513 0
7273 -1513 0
-7874 4274 0
7874 -4274 0
-7274 1514 0
7274 -1514 0
-7875 4275 0
7875 -4275 0
-7275 1515 0
7275 -1515 0
-7876 4276 0
7876 -4276 0
-7276 1516 0
7276 -1516 0
-7877 4277 0
7877 -4277 0
-7277 1517 0
7277 -1517 0
-7878 4278 0
7878 -4278 0
-7278 1518 0
7278 -1518 0
-7879 4279 0
7879 -4279 0
-7279 1519 0
7279 -1519 0
-7880 4280 0
7880 -4280 0
-7280 1520 0
7280 -1520 0
-7881 4281 0
7881 -4281 0
-7281 1521 0
7281 -1521 0
-7882 4282 0
7882 -4282 0
-7282 1522 0
7282 -1522 0
-7883 4283 0
7883 -4283 0
-7283 1523 0
7283 -1523 0
-7884 4284 0
7884 -4284 0
-7284 1524 0
7284 -1524 0
-7885 4285 0
7885 -4285 0
-7285 1525 0
7285 -1525 0
-7886 4286 0
7886 -4286 0
-7286 1526 0
7286 -1526 0
-7887 4287 0
7887 -4287 0
-7287 1527 0
7287 -1527 0
-7888 4288 0
7888 -4288 0
-7288 1528 0
7288 -1528 0
-7889 4289 0
7889 -4289 0
-7289 1529 0
7289 -1529 0
-7890 4290 0
7890 -4290 0
-7290 1530 0
7290 -1530 0
-7891 4291 0
7891 -4291 0
-7291 1531 0
7291 -1531 0
-7892 4292 0
7892 -4292 0
-7292 1532 0
7292 -1532 0
-7893 4293 0
7893 -4293 0
-7293 1533 0
7293 -1533 0
-7894 4294 0
7894 -4294 0
-7294 1534 0
7294 -1534 0
-7895 4295 0
7895 -4295 0
-7295 1535 0
7295 -1535 0
-7896 4296 0
7896 -4296 0
-7296 1536 0
7296 -1536 0
-7897 4297 0
7897 -4297 0
-7297 1537 0
7297 -1537 0
-7898 4298 0
7898 -4298 0
-7298 1538 0
7298 -1538 0
-7899 4299 0
7899 -4299 0
-7299 1539 0
7299 -1539 0
-7900 4300 0
7900 -4300 0
-7300 1540 0
7300 -1540 0
-7901 4301 0
7901 -4301 0
-7301 1541 0
7301 -1541 0
-7902 4302 0
7902 -4302 0
-7302 1542 0
7302 -1542 0
-7903 4303 0
7903 -4303 0
-7303 1543 0
7303 -1543 0
-7904 4304 0
7904 -4304 0
-7304 1544 0
7304 -1544 0
-7905 4305 0
7905 -4305 0
-7305 1545 0
7305 -1545 0
-7906 4306 0
7906 -4306 0
-7306 1546 0
7306 -1546 0
-7907 4307 0
7907 -4307 0
-7307 1547 0
7307 -1547 0
-7908 4308 0
7908 -4308 0
-7308 1548 0
7308 -1548 0
-7909 4309 0
7909 -4309 0
-7309 1549 0
7309 -1549 0
-7910 4310 0
7910 -4310 0
-7310 1550 0
7310 -1550 0
-7911 4311 0
7911 -4311 0
-7311 1551 0
7311 -1551 0
-7912 4312 0
7912 -4312 0
-7312 1552 0
7312 -1552 0
-7913 4313 0
7913 -4313 0
-7313 1553 0
7313 -1553 0
-7914 4314 0
7914 -4314 0
-7314 1554 0
7314 -1554 0
-7915 4315 0
7915 -4315 0
-7315 1555 0
7315 -1555 0
-7916 4316 0
7916 -4316 0
-7316 1556 0
7316 -1556 0
-7917 4317 0
7917 -4317 0
-7317 1557 0
7317 -1557 0
-7918 4318 0
7918 -4318 0
-7318 1558 0
7318 -1558 0
-7919 4319 0
7919 -4319 0
-7319 1559 0
7319 -1559 0
-7920 4320 0
7920 -4320 0
-7320 1560 0
7320 -1560 0
-7321 3721 1561 0
7321 -3721 0
7321 -1561 0
-7322 3722 1562 0
7322 -3722 0
7322 -1562 0
-7323 3723 1563 0
7323 -3723 0
7323 -1563 0
-7324 3724 1564 0
7324 -3724 0
7324 -1564 0
-7325 3725 1565 0
7325 -3725 0
7325 -1565 0
-7326 3726 1566 0
7326 -3726 0
7326 -1566 0
-7327 3727 1567 0
7327 -3727 0
7327 -1567 0
-7328 3728 1568 0
7328 -3728 0
7328 -1568 0
-7329 3729 1569 0
7329 -3729 0
7329 -1569 0
-7330 3730 1570 0
7330 -3730 0
7330 -1570 0
-7331 3731 1571 0
7331 -3731 0
7331 -1571 0
-7332 3732 1572 0
7332 -3732 0
7332 -1572 0
-7333 3733 1573 0
7333 -3733 0
7333 -1573 0
-7334 3734 1574 0
7334 -3734 0
7334 -1574 0
-7335 3735 1575 0
7335 -3735 0
7335 -1575 0
-7336 3736 1576 0
7336 -3736 0
7336 -1576 0
-7337 3737 1577 0
7337 -3737 0
7337 -1577 0
-7338 3738 1578 0
7338 -3738 0
7338 -1578 0
-7339 3739 1579 0
7339 -3739 0
7339 -1579 0
-7340 3740 1580 0
7340 -3740 0
7340 -1580 0
-7341 3741 1581 0
7341 -3741 0
7341 -1581 0
-7342 3742 1582 0
7342 -3742 0
7342 -1582 0
-7343 3743 1583 0
7343 -3743 0
7343 -1583 0
-7344 3744 1584 0
7344 -3744 0
7344 -1584 0
-7345 3745 1585 0
7345 -3745 0
7345 -1585 0
-7346 3746 1586 0
7346 -3746 0
7346 -1586 0
-7347 3747 1587 0
7347 -3747 0
7347 -1587 0
-7348 3748 1588 0
7348 -3748 0
7348 -1588 0
-7349 3749 1589 0
7349 -3749 0
7349 -1589 0
-7350 3750 1590 0
7350 -3750 0
7350 -1590 0
-7351 3751 1591 0
7351 -3751 0
7351 -1591 0
-7352 3752 1592 0
7352 -3752 0
7352 -1592 0
-7353 3753 1593 0
7353 -3753 0
7353 -1593 0
-7354 3754 1594 0
7354 -3754 0
7354 -1594 0
-7355 3755 1595 0
7355 -3755 0
7355 -1595 0
-7356 3756 1596 0
7356 -3756 0
7356 -1596 0
-7357 3757 1597 0
7357 -3757 0
7357 -1597 0
-7358 3758 1598 0
7358 -3758 0
7358 -1598 0
-7359 3759 1599 0
7359 -3759 0
7359 -1599 0
-7360 3760 1600 0
7360 -3760 0
7360 -1600 0
-7361 3761 1601 0
7361 -3761 0
7361 -1601 0
-7362 3762 1602 0
7362 -3762 0
7362 -1602 0
-7363 3763 1603 0
7363 -3763 0
7363 -1603 0
-7364 3764 1604 0
7364 -3764 0
7364 -1604 0
-7365 3765 1605 0
7365 -3765 0
7365 -1605 0
-7366 3766 1606 0
7366 -3766 0
7366 -1606 0
-7367 3767 1607 0
7367 -3767 0
7367 -1607 0
-7368 3768 1608 0
7368 -3768 0
7368 -1608 0
-7369 3769 1609 0
7369 -3769 0
7369 -1609 0
-7370 3770 1610 0
7370 -3770 0
7370 -1610 0
-7371 3771 1611 0
7371 -3771 0
7371 -1611 0
-7372 3772 1612 0
7372 -3772 0
7372 -1612 0
-7373 3773 1613 0
7373 -3773 0
7373 -1613 0
-7374 3774 1614 0
7374 -3774 0
7374 -1614 0
-7375 3775 1615 0
7375 -3775 0
7375 -1615 0
-7376 3776 1616 0
7376 -3776 0
7376 -1616 0
-7377 3777 1617 0
7377 -3777 0
7377 -1617 0
-7378 3778 1618 0
7378 -3778 0
7378 -1618 0
-7379 3779 1619 0
7379 -3779 0
7379 -1619 0
-7380 3780 1620 0
7380 -3780 0
7380 -1620 0
-7381 3781 1621 0
7381 -3781 0
7381 -1621 0
-7382 3782 1622 0
7382 -3782 0
7382 -1622 0
-7383 3783 1623 0
7383 -3783 0
7383 -1623 0
-7384 3784 1624 0
7384 -3784 0
7384 -1624 0
-7385 3785 1625 0
7385 -3785 0
7385 -1625 0
-7386 3786 1626 0
7386 -3786 0
7386 -1626 0
-7387 3787 1627 0
7387 -3787 0
7387 -1627 0
-7388 3788 1628 0
7388 -3788 0
7388 -1628 0
-7389 3789 1629 0
7389 -3789 0
7389 -1629 0
-7390 3790 1630 0
7390 -3790 0
7390 -1630 0
-7391 3791 1631 0
7391 -3791 0
7391 -1631 0
-7392 3792 1632 0
7392 -3792 0
7392 -1632 0
-7393 3793 1633 0
7393 -3793 0
7393 -1633 0
-7394 3794 1634 0
7394 -3794 0
7394 -1634 0
-7395 3795 1635 0
7395 -3795 0
7395 -1635 0
-7396 3796 1636 0
7396 -3796 0
7396 -1636 0
-7397 3797 1637 0
7397 -3797 0
7397 -1637 0
-7398 3798 1638 0
7398 -3798 0
7398 -1638 0
-7399 3799 1639 0
7399 -3799 0
7399 -1639 0
-7400 3800 1640 0
7400 -3800 0
7400 -1640 0
-7401 3801 1641 0
7401 -3801 0
7401 -1641 0
-7402 3802 1642 0
7402 -3802 0
7402 -1642 0
-7403 3803 1643 0
7403 -3803 0
7403 -1643 0
-7404 3804 1644 0
7404 -3804 0
7404 -1644 0
-7405 3805 1645 0
7405 -3805 0
7405 -1645 0
-7406 3806 1646 0
7406 -3806 0
7406 -1646 0
-7407 3807 1647 0
7407 -3807 0
7407 -1647 0
-7408 3808 1648 0
7408 -3808 0
7408 -1648 0
-7409 3809 1649 0
7409 -3809 0
7409 -1649 0
-7410 3810 1650 0
7410 -3810 0
7410 -1650 0
-7411 3811 1651 0
7411 -3811 0
7411 -1651 0
-7412 3812 1652 0
7412 -3812 0
7412 -1652 0
-7413 3813 1653 0
7413 -3813 0
7413 -1653 0
-7414 3814 1654 0
7414 -3814 0
7414 -1654 0
-7415 3815 1655 0
7415 -3815 0
7415 -1655 0
-7416 3816 1656 0
7416 -3816 0
7416 -1656 0
-7417 3817 1657 0
7417 -3817 0
7417 -1657 0
-7418 3818 1658 0
7418 -3818 0
7418 -1658 0
-7419 3819 1659 0
7419 -3819 0
7419 -1659 0
-7420 3820 1660 0
7420 -3820 0
7420 -1660 0
-7421 3821 1661 0
7421 -3821 0
7421 -1661 0
-7422 3822 1662 0
7422 -3822 0
7422 -1662 0
-7423 3823 1663 0
7423 -3823 0
7423 -1663 0
-7424 3824 1664 0
7424 -3824 0
7424 -1664 0
-7425 3825 1665 0
7425 -3825 0
7425 -1665 0
-7426 3826 1666 0
7426 -3826 0
7426 -1666 0
-7427 3827 1667 0
7427 -3827 0
7427 -1667 0
-7428 3828 1668 0
7428 -3828 0
7428 -1668 0
-7429 3829 1669 0
7429 -3829 0
7429 -1669 0
-7430 3830 1670 0
7430 -3830 0
7430 -1670 0
-7431 3831 1671 0
7431 -3831 0
7431 -1671 0
-7432 3832 1672 0
7432 -3832 0
7432 -1672 0
-7433 3833 1673 0
7433 -3833 0
7433 -1673 0
-7434 3834 1674 0
7434 -3834 0
7434 -1674 0
-7435 3835 1675 0
7435 -3835 0
7435 -1675 0
-7436 3836 1676 0
7436 -3836 0
7436 -1676 0
-7437 3837 1677 0
7437 -3837 0
7437 -1677 0
-7438 3838 1678 0
7438 -3838 0
7438 -1678 0
-7439 3839 1679 0
7439 -3839 0
7439 -1679 0
-7440 3840 1680 0
7440 -3840 0
7440 -1680 0
-7441 3841 1681 0
7441 -3841 0
7441 -1681 0
-7442 3842 1682 0
7442 -3842 0
7442 -1682 0
-7443 3843 1683 0
7443 -3843 0
7443 -1683 0
-7444 3844 1684 0
7444 -3844 0
7444 -1684 0
-7445 3845 1685 0
7445 -3845 0
7445 -1685 0
-7446 3846 1686 0
7446 -3846 0
7446 -1686 0
-7447 3847 1687 0
7447 -3847 0
7447 -1687 0
-7448 3848 1688 0
7448 -3848 0
7448 -1688 0
-7449 3849 1689 0
7449 -3849 0
7449 -1689 0
-7450 3850 1690 0
7450 -3850 0
7450 -1690 0
-7451 3851 1691 0
7451 -3851 0
7451 -1691 0
-7452 3852 1692 0
7452 -3852 0
7452 -1692 0
-7453 3853 1693 0
7453 -3853 0
7453 -1693 0
-7454 3854 1694 0
7454 -3854 0
7454 -1694 0
-7455 3855 1695 0
7455 -3855 0
7455 -1695 0
-7456 3856 1696 0
7456 -3856 0
7456 -1696 0
-7457 3857 1697 0
7457 -3857 0
7457 -1697 0
-7458 3858 1698 0
7458 -3858 0
7458 -1698 0
-7459 3859 1699 0
7459 -3859 0
7459 -1699 0
-7460 3860 1700 0
7460 -3860 0
7460 -1700 0
-7461 3861 1701 0
7461 -3861 0
7461 -1701 0
-7462 3862 1702 0
7462 -3862 0
7462 -1702 0
-7463 3863 1703 0
7463 -3863 0
7463 -1703 0
-7464 3864 1704 0
7464 -3864 0
7464 -1704 0
-7465 3865 1705 0
7465 -3865 0
7465 -1705 0
-7466 3866 1706 0
7466 -3866 0
7466 -1706 0
-7467 3867 1707 0
7467 -3867 0
7467 -1707 0
-7468 3868 1708 0
7468 -3868 0
7468 -1708 0
-7469 3869 1709 0
7469 -3869 0
7469 -1709 0
-7470 3870 1710 0
7470 -3870 0
7470 -1710 0
-7471 3871 1711 0
7471 -3871 0
7471 -1711 0
-7472 3872 1712 0
7472 -3872 0
7472 -1712 0
-7473 3873 1713 0
7473 -3873 0
7473 -1713 0
-7474 3874 1714 0
7474 -3874 0
7474 -1714 0
-7475 3875 1715 0
7475 -3875 0
7475 -1715 0
-7476 3876 1716 0
7476 -3876 0
7476 -1716 0
-7477 3877 1717 0
7477 -3877 0
7477 -1717 0
-7478 3878 1718 0
7478 -3878 0
7478 -1718 0
-7479 3879 1719 0
7479 -3879 0
7479 -1719 0
-7480 3880 1720 0
7480 -3880 0
7480 -1720 0
-7481 3881 1721 0
7481 -3881 0
7481 -1721 0
-7482 3882 1722 0
7482 -3882 0
7482 -1722 0
-7483 3883 1723 0
7483 -3883 0
7483 -1723 0
-7484 3884 1724 0
7484 -3884 0
7484 -1724 0
-7485 3885 1725 0
7485 -3885 0
7485 -1725 0
-7486 3886 1726 0
7486 -3886 0
7486 -1726 0
-7487 3887 1727 0
7487 -3887 0
7487 -1727 0
-7488 3888 1728 0
7488 -3888 0
7488 -1728 0
-7489 3889 1729 0
7489 -3889 0
7489 -1729 0
-7490 3890 1730 0
7490 -3890 0
7490 -1730 0
-7491 3891 1731 0
7491 -3891 0
7491 -1731 0
-7492 3892 1732 0
7492 -3892 0
7492 -1732 0
-7493 3893 1733 0
7493 -3893 0
7493 -1733 0
-7494 3894 1734 0
7494 -3894 0
7494 -1734 0
-7495 3895 1735 0
7495 -3895 0
7495 -1735 0
-7496 3896 1736 0
7496 -3896 0
7496 -1736 0
-7497 3897 1737 0
7497 -3897 0
7497 -1737 0
-7498 3898 1738 0
7498 -3898 0
7498 -1738 0
-7499 3899 1739 0
7499 -3899 0
7499 -1739 0
-7500 3900 1740 0
7500 -3900 0
7500 -1740 0
-7501 3901 1741 0
7501 -3901 0
7501 -1741 0
-7502 3902 1742 0
7502 -3902 0
7502 -1742 0
-7503 3903 1743 0
7503 -3903 0
7503 -1743 0
-7504 3904 1744 0
7504 -3904 0
7504 -1744 0
-7505 3905 1745 0
7505 -3905 0
7505 -1745 0
-7506 3906 1746 0
7506 -3906 0
7506 -1746 0
-7507 3907 1747 0
7507 -3907 0
7507 -1747 0
-7508 3908 1748 0
7508 -3908 0
7508 -1748 0
-7509 3909 1749 0
7509 -3909 0
7509 -1749 0
-7510 3910 1750 0
7510 -3910 0
7510 -1750 0
-7511 3911 1751 0
7511 -3911 0
7511 -1751 0
-7512 3912 1752 0
7512 -3912 0
7512 -1752 0
-7513 3913 1753 0
7513 -3913 0
7513 -1753 0
-7514 3914 1754 0
7514 -3914 0
7514 -1754 0
-7515 3915 1755 0
7515 -3915 0
7515 -1755 0
-7516 3916 1756 0
7516 -3916 0
7516 -1756 0
-7517 3917 1757 0
7517 -3917 0
7517 -1757 0
-7518 3918 1758 0
7518 -3918 0
7518 -1758 0
-7519 3919 1759 0
7519 -3919 0
7519 -1759 0
-7520 3920 1760 0
7520 -3920 0
7520 -1760 0
-7521 3921 1761 0
7521 -3921 0
7521 -1761 0
-7522 3922 1762 0
7522 -3922 0
7522 -1762 0
-7523 3923 1763 0
7523 -3923 0
7523 -1763 0
-7524 3924 1764 0
7524 -3924 0
7524 -1764 0
-7525 3925 1765 0
7525 -3925 0
7525 -1765 0
-7526 3926 1766 0
7526 -3926 0
7526 -1766 0
-7527 3927 1767 0
7527 -3927 0
7527 -1767 0
-7528 3928 1768 0
7528 -3928 0
7528 -1768 0
-7529 3929 1769 0
7529 -3929 0
7529 -1769 0
-7530 3930 1770 0
7530 -3930 0
7530 -1770 0
-7531 3931 1771 0
7531 -3931 0
7531 -1771 0
-7532 3932 1772 0
7532 -3932 0
7532 -1772 0
-7533 3933 1773 0
7533 -3933 0
7533 -1773 0
-7534 3934 1774 0
7534 -3934 0
7534 -1774 0
-7535 3935 1775 0
7535 -3935 0
7535 -1775 0
-7536 3936 1776 0
7536 -3936 0
7536 -1776 0
-7537 3937 1777 0
7537 -3937 0
7537 -1777 0
-7538 3938 1778 0
7538 -3938 0
7538 -1778 0
-7539 3939 1779 0
7539 -3939 0
7539 -1779 0
-7540 3940 1780 0
7540 -3940 0
7540 -1780 0
-7541 3941 1781 0
7541 -3941 0
7541 -1781 0
-7542 3942 1782 0
7542 -3942 0
7542 -1782 0
-7543 3943 1783 0
7543 -3943 0
7543 -1783 0
-7544 3944 1784 0
7544 -3944 0
7544 -1784 0
-7545 3945 1785 0
7545 -3945 0
7545 -1785 0
-7546 3946 1786 0
7546 -3946 0
7546 -1786 0
-7547 3947 1787 0
7547 -3947 0
7547 -1787 0
-7548 3948 1788 0
7548 -3948 0
7548 -1788 0
-7549 3949 1789 0
7549 -3949 0
7549 -1789 0
-7550 3950 1790 0
7550 -3950 0
7550 -1790 0
-7551 3951 1791 0
7551 -3951 0
7551 -1791 0
-7552 3952 1792 0
7552 -3952 0
7552 -1792 0
-7553 3953 1793 0
7553 -3953 0
7553 -1793 0
-7554 3954 1794 0
7554 -3954 0
7554 -1794 0
-7555 3955 1795 0
7555 -3955 0
7555 -1795 0
-7556 3956 1796 0
7556 -3956 0
7556 -1796 0
-7557 3957 1797 0
7557 -3957 0
7557 -1797 0
-7558 3958 1798 0
7558 -3958 0
7558 -1798 0
-7559 3959 1799 0
7559 -3959 0
7559 -1799 0
-7560 3960 1800 0
7560 -3960 0
7560 -1800 0
-7561 3961 1801 0
7561 -3961 0
7561 -1801 0
-7562 3962 1802 0
7562 -3962 0
7562 -1802 0
-7563 3963 1803 0
7563 -3963 0
7563 -1803 0
-7564 3964 1804 0
7564 -3964 0
7564 -1804 0
-7565 3965 1805 0
7565 -3965 0
7565 -1805 0
-7566 3966 1806 0
7566 -3966 0
7566 -1806 0
-7567 3967 1807 0
7567 -3967 0
7567 -1807 0
-7568 3968 1808 0
7568 -3968 0
7568 -1808 0
-7569 3969 1809 0
7569 -3969 0
7569 -1809 0
-7570 3970 1810 0
7570 -3970 0
7570 -1810 0
-7571 3971 1811 0
7571 -3971 0
7571 -1811 0
-7572 3972 1812 0
7572 -3972 0
7572 -1812 0
-7573 3973 1813 0
7573 -3973 0
7573 -1813 0
-7574 3974 1814 0
7574 -3974 0
7574 -1814 0
-7575 3975 1815 0
7575 -3975 0
7575 -1815 0
-7576 3976 1816 0
7576 -3976 0
7576 -1816 0
-7577 3977 1817 0
7577 -3977 0
7577 -1817 0
-7578 3978 1818 0
7578 -3978 0
7578 -1818 0
-7579 3979 1819 0
7579 -3979 0
7579 -1819 0
-7580 3980 1820 0
7580 -3980 0
7580 -1820 0
-7581 3981 1821 0
7581 -3981 0
7581 -1821 0
-7582 3982 1822 0
7582 -3982 0
7582 -1822 0
-7583 3983 1823 0
7583 -3983 0
7583 -1823 0
-7584 3984 1824 0
7584 -3984 0
7584 -1824 0
-7585 3985 1825 0
7585 -3985 0
7585 -1825 0
-7586 3986 1826 0
7586 -3986 0
7586 -1826 0
-7587 3987 1827 0
7587 -3987 0
7587 -1827 0
-7588 3988 1828 0
7588 -3988 0
7588 -1828 0
-7589 3989 1829 0
7589 -3989 0
7589 -1829 0
-7590 3990 1830 0
7590 -3990 0
7590 -1830 0
-7591 3991 1831 0
7591 -3991 0
7591 -1831 0
-7592 3992 1832 0
7592 -3992 0
7592 -1832 0
-7593 3993 1833 0
7593 -3993 0
7593 -1833 0
-7594 3994 1834 0
7594 -3994 0
7594 -1834 0
-7595 3995 1835 0
7595 -3995 0
7595 -1835 0
-7596 3996 1836 0
7596 -3996 0
7596 -1836 0
-7597 3997 1837 0
7597 -3997 0
7597 -1837 0
-7598 3998 1838 0
7598 -3998 0
7598 -1838 0
-7599 3999 1839 0
7599 -3999 0
7599 -1839 0
-7600 4000 1840 0
7600 -4000 0
7600 -1840 0
-7601 4001 1841 0
7601 -4001 0
7601 -1841 0
-7602 4002 1842 0
7602 -4002 0
7602 -1842 0
-7603 4003 1843 0
7603 -4003 0
7603 -1843 0
-7604 4004 1844 0
7604 -4004 0
7604 -1844 0
-7605 4005 1845 0
7605 -4005 0
7605 -1845 0
-7606 4006 1846 0
7606 -4006 0
7606 -1846 0
-7607 4007 1847 0
7607 -4007 0
7607 -1847 0
-7608 4008 1848 0
7608 -4008 0
7608 -1848 0
-7609 4009 1849 0
7609 -4009 0
7609 -1849 0
-7610 4010 1850 0
7610 -4010 0
7610 -1850 0
-7611 4011 1851 0
7611 -4011 0
7611 -1851 0
-7612 4012 1852 0
7612 -4012 0
7612 -1852 0
-7613 4013 1853 0
7613 -4013 0
7613 -1853 0
-7614 4014 1854 0
7614 -4014 0
7614 -1854 0
-7615 4015 1855 0
7615 -4015 0
7615 -1855 0
-7616 4016 1856 0
7616 -4016 0
7616 -1856 0
-7617 4017 1857 0
7617 -4017 0
7617 -1857 0
-7618 4018 1858 0
7618 -4018 0
7618 -1858 0
-7619 4019 1859 0
7619 -4019 0
7619 -1859 0
-7620 4020 1860 0
7620 -4020 0
7620 -1860 0
-7621 4021 1861 0
7621 -4021 0
7621 -1861 0
-7622 4022 1862 0
7622 -4022 0
7622 -1862 0
-7623 4023 1863 0
7623 -4023 0
7623 -1863 0
-7624 4024 1864 0
7624 -4024 0
7624 -1864 0
-7625 4025 1865 0
7625 -4025 0
7625 -1865 0
-7626 4026 1866 0
7626 -4026 0
7626 -1866 0
-7627 4027 1867 0
7627 -4027 0
7627 -1867 0
-7628 4028 1868 0
7628 -4028 0
7628 -1868 0
-7629 4029 1869 0
7629 -4029 0
7629 -1869 0
-7630 4030 1870 0
7630 -4030 0
7630 -1870 0
-7631 4031 1871 0
7631 -4031 0
7631 -1871 0
-7632 4032 1872 0
7632 -4032 0
7632 -1872 0
-7633 4033 1873 0
7633 -4033 0
7633 -1873 0
-7634 4034 1874 0
7634 -4034 0
7634 -1874 0
-7635 4035 1875 0
7635 -4035 0
7635 -1875 0
-7636 4036 1876 0
7636 -4036 0
7636 -1876 0
-7637 4037 1877 0
7637 -4037 0
7637 -1877 0
-7638 4038 1878 0
7638 -4038 0
7638 -1878 0
-7639 4039 1879 0
7639 -4039 0
7639 -1879 0
-7640 4040 1880 0
7640 -4040 0
7640 -1880 0
-7641 4041 1881 0
7641 -4041 0
7641 -1881 0
-7642 4042 1882 0
7642 -4042 0
7642 -1882 0
-7643 4043 1883 0
7643 -4043 0
7643 -1883 0
-7644 4044 1884 0
7644 -4044 0
7644 -1884 0
-7645 4045 1885 0
7645 -4045 0
7645 -1885 0
-7646 4046 1886 0
7646 -4046 0
7646 -1886 0
-7647 4047 1887 0
7647 -4047 0
7647 -1887 0
-7648 4048 1888 0
7648 -4048 0
7648 -1888 0
-7649 4049 1889 0
7649 -4049 0
7649 -1889 0
-7650 4050 1890 0
7650 -4050 0
7650 -1890 0
-7651 4051 1891 0
7651 -4051 0
7651 -1891 0
-7652 4052 1892 0
7652 -4052 0
7652 -1892 0
-7653 4053 1893 0
7653 -4053 0
7653 -1893 0
-7654 4054 1894 0
7654 -4054 0
7654 -1894 0
-7655 4055 1895 0
7655 -4055 0
7655 -1895 0
-7656 4056 1896 0
7656 -4056 0
7656 -1896 0
-7657 4057 1897 0
7657 -4057 0
7657 -1897 0
-7658 4058 1898 0
7658 -4058 0
7658 -1898 0
-7659 4059 1899 0
7659 -4059 0
7659 -1899 0
-7660 4060 1900 0
7660 -4060 0
7660 -1900 0
-7661 4061 1901 0
7661 -4061 0
7661 -1901 0
-7662 4062 1902 0
7662 -4062 0
7662 -1902 0
-7663 4063 1903 0
7663 -4063 0
7663 -1903 0
-7664 4064 1904 0
7664 -4064 0
7664 -1904 0
-7665 4065 1905 0
7665 -4065 0
7665 -1905 0
-7666 4066 1906 0
7666 -4066 0
7666 -1906 0
-7667 4067 1907 0
7667 -4067 0
7667 -1907 0
-7668 4068 1908 0
7668 -4068 0
7668 -1908 0
-7669 4069 1909 0
7669 -4069 0
7669 -1909 0
-7670 4070 1910 0
7670 -4070 0
7670 -1910 0
-7671 4071 1911 0
7671 -4071 0
7671 -1911 0
-7672 4072 1912 0
7672 -4072 0
7672 -1912 0
-7673 4073 1913 0
7673 -4073 0
7673 -1913 0
-7674 4074 1914 0
7674 -4074 0
7674 -1914 0
-7675 4075 1915 0
7675 -4075 0
7675 -1915 0
-7676 4076 1916 0
7676 -4076 0
7676 -1916 0
-7677 4077 1917 0
7677 -4077 0
7677 -1917 0
-7678 4078 1918 0
7678 -4078 0
7678 -1918 0
-7679 4079 1919 0
7679 -4079 0
7679 -1919 0
-7680 4080 1920 0
7680 -4080 0
7680 -1920 0
-7681 4081 1921 0
7681 -4081 0
7681 -1921 0
-7682 4082 1922 0
7682 -4082 0
7682 -1922 0
-7683 4083 1923 0
7683 -4083 0
7683 -1923 0
-7684 4084 1924 0
7684 -4084 0
7684 -1924 0
-7685 4085 1925 0
7685 -4085 0
7685 -1925 0
-7686 4086 1926 0
7686 -4086 0
7686 -1926 0
-7687 4087 1927 0
7687 -4087 0
7687 -1927 0
-7688 4088 1928 0
7688 -4088 0
7688 -1928 0
-7689 4089 1929 0
7689 -4089 0
7689 -1929 0
-7690 4090 1930 0
7690 -4090 0
7690 -1930 0
-7691 4091 1931 0
7691 -4091 0
7691 -1931 0
-7692 4092 1932 0
7692 -4092 0
7692 -1932 0
-7693 4093 1933 0
7693 -4093 0
7693 -1933 0
-7694 4094 1934 0
7694 -4094 0
7694 -1934 0
-7695 4095 1935 0
7695 -4095 0
7695 -1935 0
-7696 4096 1936 0
7696 -4096 0
7696 -1936 0
-7697 4097 1937 0
7697 -4097 0
7697 -1937 0
-7698 4098 1938 0
7698 -4098 0
7698 -1938 0
-7699 4099 1939 0
7699 -4099 0
7699 -1939 0
-7700 4100 1940 0
7700 -4100 0
7700 -1940 0
-7701 4101 1941 0
7701 -4101 0
7701 -1941 0
-7702 4102 1942 0
7702 -4102 0
7702 -1942 0
-7703 4103 1943 0
7703 -4103 0
7703 -1943 0
-7704 4104 1944 0
7704 -4104 0
7704 -1944 0
-7705 4105 1945 0
7705 -4105 0
7705 -1945 0
-7706 4106 1946 0
7706 -4106 0
7706 -1946 0
-7707 4107 1947 0
7707 -4107 0
7707 -1947 0
-7708 4108 1948 0
7708 -4108 0
7708 -1948 0
-7709 4109 1949 0
7709 -4109 0
7709 -1949 0
-7710 4110 1950 0
7710 -4110 0
7710 -1950 0
-7711 4111 1951 0
7711 -4111 0
7711 -1951 0
-7712 4112 1952 0
7712 -4112 0
7712 -1952 0
-7713 4113 1953 0
7713 -4113 0
7713 -1953 0
-7714 4114 1954 0
7714 -4114 0
7714 -1954 0
-7715 4115 1955 0
7715 -4115 0
7715 -1955 0
-7716 4116 1956 0
7716 -4116 0
7716 -1956 0
-7717 4117 1957 0
7717 -4117 0
7717 -1957 0
-7718 4118 1958 0
7718 -4118 0
7718 -1958 0
-7719 4119 1959 0
7719 -4119 0
7719 -1959 0
-7720 4120 1960 0
7720 -4120 0
7720 -1960 0
-7721 4121 1961 0
7721 -4121 0
7721 -1961 0
-7722 4122 1962 0
7722 -4122 0
7722 -1962 0
-7723 4123 1963 0
7723 -4123 0
7723 -1963 0
-7724 4124 1964 0
7724 -4124 0
7724 -1964 0
-7725 4125 1965 0
7725 -4125 0
7725 -1965 0
-7726 4126 1966 0
7726 -4126 0
7726 -1966 0
-7727 4127 1967 0
7727 -4127 0
7727 -1967 0
-7728 4128 1968 0
7728 -4128 0
7728 -1968 0
-7729 4129 1969 0
7729 -4129 0
7729 -1969 0
-7730 4130 1970 0
7730 -4130 0
7730 -1970 0
-7731 4131 1971 0
7731 -4131 0
7731 -1971 0
-7732 4132 1972 0
7732 -4132 0
7732 -1972 0
-7733 4133 1973 0
7733 -4133 0
7733 -1973 0
-7734 4134 1974 0
7734 -4134 0
7734 -1974 0
-7735 4135 1975 0
7735 -4135 0
7735 -1975 0
-7736 4136 1976 0
7736 -4136 0
7736 -1976 0
-7737 4137 1977 0
7737 -4137 0
7737 -1977 0
-7738 4138 1978 0
7738 -4138 0
7738 -1978 0
-7739 4139 1979 0
7739 -4139 0
7739 -1979 0
-7740 4140 1980 0
7740 -4140 0
7740 -1980 0
-7741 4141 1981 0
7741 -4141 0
7741 -1981 0
-7742 4142 1982 0
7742 -4142 0
7742 -1982 0
-7743 4143 1983 0
7743 -4143 0
7743 -1983 0
-7744 4144 1984 0
7744 -4144 0
7744 -1984 0
-7745 4145 1985 0
7745 -4145 0
7745 -1985 0
-7746 4146 1986 0
7746 -4146 0
7746 -1986 0
-7747 4147 1987 0
7747 -4147 0
7747 -1987 0
-7748 4148 1988 0
7748 -4148 0
7748 -1988 0
-7749 4149 1989 0
7749 -4149 0
7749 -1989 0
-7750 4150 1990 0
7750 -4150 0
7750 -1990 0
-7751 4151 1991 0
7751 -4151 0
7751 -1991 0
-7752 4152 1992 0
7752 -4152 0
7752 -1992 0
-7753 4153 1993 0
7753 -4153 0
7753 -1993 0
-7754 4154 1994 0
7754 -4154 0
7754 -1994 0
-7755 4155 1995 0
7755 -4155 0
7755 -1995 0
-7756 4156 1996 0
7756 -4156 0
7756 -1996 0
-7757 4157 1997 0
7757 -4157 0
7757 -1997 0
-7758 4158 1998 0
7758 -4158 0
7758 -1998 0
-7759 4159 1999 0
7759 -4159 0
7759 -1999 0
-7760 4160 2000 0
7760 -4160 0
7760 -2000 0
-7761 4161 2001 0
7761 -4161 0
7761 -2001 0
-7762 4162 2002 0
7762 -4162 0
7762 -2002 0
-7763 4163 2003 0
7763 -4163 0
7763 -2003 0
-7764 4164 2004 0
7764 -4164 0
7764 -2004 0
-7765 4165 2005 0
7765 -4165 0
7765 -2005 0
-7766 4166 2006 0
7766 -4166 0
7766 -2006 0
-7767 4167 2007 0
7767 -4167 0
7767 -2007 0
-7768 4168 2008 0
7768 -4168 0
7768 -2008 0
-7769 4169 2009 0
7769 -4169 0
7769 -2009 0
-7770 4170 2010 0
7770 -4170 0
7770 -2010 0
-7771 4171 2011 0
7771 -4171 0
7771 -2011 0
-7772 4172 2012 0
7772 -4172 0
7772 -2012 0
-7773 4173 2013 0
7773 -4173 0
7773 -2013 0
-7774 4174 2014 0
7774 -4174 0
7774 -2014 0
-7775 4175 2015 0
7775 -4175 0
7775 -2015 0
-7776 4176 2016 0
7776 -4176 0
7776 -2016 0
-7777 4177 2017 0
7777 -4177 0
7777 -2017 0
-7778 4178 2018 0
7778 -4178 0
7778 -2018 0
-7779 4179 2019 0
7779 -4179 0
7779 -2019 0
-7780 4180 2020 0
7780 -4180 0
7780 -2020 0
-7781 4181 2021 0
7781 -4181 0
7781 -2021 0
-7782 4182 2022 0
7782 -4182 0
7782 -2022 0
-7783 4183 2023 0
7783 -4183 0
7783 -2023 0
-7784 4184 2024 0
7784 -4184 0
7784 -2024 0
-7785 4185 2025 0
7785 -4185 0
7785 -2025 0
-7786 4186 2026 0
7786 -4186 0
7786 -2026 0
-7787 4187 2027 0
7787 -4187 0
7787 -2027 0
-7788 4188 2028 0
7788 -4188 0
7788 -2028 0
-7789 4189 2029 0
7789 -4189 0
7789 -2029 0
-7790 4190 2030 0
7790 -4190 0
7790 -2030 0
-7791 4191 2031 0
7791 -4191 0
7791 -2031 0
-7792 4192 2032 0
7792 -4192 0
7792 -2032 0
-7793 4193 2033 0
7793 -4193 0
7793 -2033 0
-7794 4194 2034 0
7794 -4194 0
7794 -2034 0
-7795 4195 2035 0
7795 -4195 0
7795 -2035 0
-7796 4196 2036 0
7796 -4196 0
7796 -2036 0
-7797 4197 2037 0
7797 -4197 0
7797 -2037 0
-7798 4198 2038 0
7798 -4198 0
7798 -2038 0
-7799 4199 2039 0
7799 -4199 0
7799 -2039 0
-7800 4200 2040 0
7800 -4200 0
7800 -2040 0
7921 8041 8161 8281 8401 8521 0
-5761 1441 0
-5881 1561 0
-6001 1681 0
-6121 1801 0
-6241 1921 0
-6601 3721 0
-6721 3841 0
-6841 3961 0
-6961 4081 0
-7081 4201 0
-6601 -5881 0
-8041 6601 5881 0
8041 -6601 0
8041 -5881 0
-6721 -6001 0
-8161 6721 6001 0
8161 -6721 0
8161 -6001 0
-6841 -6121 0
-8281 6841 6121 0
8281 -6841 0
8281 -6121 0
-6961 -6241 0
-8401 6961 6241 0
8401 -6961 0
8401 -6241 0
-8521 7081 0
8521 -7081 0
-7921 5761 0
7921 -5761 0
7922 8042 8162 8282 8402 8522 0
-5762 1442 0
-5882 1562 0
-6002 1682 0
-6122 1802 0
-6242 1922 0
-6602 3722 0
-6722 3842 0
-6842 3962 0
-6962 4082 0
-7082 4202 0
-6602 -5882 0
-8042 6602 5882 0
8042 -6602 0
8042 -5882 0
-6722 -6002 0
-8162 6722 6002 0
8162 -6722 0
8162 -6002 0
-6842 -6122 0
-8282 6842 6122 0
8282 -6842 0
8282 -6122 0
-6962 -6242 0
-8402 6962 6242 0
8402 -6962 0
8402 -6242 0
-8522 7082 0
8522 -7082 0
-7922 5762 0
7922 -5762 0
7923 8043 8163 8283 8403 8523 0
-5763 1443 0
-5883 1563 0
-6003 1683 0
-6123 1803 0
-6243 1923 0
-6603 3723 0
-6723 3843 0
-6843 3963 0
-6963 4083 0
-7083 4203 0
-6603 -5883 0
-8043 6603 5883 0
8043 -6603 0
8043 -5883 0
-6723 -6003 0
-8163 6723 6003 0
8163 -6723 0
8163 -6003 0
-6843 -6123 0
-8283 6843 6123 0
8283 -6843 0
8283 -6123 0
-6963 -6243 0
-8403 6963 6243 0
8403 -6963 0
8403 -6243 0
-8523 7083 0
8523 -7083 0
-7923 5763 0
7923 -5763 0
7924 8044 8164 8284 8404 8524 0
-5764 1444 0
-5884 1564 0
-6004 1684 0
-6124 1804 0
-6244 1924 0
-6604 3724 0
-6724 3844 0
-6844 3964 0
-6964 4084 0
-7084 4204 0
-6604 -5884 0
-8044 6604 5884 0
8044 -6604 0
8044 -5884 0
-6724 -6004 0
-8164 6724 6004 0
8164 -6724 0
8164 -6004 0
-6844 -6124 0
-8284 6844 6124 0
8284 -6844 0
8284 -6124 0
-6964 -6244 0
-8404 6964 6244 0
8404 -6964 0
8404 -6244 0
-8524 7084 0
8524 -7084 0
-7924 5764 0
7924 -5764 0
7925 8045 8165 8285 8405 8525 0
-5765 1445 0
-5885 1565 0
-6005 1685 0
-6125 1805 0
-6245 1925 0
-6605 3725 0
-6725 3845 0
-6845 3965 0
-6965 4085 0
-7085 4205 0
-6605 -5885 0
-8045 6605 5885 0
8045 -6605 0
8045 -5885 0
-6725 -6005 0
-8165 6725 6005 0
8165 -6725 0
8165 -6005 0
-6845 -6125 0
-8285 6845 6125 0
8285 -6845 0
8285 -6125 0
-6965 -6245 0
-8405 6965 6245 0
8405 -6965 0
8405 -6245 0
-8525 7085 0
8525 -7085 0
-7925 5765 0
7925 -5765 0
7926 8046 8166 8286 8406 8526 0
-5766 1446 0
-5886 1566 0
-6006 1686 0
-6126 1806 0
-6246 1926 0
-6606 3726 0
-6726 3846 0
-6846 3966 0
-6966 4086 0
-7086 4206 0
-6606 -5886 0
-8046 6606 5886 0
8046 -6606 0
8046 -5886 0
-6726 -6006 0
-8166 6726 6006 0
8166 -6726 0
8166 -6006 0
-6846 -6126 0
-8286 6846 6126 0
8286 -6846 0
8286 -6126 0
-6966 -6246 0
-8406 6966 6246 0
8406 -6966 0
8406 -6246 0
-8526 7086 0
8526 -7086 0
-7926 5766 0
7926 -5766 0
7927 8047 8167 8287 8407 8527 0
-5767 1447 0
-5887 1567 0
-6007 1687 0
-6127 1807 0
-6247 1927 0
-6607 3727 0
-6727 3847 0
-6847 3967 0
-6967 4087 0
-7087 4207 0
-6607 -5887 0
-8047 6607 5887 0
8047 -6607 0
8047 -5887 0
-6727 -6007 0
-8167 6727 6007 0
8167 -6727 0
8167 -6007 0
-6847 -6127 0
-8287 6847 6127 0
8287 -6847 0
8287 -6127 0
-6967 -6247 0
-8407 6967 6247 0
8407 -6967 0
8407 -6247 0
-8527 7087 0
8527 -7087 0
-7927 5767 0
7927 -5767 0
7928 8048 8168 8288 8408 8528 0
-5768 1448 0
-5888 1568 0
-6008 1688 0
-6128 1808 0
-6248 1928 0
-6608 3728 0
-6728 3848 0
-6848 3968 0
-6968 4088 0
-7088 4208 0
-6608 -5888 0
-8048 6608 5888 0
8048 -6608 0
8048 -5888 0
-6728 -6008 0
-8168 6728 6008 0
8168 -6728 0
8168 -6008 0
-6848 -6128 0
-8288 6848 6128 0
8288 -6848 0
8288 -6128 0
-6968 -6248 0
-8408 6968 6248 0
8408 -6968 0
8408 -6248 0
-8528 7088 0
8528 -7088 0
-7928 5768 0
7928 -5768 0
7929 8049 8169 8289 8409 8529 0
-5769 1449 0
-5889 1569 0
-6009 1689 0
-6129 1809 0
-6249 1929 0
-6609 3729 0
-6729 3849 0
-6849 3969 0
-6969 4089 0
-7089 4209 0
-6609 -5889 0
-8049 6609 5889 0
8049 -6609 0
8049 -5889 0
-6729 -6009 0
-8169 6729 6009 0
8169 -6729 0
8169 -6009 0
-6849 -6129 0
-8289 6849 6129 0
8289 -6849 0
8289 -6129 0
-6969 -6249 0
-8409 6969 6249 0
8409 -6969 0
8409 -6249 0
-8529 7089 0
8529 -7089 0
-7929 5769 0
7929 -5769 0
7930 8050 8170 8290 8410 8530 0
-5770 1450 0
-5890 1570 0
-6010 1690 0
-6130 1810 0
-6250 1930 0
-6610 3730 0
-6730 3850 0
-6850 3970 0
-6970 4090 0
-7090 4210 0
-6610 -5890 0
-8050 6610 5890 0
8050 -6610 0
8050 -5890 0
-6730 -6010 0
-8170 6730 6010 0
8170 -6730 0
8170 -6010 0
-6850 -6130 0
-8290 6850 6130 0
8290 -6850 0
8290 -6130 0
-6970 -6250 0
-8410 6970 6250 0
8410 -6970 0
8410 -6250 0
-8530 7090 0
8530 -7090 0
-7930 5770 0
7930 -5770 0
7931 8051 8171 8291 8411 8531 0
-5771 1451 0
-5891 1571 0
-6011 1691 0
-6131 1811 0
-6251 1931 0
-6611 3731 0
-6731 3851 0
-6851 3971 0
-6971 4091 0
-7091 4211 0
-6611 -5891 0
-8051 6611 5891 0
8051 -6611 0
8051 -5891 0
-6731 -6011 0
-8171 6731 6011 0
8171 -6731 0
8171 -6011 0
-6851 -6131 0
-8291 6851 6131 0
8291 -6851 0
8291 -6131 0
-6971 -6251 0
-8411 6971 6251 0
8411 -6971 0
8411 -6251 0
-8531 7091 0
8531 -7091 0
-7931 5771 0
7931 -5771 0
7932 8052 8172 8292 8412 8532 0
-5772 1452 0
-5892 1572 0
-6012 1692 0
-6132 1812 0
-6252 1932 0
-6612 3732 0
-6732 3852 0
-6852 3972 0
-6972 4092 0
-7092 4212 0
-6612 -5892 0
-8052 6612 5892 0
8052 -6612 0
8052 -5892 0
-6732 -6012 0
-8172 6732 6012 0
8172 -6732 0
8172 -6012 0
-6852 -6132 0
-8292 6852 6132 0
8292 -6852 0
8292 -6132 0
-6972 -6252 0
-8412 6972 6252 0
8412 -6972 0
8412 -6252 0
-8532 7092 0
8532 -7092 0
-7932 5772 0
7932 -5772 0
7933 8053 8173 8293 8413 8533 0
-5773 1453 0
-5893 1573 0
-6013 1693 0
-6133 1813 0
-6253 1933 0
-6613 3733 0
-6733 3853 0
-6853 3973 0
-6973 4093 0
-7093 4213 0
-6613 -5893 0
-8053 6613 5893 0
8053 -6613 0
8053 -5893 0
-6733 -6013 0
-8173 6733 6013 0
8173 -6733 0
8173 -6013 0
-6853 -6133 0
-8293 6853 6133 0
8293 -6853 0
8293 -6133 0
-6973 -6253 0
-8413 6973 6253 0
8413 -6973 0
8413 -6253 0
-8533 7093 0
8533 -7093 0
-7933 5773 0
7933 -5773 0
7934 8054 8174 8294 8414 8534 0
-5774 1454 0
-5894 1574 0
-6014 1694 0
-6134 1814 0
-6254 1934 0
-6614 3734 0
-6734 3854 0
-6854 3974 0
-6974 4094 0
-7094 4214 0
-6614 -5894 0
-8054 6614 5894 0
8054 -6614 0
8054 -5894 0
-6734 -6014 0
-8174 6734 6014 0
8174 -6734 0
8174 -6014 0
-6854 -6134 0
-8294 6854 6134 0
8294 -6854 0
8294 -6134 0
-6974 -6254 0
-8414 6974 6254 0
8414 -6974 0
8414 -6254 0
-8534 7094 0
8534 -7094 0
-7934 5774 0
7934 -5774 0
7935 8055 8175 8295 8415 8535 0
-5775 1455 0
-5895 1575 0
-6015 1695 0
-6135 1815 0
-6255 1935 0
-6615 3735 0
-6735 3855 0
-6855 3975 0
-6975 4095 0
-7095 4215 0
-6615 -5895 0
-8055 6615 5895 0
8055 -6615 0
8055 -5895 0
-6735 -6015 0
-8175 6735 6015 0
8175 -6735 0
8175 -6015 0
-6855 -6135 0
-8295 6855 6135 0
8295 -6855 0
8295 -6135 0
-6975 -6255 0
-8415 6975 6255 0
8415 -6975 0
8415 -6255 0
-8535 7095 0
8535 -7095 0
-7935 5775 0
7935 -5775 0
7936 8056 8176 8296 8416 8536 0
-5776 1456 0
-5896 1576 0
-6016 1696 0
-6136 1816 0
-6256 1936 0
-6616 3736 0
-6736 3856 0
-6856 3976 0
-6976 4096 0
-7096 4216 0
-6616 -5896 0
-8056 6616 5896 0
8056 -6616 0
8056 -5896 0
-6736 -6016 0
-8176 6736 6016 0
8176 -6736 0
8176 -6016 0
-6856 -6136 0
-8296 6856 6136 0
8296 -6856 0
8296 -6136 0
-6976 -6256 0
-8416 6976 6256 0
8416 -6976 0
8416 -6256 0
-8536 7096 0
8536 -7096 0
-7936 5776 0
7936 -5776 0
7937 8057 8177 8297 8417 8537 0
-5777 1457 0
-5897 1577 0
-6017 1697 0
-6137 1817 0
-6257 1937 0
-6617 3737 0
-6737 3857 0
-6857 3977 0
-6977 4097 0
-7097 4217 0
-6617 -5897 0
-8057 6617 5897 0
8057 -6617 0
8057 -5897 0
-6737 -6017 0
-8177 6737 6017 0
8177 -6737 0
8177 -6017 0
-6857 -6137 0
-8297 6857 6137 0
8297 -6857 0
8297 -6137 0
-6977 -6257 0
-8417 6977 6257 0
8417 -6977 0
8417 -6257 0
-8537 7097 0
8537 -7097 0
-7937 5777 0
7937 -5777 0
7938 8058 8178 8298 8418 8538 0
-5778 1458 0
-5898 1578 0
-6018 1698 0
-6138 1818 0
-6258 1938 0
-6618 3738 0
-6738 3858 0
-6858 3978 0
-6978 4098 0
-7098 4218 0
-6618 -5898 0
-8058 6618 5898 0
8058 -6618 0
8058 -5898 0
-6738 -6018 0
-8178 6738 6018 0
8178 -6738 0
8178 -6018 0
-6858 -6138 0
-8298 6858 6138 0
8298 -6858 0
8298 -6138 0
-6978 -6258 0
-8418 6978 6258 0
8418 -6978 0
8418 -6258 0
-8538 7098 0
8538 -7098 0
-7938 5778 0
7938 -5778 0
7939 8059 8179 8299 8419 8539 0
-5779 1459 0
-5899 1579 0
-6019 1699 0
-6139 1819 0
-6259 1939 0
-6619 3739 0
-6739 3859 0
-6859 3979 0
-6979 4099 0
-7099 4219 0
-6619 -5899 0
-8059 6619 5899 0
8059 -6619 0
8059 -5899 0
-6739 -6019 0
-8179 6739 6019 0
8179 -6739 0
8179 -6019 0
-6859 -6139 0
-8299 6859 6139 0
8299 -6859 0
8299 -6139 0
-6979 -6259 0
-8419 6979 6259 0
8419 -6979 0
8419 -6259 0
-8539 7099 0
8539 -7099 0
-7939 5779 0
7939 -5779 0
7940 8060 8180 8300 8420 8540 0
-5780 1460 0
-5900 1580 0
-6020 1700 0
-6140 1820 0
-6260 1940 0
-6620 3740 0
-6740 3860 0
-6860 3980 0
-6980 4100 0
-7100 4220 0
-6620 -5900 0
-8060 6620 5900 0
8060 -6620 0
8060 -5900 0
-6740 -6020 0
-8180 6740 6020 0
8180 -6740 0
8180 -6020 0
-6860 -6140 0
-8300 6860 6140 0
8300 -6860 0
8300 -6140 0
-6980 -6260 0
-8420 6980 6260 0
8420 -6980 0
8420 -6260 0
-8540 7100 0
8540 -7100 0
-7940 5780 0
7940 -5780 0
7941 8061 8181 8301 8421 8541 0
-5781 1461 0
-5901 1581 0
-6021 1701 0
-6141 1821 0
-6261 1941 0
-6621 3741 0
-6741 3861 0
-6861 3981 0
-6981 4101 0
-7101 4221 0
-6621 -5901 0
-8061 6621 5901 0
8061 -6621 0
8061 -5901 0
-6741 -6021 0
-8181 6741 6021 0
8181 -6741 0
8181 -6021 0
-6861 -6141 0
-8301 6861 6141 0
8301 -6861 0
8301 -6141 0
-6981 -6261 0
-8421 6981 6261 0
8421 -6981 0
8421 -6261 0
-8541 7101 0
8541 -7101 0
-7941 5781 0
7941 -5781 0
7942 8062 8182 8302 8422 8542 0
-5782 1462 0
-5902 1582 0
-6022 1702 0
-6142 1822 0
-6262 1942 0
-6622 3742 0
-6742 3862 0
-6862 3982 0
-6982 4102 0
-7102 4222 0
-6622 -5902 0
-8062 6622 5902 0
8062 -6622 0
8062 -5902 0
-6742 -6022 0
-8182 6742 6022 0
8182 -6742 0
8182 -6022 0
-6862 -6142 0
-8302 6862 6142 0
8302 -6862 0
8302 -6142 0
-6982 -6262 0
-8422 6982 6262 0
8422 -6982 0
8422 -6262 0
-8542 7102 0
8542 -7102 0
-7942 5782 0
7942 -5782 0
7943 8063 8183 8303 8423 8543 0
-5783 1463 0
-5903 1583 0
-6023 1703 0
-6143 1823 0
-6263 1943 0
-6623 3743 0
-6743 3863 0
-6863 3983 0
-6983 4103 0
-7103 4223 0
-6623 -5903 0
-8063 6623 5903 0
8063 -6623 0
8063 -5903 0
-6743 -6023 0
-8183 6743 6023 0
8183 -6743 0
8183 -6023 0
-6863 -6143 0
-8303 6863 6143 0
8303 -6863 0
8303 -6143 0
-6983 -6263 0
-8423 6983 6263 0
8423 -6983 0
8423 -6263 0
-8543 7103 0
8543 -7103 0
-7943 5783 0
7943 -5783 0
7944 8064 8184 8304 8424 8544 0
-5784 1464 0
-5904 1584 0
-6024 1704 0
-6144 1824 0
-6264 1944 0
-6624 3744 0
-6744 3864 0
-6864 3984 0
-6984 4104 0
-7104 4224 0
-6624 -5904 0
-8064 6624 5904 0
8064 -6624 0
8064 -5904 0
-6744 -6024 0
-8184 6744 6024 0
8184 -6744 0
8184 -6024 0
-6864 -6144 0
-8304 6864 6144 0
8304 -6864 0
8304 -6144 0
-6984 -6264 0
-8424 6984 6264 0
8424 -6984 0
8424 -6264 0
-8544 7104 0
8544 -7104 0
-7944 5784 0
7944 -5784 0
7945 8065 8185 8305 8425 8545 0
-5785 1465 0
-5905 1585 0
-6025 1705 0
-6145 1825 0
-6265 1945 0
-6625 3745 0
-6745 3865 0
-6865 3985 0
-6985 4105 0
-7105 4225 0
-6625 -5905 0
-8065 6625 5905 0
8065 -6625 0
8065 -5905 0
-6745 -6025 0
-8185 6745 6025 0
8185 -6745 0
8185 -6025 0
-6865 -6145 0
-8305 6865 6145 0
8305 -6865 0
8305 -6145 0
-6985 -6265 0
-8425 6985 6265 0
8425 -6985 0
8425 -6265 0
-8545 7105 0
8545 -7105 0
-7945 5785 0
7945 -5785 0
7946 8066 8186 8306 8426 8546 0
-5786 1466 0
-5906 1586 0
-6026 1706 0
-6146 1826 0
-6266 1946 0
-6626 3746 0
-6746 3866 0
-6866 3986 0
-6986 4106 0
-7106 4226 0
-6626 -5906 0
-8066 6626 5906 0
8066 -6626 0
8066 -5906 0
-6746 -6026 0
-8186 6746 6026 0
8186 -6746 0
8186 -6026 0
-6866 -6146 0
-8306 6866 6146 0
8306 -6866 0
8306 -6146 0
-6986 -6266 0
-8426 6986 6266 0
8426 -6986 0
8426 -6266 0
-8546 7106 0
8546 -7106 0
-7946 5786 0
7946 -5786 0
7947 8067 8187 8307 8427 8547 0
-5787 1467 0
-5907 1587 0
-6027 1707 0
-6147 1827 0
-6267 1947 0
-6627 3747 0
-6747 3867 0
-6867 3987 0
-6987 4107 0
-7107 4227 0
-6627 -5907 0
-8067 6627 5907 0
8067 -6627 0
8067 -5907 0
-6747 -6027 0
-8187 6747 6027 0
8187 -6747 0
8187 -6027 0
-6867 -6147 0
-8307 6867 6147 0
8307 -6867 0
8307 -6147 0
-6987 -6267 0
-8427 6987 6267 0
8427 -6987 0
8427 -6267 0
-8547 7107 0
8547 -7107 0
-7947 5787 0
7947 -5787 0
7948 8068 8188 8308 8428 8548 0
-5788 1468 0
-5908 1588 0
-6028 1708 0
-6148 1828 0
-6268 1948 0
-6628 3748 0
-6748 3868 0
-6868 3988 0
-6988 4108 0
-7108 4228 0
-6628 -5908 0
-8068 6628 5908 0
8068 -6628 0
8068 -5908 0
-6748 -6028 0
-8188 6748 6028 0
8188 -6748 0
8188 -6028 0
-6868 -6148 0
-8308 6868 6148 0
8308 -6868 0
8308 -6148 0
-6988 -6268 0
-8428 6988 6268 0
8428 -6988 0
8428 -6268 0
-8548 7108 0
8548 -7108 0
-7948 5788 0
7948 -5788 0
7949 8069 8189 8309 8429 8549 0
-5789 1469 0
-5909 1589 0
-6029 1709 0
-6149 1829 0
-6269 1949 0
-6629 3749 0
-6749 3869 0
-6869 3989 0
-6989 4109 0
-7109 4229 0
-6629 -5909 0
-8069 6629 5909 0
8069 -6629 0
8069 -5909 0
-6749 -6029 0
-8189 6749 6029 0
8189 -6749 0
8189 -6029 0
-6869 -6149 0
-8309 6869 6149 0
8309 -6869 0
8309 -6149 0
-6989 -6269 0
-8429 6989 6269 0
8429 -6989 0
8429 -6269 0
-8549 7109 0
8549 -7109 0
-7949 5789 0
7949 -5789 0
7950 8070 8190 8310 8430 8550 0
-5790 1470 0
-5910 1590 0
-6030 1710 0
-6150 1830 0
-6270 1950 0
-6630 3750 0
-6750 3870 0
-6870 3990 0
-6990 4110 0
-7110 4230 0
-6630 -5910 0
-8070 6630 5910 0
8070 -6630 0
8070 -5910 0
-6750 -6030 0
-8190 6750 6030 0
8190 -6750 0
8190 -6030 0
-6870 -6150 0
-8310 6870 6150 0
8310 -6870 0
8310 -6150 0
-6990 -6270 0
-8430 6990 6270 0
8430 -6990 0
8430 -6270 0
-8550 7110 0
8550 -7110 0
-7950 5790 0
7950 -5790 0
7951 8071 8191 8311 8431 8551 0
-5791 1471 0
-5911 1591 0
-6031 1711 0
-6151 1831 0
-6271 1951 0
-6631 3751 0
-6751 3871 0
-6871 3991 0
-6991 4111 0
-7111 4231 0
-6631 -5911 0
-8071 6631 5911 0
8071 -6631 0
8071 -5911 0
-6751 -6031 0
-8191 6751 6031 0
8191 -6751 0
8191 -6031 0
-6871 -6151 0
-8311 6871 6151 0
8311 -6871 0
8311 -6151 0
-6991 -6271 0
-8431 6991 6271 0
8431 -6991 0
8431 -6271 0
-8551 7111 0
8551 -7111 0
-7951 5791 0
7951 -5791 0
7952 8072 8192 8312 8432 8552 0
-5792 1472 0
-5912 1592 0
-6032 1712 0
-6152 1832 0
-6272 1952 0
-6632 3752 0
-6752 3872 0
-6872 3992 0
-6992 4112 0
-7112 4232 0
-6632 -5912 0
-8072 6632 5912 0
8072 -6632 0
8072 -5912 0
-6752 -6032 0
-8192 6752 6032 0
8192 -6752 0
8192 -6032 0
-6872 -6152 0
-8312 6872 6152 0
8312 -6872 0
8312 -6152 0
-6992 -6272 0
-8432 6992 6272 0
8432 -6992 0
8432 -6272 0
-8552 7112 0
8552 -7112 0
-7952 5792 0
7952 -5792 0
7953 8073 8193 8313 8433 8553 0
-5793 1473 0
-5913 1593 0
-6033 1713 0
-6153 1833 0
-6273 1953 0
-6633 3753 0
-6753 3873 0
-6873 3993 0
-6993 4113 0
-7113 4233 0
-6633 -5913 0
-8073 6633 5913 0
8073 -6633 0
8073 -5913 0
-6753 -6033 0
-8193 6753 6033 0
8193 -6753 0
8193 -6033 0
-6873 -6153 0
-8313 6873 6153 0
8313 -6873 0
8313 -6153 0
-6993 -6273 0
-8433 6993 6273 0
8433 -6993 0
8433 -6273 0
-8553 7113 0
8553 -7113 0
-7953 5793 0
7953 -5793 0
7954 8074 8194 8314 8434 8554 0
-5794 1474 0
-5914 1594 0
-6034 1714 0
-6154 1834 0
-6274 1954 0
-6634 3754 0
-6754 3874 0
-6874 3994 0
-6994 4114 0
-7114 4234 0
-6634 -5914 0
-8074 6634 5914 0
8074 -6634 0
8074 -5914 0
-6754 -6034 0
-8194 6754 6034 0
8194 -6754 0
8194 -6034 0
-6874 -6154 0
-8314 6874 6154 0
8314 -6874 0
8314 -6154 0
-6994 -6274 0
-8434 6994 6274 0
8434 -6994 0
8434 -6274 0
-8554 7114 0
8554 -7114 0
-7954 5794 0
7954 -5794 0
7955 8075 8195 8315 8435 8555 0
-5795 1475 0
-5915 1595 0
-6035 1715 0
-6155 1835 0
-6275 1955 0
-6635 3755 0
-6755 3875 0
-6875 3995 0
-6995 4115 0
-7115 4235 0
-6635 -5915 0
-8075 6635 5915 0
8075 -6635 0
8075 -5915 0
-6755 -6035 0
-8195 6755 6035 0
8195 -6755 0
8195 -6035 0
-6875 -6155 0
-8315 6875 6155 0
8315 -6875 0
8315 -6155 0
-6995 -6275 0
-8435 6995 6275 0
8435 -6995 0
8435 -6275 0
-8555 7115 0
8555 -7115 0
-7955 5795 0
7955 -5795 0
7956 8076 8196 8316 8436 8556 0
-5796 1476 0
-5916 1596 0
-6036 1716 0
-6156 1836 0
-6276 1956 0
-6636 3756 0
-6756 3876 0
-6876 3996 0
-6996 4116 0
-7116 4236 0
-6636 -5916 0
-8076 6636 5916 0
8076 -6636 0
8076 -5916 0
-6756 -6036 0
-8196 6756 6036 0
8196 -6756 0
8196 -6036 0
-6876 -6156 0
-8316 6876 6156 0
8316 -6876 0
8316 -6156 0
-6996 -6276 0
-8436 6996 6276 0
8436 -6996 0
8436 -6276 0
-8556 7116 0
8556 -7116 0
-7956 5796 0
7956 -5796 0
7957 8077 8197 8317 8437 8557 0
-5797 1477 0
-5917 1597 0
-6037 1717 0
-6157 1837 0
-6277 1957 0
-6637 3757 0
-6757 3877 0
-6877 3997 0
-6997 4117 0
-7117 4237 0
-6637 -5917 0
-8077 6637 5917 0
8077 -6637 0
8077 -5917 0
-6757 -6037 0
-8197 6757 6037 0
8197 -6757 0
8197 -6037 0
-6877 -6157 0
-8317 6877 6157 0
8317 -6877 0
8317 -6157 0
-6997 -6277 0
-8437 6997 6277 0
8437 -6997 0
8437 -6277 0
-8557 7117 0
8557 -7117 0
-7957 5797 0
7957 -5797 0
7958 8078 8198 8318 8438 8558 0
-5798 1478 0
-5918 1598 0
-6038 1718 0
-6158 1838 0
-6278 1958 0
-6638 3758 0
-6758 3878 0
-6878 3998 0
-6998 4118 0
-7118 4238 0
-6638 -5918 0
-8078 6638 5918 0
8078 -6638 0
8078 -5918 0
-6758 -6038 0
-8198 6758 6038 0
8198 -6758 0
8198 -6038 0
-6878 -6158 0
-8318 6878 6158 0
8318 -6878 0
8318 -6158 0
-6998 -6278 0
-8438 6998 6278 0
8438 -6998 0
8438 -6278 0
-8558 7118 0
8558 -7118 0
-7958 5798 0
7958 -5798 0
7959 8079 8199 8319 8439 8559 0
-5799 1479 0
-5919 1599 0
-6039 1719 0
-6159 1839 0
-6279 1959 0
-6639 3759 0
-6759 3879 0
-6879 3999 0
-6999 4119 0
-7119 4239 0
-6639 -5919 0
-8079 6639 5919 0
8079 -6639 0
8079 -5919 0
-6759 -6039 0
-8199 6759 6039 0
8199 -6759 0
8199 -6039 0
-6879 -6159 0
-8319 6879 6159 0
8319 -6879 0
8319 -6159 0
-6999 -6279 0
-8439 6999 6279 0
8439 -6999 0
8439 -6279 0
-8559 7119 0
8559 -7119 0
-7959 5799 0
7959 -5799 0
7960 8080 8200 8320 8440 8560 0
-5800 1480 0
-5920 1600 0
-6040 1720 0
-6160 1840 0
-6280 1960 0
-6640 3760 0
-6760 3880 0
-6880 4000 0
-7000 4120 0
-7120 4240 0
-6640 -5920 0
-8080 6640 5920 0
8080 -6640 0
8080 -5920 0
-6760 -6040 0
-8200 6760 6040 0
8200 -6760 0
8200 -6040 0
-6880 -6160 0
-8320 6880 6160 0
8320 -6880 0
8320 -6160 0
-7000 -6280 0
-8440 7000 6280 0
8440 -7000 0
8440 -6280 0
-8560 7120 0
8560 -7120 0
-7960 5800 0
7960 -5800 0
7961 8081 8201 8321 8441 8561 0
-5801 1481 0
-5921 1601 0
-6041 1721 0
-6161 1841 0
-6281 1961 0
-6641 3761 0
-6761 3881 0
-6881 4001 0
-7001 4121 0
-7121 4241 0
-6641 -5921 0
-8081 6641 5921 0
8081 -6641 0
8081 -5921 0
-6761 -6041 0
-8201 6761 6041 0
8201 -6761 0
8201 -6041 0
-6881 -6161 0
-8321 6881 6161 0
8321 -6881 0
8321 -6161 0
-7001 -6281 0
-8441 7001 6281 0
8441 -7001 0
8441 -6281 0
-8561 7121 0
8561 -7121 0
-7961 5801 0
7961 -5801 0
7962 8082 8202 8322 8442 8562 0
-5802 1482 0
-5922 1602 0
-6042 1722 0
-6162 1842 0
-6282 1962 0
-6642 3762 0
-6762 3882 0
-6882 4002 0
-7002 4122 0
-7122 4242 0
-6642 -5922 0
-8082 6642 5922 0
8082 -6642 0
8082 -5922 0
-6762 -6042 0
-8202 6762 6042 0
8202 -6762 0
8202 -6042 0
-6882 -6162 0
-8322 6882 6162 0
8322 -6882 0
8322 -6162 0
-7002 -6282 0
-8442 7002 6282 0
8442 -7002 0
8442 -6282 0
-8562 7122 0
8562 -7122 0
-7962 5802 0
7962 -5802 0
7963 8083 8203 8323 8443 8563 0
-5803 1483 0
-5923 1603 0
-6043 1723 0
-6163 1843 0
-6283 1963 0
-6643 3763 0
-6763 3883 0
-6883 4003 0
-7003 4123 0
-7123 4243 0
-6643 -5923 0
-8083 6643 5923 0
8083 -6643 0
8083 -5923 0
-6763 -6043 0
-8203 6763 6043 0
8203 -6763 0
8203 -6043 0
-6883 -6163 0
-8323 6883 6163 0
8323 -6883 0
8323 -6163 0
-7003 -6283 0
-8443 7003 6283 0
8443 -7003 0
8443 -6283 0
-8563 7123 0
8563 -7123 0
-7963 5803 0
7963 -5803 0
7964 8084 8204 8324 8444 8564 0
-5804 1484 0
-5924 1604 0
-6044 1724 0
-6164 1844 0
-6284 1964 0
-6644 3764 0
-6764 3884 0
-6884 4004 0
-7004 4124 0
-7124 4244 0
-6644 -5924 0
-8084 6644 5924 0
8084 -6644 0
8084 -5924 0
-6764 -6044 0
-8204 6764 6044 0
8204 -6764 0
8204 -6044 0
-6884 -6164 0
-8324 6884 6164 0
8324 -6884 0
8324 -6164 0
-7004 -6284 0
-8444 7004 6284 0
8444 -7004 0
8444 -6284 0
-8564 7124 0
8564 -7124 0
-7964 5804 0
7964 -5804 0
7965 8085 8205 8325 8445 8565 0
-5805 1485 0
-5925 1605 0
-6045 1725 0
-6165 1845 0
-6285 1965 0
-6645 3765 0
-6765 3885 0
-6885 4005 0
-7005 4125 0
-7125 4245 0
-6645 -5925 0
-8085 6645 5925 0
8085 -6645 0
8085 -5925 0
-6765 -6045 0
-8205 6765 6045 0
8205 -6765 0
8205 -6045 0
-6885 -6165 0
-8325 6885 6165 0
8325 -6885 0
8325 -6165 0
-7005 -6285 0
-8445 7005 6285 0
8445 -7005 0
8445 -6285 0
-8565 7125 0
8565 -7125 0
-7965 5805 0
7965 -5805 0
7966 8086 8206 8326 8446 8566 0
-5806 1486 0
-5926 1606 0
-6046 1726 0
-6166 1846 0
-6286 1966 0
-6646 3766 0
-6766 3886 0
-6886 4006 0
-7006 4126 0
-7126 4246 0
-6646 -5926 0
-8086 6646 5926 0
8086 -6646 0
8086 -5926 0
-6766 -6046 0
-8206 6766 6046 0
8206 -6766 0
8206 -6046 0
-6886 -6166 0
-8326 6886 6166 0
8326 -6886 0
8326 -6166 0
-7006 -6286 0
-8446 7006 6286 0
8446 -7006 0
8446 -6286 0
-8566 7126 0
8566 -7126 0
-7966 5806 0
7966 -5806 0
7967 8087 8207 8327 8447 8567 0
-5807 1487 0
-5927 1607 0
-6047 1727 0
-6167 1847 0
-6287 1967 0
-6647 3767 0
-6767 3887 0
-6887 4007 0
-7007 4127 0
-7127 4247 0
-6647 -5927 0
-8087 6647 5927 0
8087 -6647 0
8087 -5927 0
-6767 -6047 0
-8207 6767 6047 0
8207 -6767 0
8207 -6047 0
-6887 -6167 0
-8327 6887 6167 0
8327 -6887 0
8327 -6167 0
-7007 -6287 0
-8447 7007 6287 0
8447 -7007 0
8447 -6287 0
-8567 7127 0
8567 -7127 0
-7967 5807 0
7967 -5807 0
7968 8088 8208 8328 8448 8568 0
-5808 1488 0
-5928 1608 0
-6048 1728 0
-6168 1848 0
-6288 1968 0
-6648 3768 0
-6768 3888 0
-6888 4008 0
-7008 4128 0
-7128 4248 0
-6648 -5928 0
-8088 6648 5928 0
8088 -6648 0
8088 -5928 0
-6768 -6048 0
-8208 6768 6048 0
8208 -6768 0
8208 -6048 0
-6888 -6168 0
-8328 6888 6168 0
8328 -6888 0
8328 -6168 0
-7008 -6288 0
-8448 7008 6288 0
8448 -7008 0
8448 -6288 0
-8568 7128 0
8568 -7128 0
-7968 5808 0
7968 -5808 0
7969 8089 8209 8329 8449 8569 0
-5809 1489 0
-5929 1609 0
-6049 1729 0
-6169 1849 0
-6289 1969 0
-6649 3769 0
-6769 3889 0
-6889 4009 0
-7009 4129 0
-7129 4249 0
-6649 -5929 0
-8089 6649 5929 0
8089 -6649 0
8089 -5929 0
-6769 -6049 0
-8209 6769 6049 0
8209 -6769 0
8209 -6049 0
-6889 -6169 0
-8329 6889 6169 0
8329 -6889 0
8329 -6169 0
-7009 -6289 0
-8449 7009 6289 0
8449 -7009 0
8449 -6289 0
-8569 7129 0
8569 -7129 0
-7969 5809 0
7969 -5809 0
7970 8090 8210 8330 8450 8570 0
-5810 1490 0
-5930 1610 0
-6050 1730 0
-6170 1850 0
-6290 1970 0
-6650 3770 0
-6770 3890 0
-6890 4010 0
-7010 4130 0
-7130 4250 0
-6650 -5930 0
-8090 6650 5930 0
8090 -6650 0
8090 -5930 0
-6770 -6050 0
-8210 6770 6050 0
8210 -6770 0
8210 -6050 0
-6890 -6170 0
-8330 6890 6170 0
8330 -6890 0
8330 -6170 0
-7010 -6290 0
-8450 7010 6290 0
8450 -7010 0
8450 -6290 0
-8570 7130 0
8570 -7130 0
-7970 5810 0
7970 -5810 0
7971 8091 8211 8331 8451 8571 0
-5811 1491 0
-5931 1611 0
-6051 1731 0
-6171 1851 0
-6291 1971 0
-6651 3771 0
-6771 3891 0
-6891 4011 0
-7011 4131 0
-7131 4251 0
-6651 -5931 0
-8091 6651 5931 0
8091 -6651 0
8091 -5931 0
-6771 -6051 0
-8211 6771 6051 0
8211 -6771 0
8211 -6051 0
-6891 -6171 0
-8331 6891 6171 0
8331 -6891 0
8331 -6171 0
-7011 -6291 0
-8451 7011 6291 0
8451 -7011 0
8451 -6291 0
-8571 7131 0
8571 -7131 0
-7971 5811 0
7971 -5811 0
7972 8092 8212 8332 8452 8572 0
-5812 1492 0
-5932 1612 0
-6052 1732 0
-6172 1852 0
-6292 1972 0
-6652 3772 0
-6772 3892 0
-6892 4012 0
-7012 4132 0
-7132 4252 0
-6652 -5932 0
-8092 6652 5932 0
8092 -6652 0
8092 -5932 0
-6772 -6052 0
-8212 6772 6052 0
8212 -6772 0
8212 -6052 0
-6892 -6172 0
-8332 6892 6172 0
8332 -6892 0
8332 -6172 0
-7012 -6292 0
-8452 7012 6292 0
8452 -7012 0
8452 -6292 0
-8572 7132 0
8572 -7132 0
-7972 5812 0
7972 -5812 0
7973 8093 8213 8333 8453 8573 0
-5813 1493 0
-5933 1613 0
-6053 1733 0
-6173 1853 0
-6293 1973 0
-6653 3773 0
-6773 3893 0
-6893 4013 0
-7013 4133 0
-7133 4253 0
-6653 -5933 0
-8093 6653 5933 0
8093 -6653 0
8093 -5933 0
-6773 -6053 0
-8213 6773 6053 0
8213 -6773 0
8213 -6053 0
-6893 -6173 0
-8333 6893 6173 0
8333 -6893 0
8333 -6173 0
-7013 -6293 0
-8453 7013 6293 0
8453 -7013 0
8453 -6293 0
-8573 7133 0
8573 -7133 0
-7973 5813 0
7973 -5813 0
7974 8094 8214 8334 8454 8574 0
-5814 1494 0
-5934 1614 0
-6054 1734 0
-6174 1854 0
-6294 1974 0
-6654 3774 0
-6774 3894 0
-6894 4014 0
-7014 4134 0
-7134 4254 0
-6654 -5934 0
-8094 6654 5934 0
8094 -6654 0
8094 -5934 0
-6774 -6054 0
-8214 6774 6054 0
8214 -6774 0
8214 -6054 0
-6894 -6174 0
-8334 6894 6174 0
8334 -6894 0
8334 -6174 0
-7014 -6294 0
-8454 7014 6294 0
8454 -7014 0
8454 -6294 0
-8574 7134 0
8574 -7134 0
-7974 5814 0
7974 -5814 0
7975 8095 8215 8335 8455 8575 0
-5815 1495 0
-5935 1615 0
-6055 1735 0
-6175 1855 0
-6295 1975 0
-6655 3775 0
-6775 3895 0
-6895 4015 0
-7015 4135 0
-7135 4255 0
-6655 -5935 0
-8095 6655 5935 0
8095 -6655 0
8095 -5935 0
-6775 -6055 0
-8215 6775 6055 0
8215 -6775 0
8215 -6055 0
-6895 -6175 0
-8335 6895 6175 0
8335 -6895 0
8335 -6175 0
-7015 -6295 0
-8455 7015 6295 0
8455 -7015 0
8455 -6295 0
-8575 7135 0
8575 -7135 0
-7975 5815 0
7975 -5815 0
7976 8096 8216 8336 8456 8576 0
-5816 1496 0
-5936 1616 0
-6056 1736 0
-6176 1856 0
-6296 1976 0
-6656 3776 0
-6776 3896 0
-6896 4016 0
-7016 4136 0
-7136 4256 0
-6656 -5936 0
-8096 6656 5936 0
8096 -6656 0
8096 -5936 0
-6776 -6056 0
-8216 6776 6056 0
8216 -6776 0
8216 -6056 0
-6896 -6176 0
-8336 6896 6176 0
8336 -6896 0
8336 -6176 0
-7016 -6296 0
-8456 7016 6296 0
8456 -7016 0
8456 -6296 0
-8576 7136 0
8576 -7136 0
-7976 5816 0
7976 -5816 0
7977 8097 8217 8337 8457 8577 0
-5817 1497 0
-5937 1617 0
-6057 1737 0
-6177 1857 0
-6297 1977 0
-6657 3777 0
-6777 3897 0
-6897 4017 0
-7017 4137 0
-7137 4257 0
-6657 -5937 0
-8097 6657 5937 0
8097 -6657 0
8097 -5937 0
-6777 -6057 0
-8217 6777 6057 0
8217 -6777 0
8217 -6057 0
-6897 -6177 0
-8337 6897 6177 0
8337 -6897 0
8337 -6177 0
-7017 -6297 0
-8457 7017 6297 0
8457 -7017 0
8457 -6297 0
-8577 7137 0
8577 -7137 0
-7977 5817 0
7977 -5817 0
7978 8098 8218 8338 8458 8578 0
-5818 1498 0
-5938 1618 0
-6058 1738 0
-6178 1858 0
-6298 1978 0
-6658 3778 0
-6778 3898 0
-6898 4018 0
-7018 4138 0
-7138 4258 0
-6658 -5938 0
-8098 6658 5938 0
8098 -6658 0
8098 -5938 0
-6778 -6058 0
-8218 6778 6058 0
8218 -6778 0
8218 -6058 0
-6898 -6178 0
-8338 6898 6178 0
8338 -6898 0
8338 -6178 0
-7018 -6298 0
-8458 7018 6298 0
8458 -7018 0
8458 -6298 0
-8578 7138 0
8578 -7138 0
-7978 5818 0
7978 -5818 0
7979 8099 8219 8339 8459 8579 0
-5819 1499 0
-5939 1619 0
-6059 1739 0
-6179 1859 0
-6299 1979 0
-6659 3779 0
-6779 3899 0
-6899 4019 0
-7019 4139 0
-7139 4259 0
-6659 -5939 0
-8099 6659 5939 0
8099 -6659 0
8099 -5939 0
-6779 -6059 0
-8219 6779 6059 0
8219 -6779 0
8219 -6059 0
-6899 -6179 0
-8339 6899 6179 0
8339 -6899 0
8339 -6179 0
-7019 -6299 0
-8459 7019 6299 0
8459 -7019 0
8459 -6299 0
-8579 7139 0
8579 -7139 0
-7979 5819 0
7979 -5819 0
7980 8100 8220 8340 8460 8580 0
-5820 1500 0
-5940 1620 0
-6060 1740 0
-6180 1860 0
-6300 1980 0
-6660 3780 0
-6780 3900 0
-6900 4020 0
-7020 4140 0
-7140 4260 0
-6660 -5940 0
-8100 6660 5940 0
8100 -6660 0
8100 -5940 0
-6780 -6060 0
-8220 6780 6060 0
8220 -6780 0
8220 -6060 0
-6900 -6180 0
-8340 6900 6180 0
8340 -6900 0
8340 -6180 0
-7020 -6300 0
-8460 7020 6300 0
8460 -7020 0
8460 -6300 0
-8580 7140 0
8580 -7140 0
-7980 5820 0
7980 -5820 0
7981 8101 8221 8341 8461 8581 0
-5821 1501 0
-5941 1621 0
-6061 1741 0
-6181 1861 0
-6301 1981 0
-6661 3781 0
-6781 3901 0
-6901 4021 0
-7021 4141 0
-7141 4261 0
-6661 -5941 0
-8101 6661 5941 0
8101 -6661 0
8101 -5941 0
-6781 -6061 0
-8221 6781 6061 0
8221 -6781 0
8221 -6061 0
-6901 -6181 0
-8341 6901 6181 0
8341 -6901 0
8341 -6181 0
-7021 -6301 0
-8461 7021 6301 0
8461 -7021 0
8461 -6301 0
-8581 7141 0
8581 -7141 0
-7981 5821 0
7981 -5821 0
7982 8102 8222 8342 8462 8582 0
-5822 1502 0
-5942 1622 0
-6062 1742 0
-6182 1862 0
-6302 1982 0
-6662 3782 0
-6782 3902 0
-6902 4022 0
-7022 4142 0
-7142 4262 0
-6662 -5942 0
-8102 6662 5942 0
8102 -6662 0
8102 -5942 0
-6782 -6062 0
-8222 6782 6062 0
8222 -6782 0
8222 -6062 0
-6902 -6182 0
-8342 6902 6182 0
8342 -6902 0
8342 -6182 0
-7022 -6302 0
-8462 7022 6302 0
8462 -7022 0
8462 -6302 0
-8582 7142 0
8582 -7142 0
-7982 5822 0
7982 -5822 0
7983 8103 8223 8343 8463 8583 0
-5823 1503 0
-5943 1623 0
-6063 1743 0
-6183 1863 0
-6303 1983 0
-6663 3783 0
-6783 3903 0
-6903 4023 0
-7023 4143 0
-7143 4263 0
-6663 -5943 0
-8103 6663 5943 0
8103 -6663 0
8103 -5943 0
-6783 -6063 0
-8223 6783 6063 0
8223 -6783 0
8223 -6063 0
-6903 -6183 0
-8343 6903 6183 0
8343 -6903 0
8343 -6183 0
-7023 -6303 0
-8463 7023 6303 0
8463 -7023 0
8463 -6303 0
-8583 7143 0
8583 -7143 0
-7983 5823 0
7983 -5823 0
7984 8104 8224 8344 8464 8584 0
-5824 1504 0
-5944 1624 0
-6064 1744 0
-6184 1864 0
-6304 1984 0
-6664 3784 0
-6784 3904 0
-6904 4024 0
-7024 4144 0
-7144 4264 0
-6664 -5944 0
-8104 6664 5944 0
8104 -6664 0
8104 -5944 0
-6784 -6064 0
-8224 6784 6064 0
8224 -6784 0
8224 -6064 0
-6904 -6184 0
-8344 6904 6184 0
8344 -6904 0
8344 -6184 0
-7024 -6304 0
-8464 7024 6304 0
8464 -7024 0
8464 -6304 0
-8584 7144 0
8584 -7144 0
-7984 5824 0
7984 -5824 0
7985 8105 8225 8345 8465 8585 0
-5825 1505 0
-5945 1625 0
-6065 1745 0
-6185 1865 0
-6305 1985 0
-6665 3785 0
-6785 3905 0
-6905 4025 0
-7025 4145 0
-7145 4265 0
-6665 -5945 0
-8105 6665 5945 0
8105 -6665 0
8105 -5945 0
-6785 -6065 0
-8225 6785 6065 0
8225 -6785 0
8225 -6065 0
-6905 -6185 0
-8345 6905 6185 0
8345 -6905 0
8345 -6185 0
-7025 -6305 0
-8465 7025 6305 0
8465 -7025 0
8465 -6305 0
-8585 7145 0
8585 -7145 0
-7985 5825 0
7985 -5825 0
7986 8106 8226 8346 8466 8586 0
-5826 1506 0
-5946 1626 0
-6066 1746 0
-6186 1866 0
-6306 1986 0
-6666 3786 0
-6786 3906 0
-6906 4026 0
-7026 4146 0
-7146 4266 0
-6666 -5946 0
-8106 6666 5946 0
8106 -6666 0
8106 -5946 0
-6786 -6066 0
-8226 6786 6066 0
8226 -6786 0
8226 -6066 0
-6906 -6186 0
-8346 6906 6186 0
8346 -6906 0
8346 -6186 0
-7026 -6306 0
-8466 7026 6306 0
8466 -7026 0
8466 -6306 0
-8586 7146 0
8586 -7146 0
-7986 5826 0
7986 -5826 0
7987 8107 8227 8347 8467 8587 0
-5827 1507 0
-5947 1627 0
-6067 1747 0
-6187 1867 0
-6307 1987 0
-6667 3787 0
-6787 3907 0
-6907 4027 0
-7027 4147 0
-7147 4267 0
-6667 -5947 0
-8107 6667 5947 0
8107 -6667 0
8107 -5947 0
-6787 -6067 0
-8227 6787 6067 0
8227 -6787 0
8227 -6067 0
-6907 -6187 0
-8347 6907 6187 0
8347 -6907 0
8347 -6187 0
-7027 -6307 0
-8467 7027 6307 0
8467 -7027 0
8467 -6307 0
-8587 7147 0
8587 -7147 0
-7987 5827 0
7987 -5827 0
7988 8108 8228 8348 8468 8588 0
-5828 1508 0
-5948 1628 0
-6068 1748 0
-6188 1868 0
-6308 1988 0
-6668 3788 0
-6788 3908 0
-6908 4028 0
-7028 4148 0
-7148 4268 0
-6668 -5948 0
-8108 6668 5948 0
8108 -6668 0
8108 -5948 0
-6788 -6068 0
-8228 6788 6068 0
8228 -6788 0
8228 -6068 0
-6908 -6188 0
-8348 6908 6188 0
8348 -6908 0
8348 -6188 0
-7028 -6308 0
-8468 7028 6308 0
8468 -7028 0
8468 -6308 0
-8588 7148 0
8588 -7148 0
-7988 5828 0
7988 -5828 0
7989 8109 8229 8349 8469 8589 0
-5829 1509 0
-5949 1629 0
-6069 1749 0
-6189 1869 0
-6309 1989 0
-6669 3789 0
-6789 3909 0
-6909 4029 0
-7029 4149 0
-7149 4269 0
-6669 -5949 0
-8109 6669 5949 0
8109 -6669 0
8109 -5949 0
-6789 -6069 0
-8229 6789 6069 0
8229 -6789 0
8229 -6069 0
-6909 -6189 0
-8349 6909 6189 0
8349 -6909 0
8349 -6189 0
-7029 -6309 0
-8469 7029 6309 0
8469 -7029 0
8469 -6309 0
-8589 7149 0
8589 -7149 0
-7989 5829 0
7989 -5829 0
7990 8110 8230 8350 8470 8590 0
-5830 1510 0
-5950 1630 0
-6070 1750 0
-6190 1870 0
-6310 1990 0
-6670 3790 0
-6790 3910 0
-6910 4030 0
-7030 4150 0
-7150 4270 0
-6670 -5950 0
-8110 6670 5950 0
8110 -6670 0
8110 -5950 0
-6790 -6070 0
-8230 6790 6070 0
8230 -6790 0
8230 -6070 0
-6910 -6190 0
-8350 6910 6190 0
8350 -6910 0
8350 -6190 0
-7030 -6310 0
-8470 7030 6310 0
8470 -7030 0
8470 -6310 0
-8590 7150 0
8590 -7150 0
-7990 5830 0
7990 -5830 0
7991 8111 8231 8351 8471 8591 0
-5831 1511 0
-5951 1631 0
-6071 1751 0
-6191 1871 0
-6311 1991 0
-6671 3791 0
-6791 3911 0
-6911 4031 0
-7031 4151 0
-7151 4271 0
-6671 -5951 0
-8111 6671 5951 0
8111 -6671 0
8111 -5951 0
-6791 -6071 0
-8231 6791 6071 0
8231 -6791 0
8231 -6071 0
-6911 -6191 0
-8351 6911 6191 0
8351 -6911 0
8351 -6191 0
-7031 -6311 0
-8471 7031 6311 0
8471 -7031 0
8471 -6311 0
-8591 7151 0
8591 -7151 0
-7991 5831 0
7991 -5831 0
7992 8112 8232 8352 8472 8592 0
-5832 1512 0
-5952 1632 0
-6072 1752 0
-6192 1872 0
-6312 1992 0
-6672 3792 0
-6792 3912 0
-6912 4032 0
-7032 4152 0
-7152 4272 0
-6672 -5952 0
-8112 6672 5952 0
8112 -6672 0
8112 -5952 0
-6792 -6072 0
-8232 6792 6072 0
8232 -6792 0
8232 -6072 0
-6912 -6192 0
-8352 6912 6192 0
8352 -6912 0
8352 -6192 0
-7032 -6312 0
-8472 7032 6312 0
8472 -7032 0
8472 -6312 0
-8592 7152 0
8592 -7152 0
-7992 5832 0
7992 -5832 0
7993 8113 8233 8353 8473 8593 0
-5833 1513 0
-5953 1633 0
-6073 1753 0
-6193 1873 0
-6313 1993 0
-6673 3793 0
-6793 3913 0
-6913 4033 0
-7033 4153 0
-7153 4273 0
-6673 -5953 0
-8113 6673 5953 0
8113 -6673 0
8113 -5953 0
-6793 -6073 0
-8233 6793 6073 0
8233 -6793 0
8233 -6073 0
-6913 -6193 0
-8353 6913 6193 0
8353 -6913 0
8353 -6193 0
-7033 -6313 0
-8473 7033 6313 0
8473 -7033 0
8473 -6313 0
-8593 7153 0
8593 -7153 0
-7993 5833 0
7993 -5833 0
7994 8114 8234 8354 8474 8594 0
-5834 1514 0
-5954 1634 0
-6074 1754 0
-6194 1874 0
-6314 1994 0
-6674 3794 0
-6794 3914 0
-6914 4034 0
-7034 4154 0
-7154 4274 0
-6674 -5954 0
-8114 6674 5954 0
8114 -6674 0
8114 -5954 0
-6794 -6074 0
-8234 6794 6074 0
8234 -6794 0
8234 -6074 0
-6914 -6194 0
-8354 6914 6194 0
8354 -6914 0
8354 -6194 0
-7034 -6314 0
-8474 7034 6314 0
8474 -7034 0
8474 -6314 0
-8594 7154 0
8594 -7154 0
-7994 5834 0
7994 -5834 0
7995 8115 8235 8355 8475 8595 0
-5835 1515 0
-5955 1635 0
-6075 1755 0
-6195 1875 0
-6315 1995 0
-6675 3795 0
-6795 3915 0
-6915 4035 0
-7035 4155 0
-7155 4275 0
-6675 -5955 0
-8115 6675 5955 0
8115 -6675 0
8115 -5955 0
-6795 -6075 0
-8235 6795 6075 0
8235 -6795 0
8235 -6075 0
-6915 -6195 0
-8355 6915 6195 0
8355 -6915 0
8355 -6195 0
-7035 -6315 0
-8475 7035 6315 0
8475 -7035 0
8475 -6315 0
-8595 7155 0
8595 -7155 0
-7995 5835 0
7995 -5835 0
7996 8116 8236 8356 8476 8596 0
-5836 1516 0
-5956 1636 0
-6076 1756 0
-6196 1876 0
-6316 1996 0
-6676 3796 0
-6796 3916 0
-6916 4036 0
-7036 4156 0
-7156 4276 0
-6676 -5956 0
-8116 6676 5956 0
8116 -6676 0
8116 -5956 0
-6796 -6076 0
-8236 6796 6076 0
8236 -6796 0
8236 -6076 0
-6916 -6196 0
-8356 6916 6196 0
8356 -6916 0
8356 -6196 0
-7036 -6316 0
-8476 7036 6316 0
8476 -7036 0
8476 -6316 0
-8596 7156 0
8596 -7156 0
-7996 5836 0
7996 -5836 0
7997 8117 8237 8357 8477 8597 0
-5837 1517 0
-5957 1637 0
-6077 1757 0
-6197 1877 0
-6317 1997 0
-6677 3797 0
-6797 3917 0
-6917 4037 0
-7037 4157 0
-7157 4277 0
-6677 -5957 0
-8117 6677 5957 0
8117 -6677 0
8117 -5957 0
-6797 -6077 0
-8237 6797 6077 0
8237 -6797 0
8237 -6077 0
-6917 -6197 0
-8357 6917 6197 0
8357 -6917 0
8357 -6197 0
-7037 -6317 0
-8477 7037 6317 0
8477 -7037 0
8477 -6317 0
-8597 7157 0
8597 -7157 0
-7997 5837 0
7997 -5837 0
7998 8118 8238 8358 8478 8598 0
-5838 1518 0
-5958 1638 0
-6078 1758 0
-6198 1878 0
-6318 1998 0
-6678 3798 0
-6798 3918 0
-6918 4038 0
-7038 4158 0
-7158 4278 0
-6678 -5958 0
-8118 6678 5958 0
8118 -6678 0
8118 -5958 0
-6798 -6078 0
-8238 6798 6078 0
8238 -6798 0
8238 -6078 0
-6918 -6198 0
-8358 6918 6198 0
8358 -6918 0
8358 -6198 0
-7038 -6318 0
-8478 7038 6318 0
8478 -7038 0
8478 -6318 0
-8598 7158 0
8598 -7158 0
-7998 5838 0
7998 -5838 0
7999 8119 8239 8359 8479 8599 0
-5839 1519 0
-5959 1639 0
-6079 1759 0
-6199 1879 0
-6319 1999 0
-6679 3799 0
-6799 3919 0
-6919 4039 0
-7039 4159 0
-7159 4279 0
-6679 -5959 0
-8119 6679 5959 0
8119 -6679 0
8119 -5959 0
-6799 -6079 0
-8239 6799 6079 0
8239 -6799 0
8239 -6079 0
-6919 -6199 0
-8359 6919 6199 0
8359 -6919 0
8359 -6199 0
-7039 -6319 0
-8479 7039 6319 0
8479 -7039 0
8479 -6319 0
-8599 7159 0
8599 -7159 0
-7999 5839 0
7999 -5839 0
8000 8120 8240 8360 8480 8600 0
-5840 1520 0
-5960 1640 0
-6080 1760 0
-6200 1880 0
-6320 2000 0
-6680 3800 0
-6800 3920 0
-6920 4040 0
-7040 4160 0
-7160 4280 0
-6680 -5960 0
-8120 6680 5960 0
8120 -6680 0
8120 -5960 0
-6800 -6080 0
-8240 6800 6080 0
8240 -6800 0
8240 -6080 0
-6920 -6200 0
-8360 6920 6200 0
8360 -6920 0
8360 -6200 0
-7040 -6320 0
-8480 7040 6320 0
8480 -7040 0
8480 -6320 0
-8600 7160 0
8600 -7160 0
-8000 5840 0
8000 -5840 0
8001 8121 8241 8361 8481 8601 0
-5841 1521 0
-5961 1641 0
-6081 1761 0
-6201 1881 0
-6321 2001 0
-6681 3801 0
-6801 3921 0
-6921 4041 0
-7041 4161 0
-7161 4281 0
-6681 -5961 0
-8121 6681 5961 0
8121 -6681 0
8121 -5961 0
-6801 -6081 0
-8241 6801 6081 0
8241 -6801 0
8241 -6081 0
-6921 -6201 0
-8361 6921 6201 0
8361 -6921 0
8361 -6201 0
-7041 -6321 0
-8481 7041 6321 0
8481 -7041 0
8481 -6321 0
-8601 7161 0
8601 -7161 0
-8001 5841 0
8001 -5841 0
8002 8122 8242 8362 8482 8602 0
-5842 1522 0
-5962 1642 0
-6082 1762 0
-6202 1882 0
-6322 2002 0
-6682 3802 0
-6802 3922 0
-6922 4042 0
-7042 4162 0
-7162 4282 0
-6682 -5962 0
-8122 6682 5962 0
8122 -6682 0
8122 -5962 0
-6802 -6082 0
-8242 6802 6082 0
8242 -6802 0
8242 -6082 0
-6922 -6202 0
-8362 6922 6202 0
8362 -6922 0
8362 -6202 0
-7042 -6322 0
-8482 7042 6322 0
8482 -7042 0
8482 -6322 0
-8602 7162 0
8602 -7162 0
-8002 5842 0
8002 -5842 0
8003 8123 8243 8363 8483 8603 0
-5843 1523 0
-5963 1643 0
-6083 1763 0
-6203 1883 0
-6323 2003 0
-6683 3803 0
-6803 3923 0
-6923 4043 0
-7043 4163 0
-7163 4283 0
-6683 -5963 0
-8123 6683 5963 0
8123 -6683 0
8123 -5963 0
-6803 -6083 0
-8243 6803 6083 0
8243 -6803 0
8243 -6083 0
-6923 -6203 0
-8363 6923 6203 0
8363 -6923 0
8363 -6203 0
-7043 -6323 0
-8483 7043 6323 0
8483 -7043 0
8483 -6323 0
-8603 7163 0
8603 -7163 0
-8003 5843 0
8003 -5843 0
8004 8124 8244 8364 8484 8604 0
-5844 1524 0
-5964 1644 0
-6084 1764 0
-6204 1884 0
-6324 2004 0
-6684 3804 0
-6804 3924 0
-6924 4044 0
-7044 4164 0
-7164 4284 0
-6684 -5964 0
-8124 6684 5964 0
8124 -6684 0
8124 -5964 0
-6804 -6084 0
-8244 6804 6084 0
8244 -6804 0
8244 -6084 0
-6924 -6204 0
-8364 6924 6204 0
8364 -6924 0
8364 -6204 0
-7044 -6324 0
-8484 7044 6324 0
8484 -7044 0
8484 -6324 0
-8604 7164 0
8604 -7164 0
-8004 5844 0
8004 -5844 0
8005 8125 8245 8365 8485 8605 0
-5845 1525 0
-5965 1645 0
-6085 1765 0
-6205 1885 0
-6325 2005 0
-6685 3805 0
-6805 3925 0
-6925 4045 0
-7045 4165 0
-7165 4285 0
-6685 -5965 0
-8125 6685 5965 0
8125 -6685 0
8125 -5965 0
-6805 -6085 0
-8245 6805 6085 0
8245 -6805 0
8245 -6085 0
-6925 -6205 0
-8365 6925 6205 0
8365 -6925 0
8365 -6205 0
-7045 -6325 0
-8485 7045 6325 0
8485 -7045 0
8485 -6325 0
-8605 7165 0
8605 -7165 0
-8005 5845 0
8005 -5845 0
8006 8126 8246 8366 8486 8606 0
-5846 1526 0
-5966 1646 0
-6086 1766 0
-6206 1886 0
-6326 2006 0
-6686 3806 0
-6806 3926 0
-6926 4046 0
-7046 4166 0
-7166 4286 0
-6686 -5966 0
-8126 6686 5966 0
8126 -6686 0
8126 -5966 0
-6806 -6086 0
-8246 6806 6086 0
8246 -6806 0
8246 -6086 0
-6926 -6206 0
-8366 6926 6206 0
8366 -6926 0
8366 -6206 0
-7046 -6326 0
-8486 7046 6326 0
8486 -7046 0
8486 -6326 0
-8606 7166 0
8606 -7166 0
-8006 5846 0
8006 -5846 0
8007 8127 8247 8367 8487 8607 0
-5847 1527 0
-5967 1647 0
-6087 1767 0
-6207 1887 0
-6327 2007 0
-6687 3807 0
-6807 3927 0
-6927 4047 0
-7047 4167 0
-7167 4287 0
-6687 -5967 0
-8127 6687 5967 0
8127 -6687 0
8127 -5967 0
-6807 -6087 0
-8247 6807 6087 0
8247 -6807 0
8247 -6087 0
-6927 -6207 0
-8367 6927 6207 0
8367 -6927 0
8367 -6207 0
-7047 -6327 0
-8487 7047 6327 0
8487 -7047 0
8487 -6327 0
-8607 7167 0
8607 -7167 0
-8007 5847 0
8007 -5847 0
8008 8128 8248 8368 8488 8608 0
-5848 1528 0
-5968 1648 0
-6088 1768 0
-6208 1888 0
-6328 2008 0
-6688 3808 0
-6808 3928 0
-6928 4048 0
-7048 4168 0
-7168 4288 0
-6688 -5968 0
-8128 6688 5968 0
8128 -6688 0
8128 -5968 0
-6808 -6088 0
-8248 6808 6088 0
8248 -6808 0
8248 -6088 0
-6928 -6208 0
-8368 6928 6208 0
8368 -6928 0
8368 -6208 0
-7048 -6328 0
-8488 7048 6328 0
8488 -7048 0
8488 -6328 0
-8608 7168 0
8608 -7168 0
-8008 5848 0
8008 -5848 0
8009 8129 8249 8369 8489 8609 0
-5849 1529 0
-5969 1649 0
-6089 1769 0
-6209 1889 0
-6329 2009 0
-6689 3809 0
-6809 3929 0
-6929 4049 0
-7049 4169 0
-7169 4289 0
-6689 -5969 0
-8129 6689 5969 0
8129 -6689 0
8129 -5969 0
-6809 -6089 0
-8249 6809 6089 0
8249 -6809 0
8249 -6089 0
-6929 -6209 0
-8369 6929 6209 0
8369 -6929 0
8369 -6209 0
-7049 -6329 0
-8489 7049 6329 0
8489 -7049 0
8489 -6329 0
-8609 7169 0
8609 -7169 0
-8009 5849 0
8009 -5849 0
8010 8130 8250 8370 8490 8610 0
-5850 1530 0
-5970 1650 0
-6090 1770 0
-6210 1890 0
-6330 2010 0
-6690 3810 0
-6810 3930 0
-6930 4050 0
-7050 4170 0
-7170 4290 0
-6690 -5970 0
-8130 6690 5970 0
8130 -6690 0
8130 -5970 0
-6810 -6090 0
-8250 6810 6090 0
8250 -6810 0
8250 -6090 0
-6930 -6210 0
-8370 6930 6210 0
8370 -6930 0
8370 -6210 0
-7050 -6330 0
-8490 7050 6330 0
8490 -7050 0
8490 -6330 0
-8610 7170 0
8610 -7170 0
-8010 5850 0
8010 -5850 0
8011 8131 8251 8371 8491 8611 0
-5851 1531 0
-5971 1651 0
-6091 1771 0
-6211 1891 0
-6331 2011 0
-6691 3811 0
-6811 3931 0
-6931 4051 0
-7051 4171 0
-7171 4291 0
-6691 -5971 0
-8131 6691 5971 0
8131 -6691 0
8131 -5971 0
-6811 -6091 0
-8251 6811 6091 0
8251 -6811 0
8251 -6091 0
-6931 -6211 0
-8371 6931 6211 0
8371 -6931 0
8371 -6211 0
-7051 -6331 0
-8491 7051 6331 0
8491 -7051 0
8491 -6331 0
-8611 7171 0
8611 -7171 0
-8011 5851 0
8011 -5851 0
8012 8132 8252 8372 8492 8612 0
-5852 1532 0
-5972 1652 0
-6092 1772 0
-6212 1892 0
-6332 2012 0
-6692 3812 0
-6812 3932 0
-6932 4052 0
-7052 4172 0
-7172 4292 0
-6692 -5972 0
-8132 6692 5972 0
8132 -6692 0
8132 -5972 0
-6812 -6092 0
-8252 6812 6092 0
8252 -6812 0
8252 -6092 0
-6932 -6212 0
-8372 6932 6212 0
8372 -6932 0
8372 -6212 0
-7052 -6332 0
-8492 7052 6332 0
8492 -7052 0
8492 -6332 0
-8612 7172 0
8612 -7172 0
-8012 5852 0
8012 -5852 0
8013 8133 8253 8373 8493 8613 0
-5853 1533 0
-5973 1653 0
-6093 1773 0
-6213 1893 0
-6333 2013 0
-6693 3813 0
-6813 3933 0
-6933 4053 0
-7053 4173 0
-7173 4293 0
-6693 -5973 0
-8133 6693 5973 0
8133 -6693 0
8133 -5973 0
-6813 -6093 0
-8253 6813 6093 0
8253 -6813 0
8253 -6093 0
-6933 -6213 0
-8373 6933 6213 0
8373 -6933 0
8373 -6213 0
-7053 -6333 0
-8493 7053 6333 0
8493 -7053 0
8493 -6333 0
-8613 7173 0
8613 -7173 0
-8013 5853 0
8013 -5853 0
8014 8134 8254 8374 8494 8614 0
-5854 1534 0
-5974 1654 0
-6094 1774 0
-6214 1894 0
-6334 2014 0
-6694 3814 0
-6814 3934 0
-6934 4054 0
-7054 4174 0
-7174 4294 0
-6694 -5974 0
-8134 6694 5974 0
8134 -6694 0
8134 -5974 0
-6814 -6094 0
-8254 6814 6094 0
8254 -6814 0
8254 -6094 0
-6934 -6214 0
-8374 6934 6214 0
8374 -6934 0
8374 -6214 0
-7054 -6334 0
-8494 7054 6334 0
8494 -7054 0
8494 -6334 0
-8614 7174 0
8614 -7174 0
-8014 5854 0
8014 -5854 0
8015 8135 8255 8375 8495 8615 0
-5855 1535 0
-5975 1655 0
-6095 1775 0
-6215 1895 0
-6335 2015 0
-6695 3815 0
-6815 3935 0
-6935 4055 0
-7055 4175 0
-7175 4295 0
-6695 -5975 0
-8135 6695 5975 0
8135 -6695 0
8135 -5975 0
-6815 -6095 0
-8255 6815 6095 0
8255 -6815 0
8255 -6095 0
-6935 -6215 0
-8375 6935 6215 0
8375 -6935 0
8375 -6215 0
-7055 -6335 0
-8495 7055 6335 0
8495 -7055 0
8495 -6335 0
-8615 7175 0
8615 -7175 0
-8015 5855 0
8015 -5855 0
8016 8136 8256 8376 8496 8616 0
-5856 1536 0
-5976 1656 0
-6096 1776 0
-6216 1896 0
-6336 2016 0
-6696 3816 0
-6816 3936 0
-6936 4056 0
-7056 4176 0
-7176 4296 0
-6696 -5976 0
-8136 6696 5976 0
8136 -6696 0
8136 -5976 0
-6816 -6096 0
-8256 6816 6096 0
8256 -6816 0
8256 -6096 0
-6936 -6216 0
-8376 6936 6216 0
8376 -6936 0
8376 -6216 0
-7056 -6336 0
-8496 7056 6336 0
8496 -7056 0
8496 -6336 0
-8616 7176 0
8616 -7176 0
-8016 5856 0
8016 -5856 0
8017 8137 8257 8377 8497 8617 0
-5857 1537 0
-5977 1657 0
-6097 1777 0
-6217 1897 0
-6337 2017 0
-6697 3817 0
-6817 3937 0
-6937 4057 0
-7057 4177 0
-7177 4297 0
-6697 -5977 0
-8137 6697 5977 0
8137 -6697 0
8137 -5977 0
-6817 -6097 0
-8257 6817 6097 0
8257 -6817 0
8257 -6097 0
-6937 -6217 0
-8377 6937 6217 0
8377 -6937 0
8377 -6217 0
-7057 -6337 0
-8497 7057 6337 0
8497 -7057 0
8497 -6337 0
-8617 7177 0
8617 -7177 0
-8017 5857 0
8017 -5857 0
8018 8138 8258 8378 8498 8618 0
-5858 1538 0
-5978 1658 0
-6098 1778 0
-6218 1898 0
-6338 2018 0
-6698 3818 0
-6818 3938 0
-6938 4058 0
-7058 4178 0
-7178 4298 0
-6698 -5978 0
-8138 6698 5978 0
8138 -6698 0
8138 -5978 0
-6818 -6098 0
-8258 6818 6098 0
8258 -6818 0
8258 -6098 0
-6938 -6218 0
-8378 6938 6218 0
8378 -6938 0
8378 -6218 0
-7058 -6338 0
-8498 7058 6338 0
8498 -7058 0
8498 -6338 0
-8618 7178 0
8618 -7178 0
-8018 5858 0
8018 -5858 0
8019 8139 8259 8379 8499 8619 0
-5859 1539 0
-5979 1659 0
-6099 1779 0
-6219 1899 0
-6339 2019 0
-6699 3819 0
-6819 3939 0
-6939 4059 0
-7059 4179 0
-7179 4299 0
-6699 -5979 0
-8139 6699 5979 0
8139 -6699 0
8139 -5979 0
-6819 -6099 0
-8259 6819 6099 0
8259 -6819 0
8259 -6099 0
-6939 -6219 0
-8379 6939 6219 0
8379 -6939 0
8379 -6219 0
-7059 -6339 0
-8499 7059 6339 0
8499 -7059 0
8499 -6339 0
-8619 7179 0
8619 -7179 0
-8019 5859 0
8019 -5859 0
8020 8140 8260 8380 8500 8620 0
-5860 1540 0
-5980 1660 0
-6100 1780 0
-6220 1900 0
-6340 2020 0
-6700 3820 0
-6820 3940 0
-6940 4060 0
-7060 4180 0
-7180 4300 0
-6700 -5980 0
-8140 6700 5980 0
8140 -6700 0
8140 -5980 0
-6820 -6100 0
-8260 6820 6100 0
8260 -6820 0
8260 -6100 0
-6940 -6220 0
-8380 6940 6220 0
8380 -6940 0
8380 -6220 0
-7060 -6340 0
-8500 7060 6340 0
8500 -7060 0
8500 -6340 0
-8620 7180 0
8620 -7180 0
-8020 5860 0
8020 -5860 0
8021 8141 8261 8381 8501 8621 0
-5861 1541 0
-5981 1661 0
-6101 1781 0
-6221 1901 0
-6341 2021 0
-6701 3821 0
-6821 3941 0
-6941 4061 0
-7061 4181 0
-7181 4301 0
-6701 -5981 0
-8141 6701 5981 0
8141 -6701 0
8141 -5981 0
-6821 -6101 0
-8261 6821 6101 0
8261 -6821 0
8261 -6101 0
-6941 -6221 0
-8381 6941 6221 0
8381 -6941 0
8381 -6221 0
-7061 -6341 0
-8501 7061 6341 0
8501 -7061 0
8501 -6341 0
-8621 7181 0
8621 -7181 0
-8021 5861 0
8021 -5861 0
8022 8142 8262 8382 8502 8622 0
-5862 1542 0
-5982 1662 0
-6102 1782 0
-6222 1902 0
-6342 2022 0
-6702 3822 0
-6822 3942 0
-6942 4062 0
-7062 4182 0
-7182 4302 0
-6702 -5982 0
-8142 6702 5982 0
8142 -6702 0
8142 -5982 0
-6822 -6102 0
-8262 6822 6102 0
8262 -6822 0
8262 -6102 0
-6942 -6222 0
-8382 6942 6222 0
8382 -6942 0
8382 -6222 0
-7062 -6342 0
-8502 7062 6342 0
8502 -7062 0
8502 -6342 0
-8622 7182 0
8622 -7182 0
-8022 5862 0
8022 -5862 0
8023 8143 8263 8383 8503 8623 0
-5863 1543 0
-5983 1663 0
-6103 1783 0
-6223 1903 0
-6343 2023 0
-6703 3823 0
-6823 3943 0
-6943 4063 0
-7063 4183 0
-7183 4303 0
-6703 -5983 0
-8143 6703 5983 0
8143 -6703 0
8143 -5983 0
-6823 -6103 0
-8263 6823 6103 0
8263 -6823 0
8263 -6103 0
-6943 -6223 0
-8383 6943 6223 0
8383 -6943 0
8383 -6223 0
-7063 -6343 0
-8503 7063 6343 0
8503 -7063 0
8503 -6343 0
-8623 7183 0
8623 -7183 0
-8023 5863 0
8023 -5863 0
8024 8144 8264 8384 8504 8624 0
-5864 1544 0
-5984 1664 0
-6104 1784 0
-6224 1904 0
-6344 2024 0
-6704 3824 0
-6824 3944 0
-6944 4064 0
-7064 4184 0
-7184 4304 0
-6704 -5984 0
-8144 6704 5984 0
8144 -6704 0
8144 -5984 0
-6824 -6104 0
-8264 6824 6104 0
8264 -6824 0
8264 -6104 0
-6944 -6224 0
-8384 6944 6224 0
8384 -6944 0
8384 -6224 0
-7064 -6344 0
-8504 7064 6344 0
8504 -7064 0
8504 -6344 0
-8624 7184 0
8624 -7184 0
-8024 5864 0
8024 -5864 0
8025 8145 8265 8385 8505 8625 0
-5865 1545 0
-5985 1665 0
-6105 1785 0
-6225 1905 0
-6345 2025 0
-6705 3825 0
-6825 3945 0
-6945 4065 0
-7065 4185 0
-7185 4305 0
-6705 -5985 0
-8145 6705 5985 0
8145 -6705 0
8145 -5985 0
-6825 -6105 0
-8265 6825 6105 0
8265 -6825 0
8265 -6105 0
-6945 -6225 0
-8385 6945 6225 0
8385 -6945 0
8385 -6225 0
-7065 -6345 0
-8505 7065 6345 0
8505 -7065 0
8505 -6345 0
-8625 7185 0
8625 -7185 0
-8025 5865 0
8025 -5865 0
8026 8146 8266 8386 8506 8626 0
-5866 1546 0
-5986 1666 0
-6106 1786 0
-6226 1906 0
-6346 2026 0
-6706 3826 0
-6826 3946 0
-6946 4066 0
-7066 4186 0
-7186 4306 0
-6706 -5986 0
-8146 6706 5986 0
8146 -6706 0
8146 -5986 0
-6826 -6106 0
-8266 6826 6106 0
8266 -6826 0
8266 -6106 0
-6946 -6226 0
-8386 6946 6226 0
8386 -6946 0
8386 -6226 0
-7066 -6346 0
-8506 7066 6346 0
8506 -7066 0
8506 -6346 0
-8626 7186 0
8626 -7186 0
-8026 5866 0
8026 -5866 0
8027 8147 8267 8387 8507 8627 0
-5867 1547 0
-5987 1667 0
-6107 1787 0
-6227 1907 0
-6347 2027 0
-6707 3827 0
-6827 3947 0
-6947 4067 0
-7067 4187 0
-7187 4307 0
-6707 -5987 0
-8147 6707 5987 0
8147 -6707 0
8147 -5987 0
-6827 -6107 0
-8267 6827 6107 0
8267 -6827 0
8267 -6107 0
-6947 -6227 0
-8387 6947 6227 0
8387 -6947 0
8387 -6227 0
-7067 -6347 0
-8507 7067 6347 0
8507 -7067 0
8507 -6347 0
-8627 7187 0
8627 -7187 0
-8027 5867 0
8027 -5867 0
8028 8148 8268 8388 8508 8628 0
-5868 1548 0
-5988 1668 0
-6108 1788 0
-6228 1908 0
-6348 2028 0
-6708 3828 0
-6828 3948 0
-6948 4068 0
-7068 4188 0
-7188 4308 0
-6708 -5988 0
-8148 6708 5988 0
8148 -6708 0
8148 -5988 0
-6828 -6108 0
-8268 6828 6108 0
8268 -6828 0
8268 -6108 0
-6948 -6228 0
-8388 6948 6228 0
8388 -6948 0
8388 -6228 0
-7068 -6348 0
-8508 7068 6348 0
8508 -7068 0
8508 -6348 0
-8628 7188 0
8628 -7188 0
-8028 5868 0
8028 -5868 0
8029 8149 8269 8389 8509 8629 0
-5869 1549 0
-5989 1669 0
-6109 1789 0
-6229 1909 0
-6349 2029 0
-6709 3829 0
-6829 3949 0
-6949 4069 0
-7069 4189 0
-7189 4309 0
-6709 -5989 0
-8149 6709 5989 0
8149 -6709 0
8149 -5989 0
-6829 -6109 0
-8269 6829 6109 0
8269 -6829 0
8269 -6109 0
-6949 -6229 0
-8389 6949 6229 0
8389 -6949 0
8389 -6229 0
-7069 -6349 0
-8509 7069 6349 0
8509 -7069 0
8509 -6349 0
-8629 7189 0
8629 -7189 0
-8029 5869 0
8029 -5869 0
8030 8150 8270 8390 8510 8630 0
-5870 1550 0
-5990 1670 0
-6110 1790 0
-6230 1910 0
-6350 2030 0
-6710 3830 0
-6830 3950 0
-6950 4070 0
-7070 4190 0
-7190 4310 0
-6710 -5990 0
-8150 6710 5990 0
8150 -6710 0
8150 -5990 0
-6830 -6110 0
-8270 6830 6110 0
8270 -6830 0
8270 -6110 0
-6950 -6230 0
-8390 6950 6230 0
8390 -6950 0
8390 -6230 0
-7070 -6350 0
-8510 7070 6350 0
8510 -7070 0
8510 -6350 0
-8630 7190 0
8630 -7190 0
-8030 5870 0
8030 -5870 0
8031 8151 8271 8391 8511 8631 0
-5871 1551 0
-5991 1671 0
-6111 1791 0
-6231 1911 0
-6351 2031 0
-6711 3831 0
-6831 3951 0
-6951 4071 0
-7071 4191 0
-7191 4311 0
-6711 -5991 0
-8151 6711 5991 0
8151 -6711 0
8151 -5991 0
-6831 -6111 0
-8271 6831 6111 0
8271 -6831 0
8271 -6111 0
-6951 -6231 0
-8391 6951 6231 0
8391 -6951 0
8391 -6231 0
-7071 -6351 0
-8511 7071 6351 0
8511 -7071 0
8511 -6351 0
-8631 7191 0
8631 -7191 0
-8031 5871 0
8031 -5871 0
8032 8152 8272 8392 8512 8632 0
-5872 1552 0
-5992 1672 0
-6112 1792 0
-6232 1912 0
-6352 2032 0
-6712 3832 0
-6832 3952 0
-6952 4072 0
-7072 4192 0
-7192 4312 0
-6712 -5992 0
-8152 6712 5992 0
8152 -6712 0
8152 -5992 0
-6832 -6112 0
-8272 6832 6112 0
8272 -6832 0
8272 -6112 0
-6952 -6232 0
-8392 6952 6232 0
8392 -6952 0
8392 -6232 0
-7072 -6352 0
-8512 7072 6352 0
8512 -7072 0
8512 -6352 0
-8632 7192 0
8632 -7192 0
-8032 5872 0
8032 -5872 0
8033 8153 8273 8393 8513 8633 0
-5873 1553 0
-5993 1673 0
-6113 1793 0
-6233 1913 0
-6353 2033 0
-6713 3833 0
-6833 3953 0
-6953 4073 0
-7073 4193 0
-7193 4313 0
-6713 -5993 0
-8153 6713 5993 0
8153 -6713 0
8153 -5993 0
-6833 -6113 0
-8273 6833 6113 0
8273 -6833 0
8273 -6113 0
-6953 -6233 0
-8393 6953 6233 0
8393 -6953 0
8393 -6233 0
-7073 -6353 0
-8513 7073 6353 0
8513 -7073 0
8513 -6353 0
-8633 7193 0
8633 -7193 0
-8033 5873 0
8033 -5873 0
8034 8154 8274 8394 8514 8634 0
-5874 1554 0
-5994 1674 0
-6114 1794 0
-6234 1914 0
-6354 2034 0
-6714 3834 0
-6834 3954 0
-6954 4074 0
-7074 4194 0
-7194 4314 0
-6714 -5994 0
-8154 6714 5994 0
8154 -6714 0
8154 -5994 0
-6834 -6114 0
-8274 6834 6114 0
8274 -6834 0
8274 -6114 0
-6954 -6234 0
-8394 6954 6234 0
8394 -6954 0
8394 -6234 0
-7074 -6354 0
-8514 7074 6354 0
8514 -7074 0
8514 -6354 0
-8634 7194 0
8634 -7194 0
-8034 5874 0
8034 -5874 0
8035 8155 8275 8395 8515 8635 0
-5875 1555 0
-5995 1675 0
-6115 1795 0
-6235 1915 0
-6355 2035 0
-6715 3835 0
-6835 3955 0
-6955 4075 0
-7075 4195 0
-7195 4315 0
-6715 -5995 0
-8155 6715 5995 0
8155 -6715 0
8155 -5995 0
-6835 -6115 0
-8275 6835 6115 0
8275 -6835 0
8275 -6115 0
-6955 -6235 0
-8395 6955 6235 0
8395 -6955 0
8395 -6235 0
-7075 -6355 0
-8515 7075 6355 0
8515 -7075 0
8515 -6355 0
-8635 7195 0
8635 -7195 0
-8035 5875 0
8035 -5875 0
8036 8156 8276 8396 8516 8636 0
-5876 1556 0
-5996 1676 0
-6116 1796 0
-6236 1916 0
-6356 2036 0
-6716 3836 0
-6836 3956 0
-6956 4076 0
-7076 4196 0
-7196 4316 0
-6716 -5996 0
-8156 6716 5996 0
8156 -6716 0
8156 -5996 0
-6836 -6116 0
-8276 6836 6116 0
8276 -6836 0
8276 -6116 0
-6956 -6236 0
-8396 6956 6236 0
8396 -6956 0
8396 -6236 0
-7076 -6356 0
-8516 7076 6356 0
8516 -7076 0
8516 -6356 0
-8636 7196 0
8636 -7196 0
-8036 5876 0
8036 -5876 0
8037 8157 8277 8397 8517 8637 0
-5877 1557 0
-5997 1677 0
-6117 1797 0
-6237 1917 0
-6357 2037 0
-6717 3837 0
-6837 3957 0
-6957 4077 0
-7077 4197 0
-7197 4317 0
-6717 -5997 0
-8157 6717 5997 0
8157 -6717 0
8157 -5997 0
-6837 -6117 0
-8277 6837 6117 0
8277 -6837 0
8277 -6117 0
-6957 -6237 0
-8397 6957 6237 0
8397 -6957 0
8397 -6237 0
-7077 -6357 0
-8517 7077 6357 0
8517 -7077 0
8517 -6357 0
-8637 7197 0
8637 -7197 0
-8037 5877 0
8037 -5877 0
8038 8158 8278 8398 8518 8638 0
-5878 1558 0
-5998 1678 0
-6118 1798 0
-6238 1918 0
-6358 2038 0
-6718 3838 0
-6838 3958 0
-6958 4078 0
-7078 4198 0
-7198 4318 0
-6718 -5998 0
-8158 6718 5998 0
8158 -6718 0
8158 -5998 0
-6838 -6118 0
-8278 6838 6118 0
8278 -6838 0
8278 -6118 0
-6958 -6238 0
-8398 6958 6238 0
8398 -6958 0
8398 -6238 0
-7078 -6358 0
-8518 7078 6358 0
8518 -7078 0
8518 -6358 0
-8638 7198 0
8638 -7198 0
-8038 5878 0
8038 -5878 0
8039 8159 8279 8399 8519 8639 0
-5879 1559 0
-5999 1679 0
-6119 1799 0
-6239 1919 0
-6359 2039 0
-6719 3839 0
-6839 3959 0
-6959 4079 0
-7079 4199 0
-7199 4319 0
-6719 -5999 0
-8159 6719 5999 0
8159 -6719 0
8159 -5999 0
-6839 -6119 0
-8279 6839 6119 0
8279 -6839 0
8279 -6119 0
-6959 -6239 0
-8399 6959 6239 0
8399 -6959 0
8399 -6239 0
-7079 -6359 0
-8519 7079 6359 0
8519 -7079 0
8519 -6359 0
-8639 7199 0
8639 -7199 0
-8039 5879 0
8039 -5879 0
-8640 0
7201 8641 0
7321 8641 0
7201 7321 8642 0
7441 8643 0
7561 8643 0
7441 7561 8644 0
-8641 8645 0
-8643 8645 0
-8641 -8643 8646 0
-8642 8647 0
-8644 8647 0
-8642 -8644 8648 0
-8646 8649 0
-8647 8649 0
-8646 -8647 8650 0
7681 8651 0
7801 8651 0
7681 7801 8652 0
-8640 8653 0
-8640 8653 0
-8640 -8640 8654 0
-8651 8655 0
-8653 8655 0
-8651 -8653 8656 0
-8652 8657 0
-8654 8657 0
-8652 -8654 8658 0
-8656 8659 0
-8657 8659 0
-8656 -8657 8660 0
-8645 8661 0
-8655 8661 0
-8645 -8655 8662 0
-8650 8663 0
-8660 8663 0
-8650 -8660 8664 0
-8662 8665 0
-8663 8665 0
-8662 -8663 8666 0
-8649 8667 0
-8659 8667 0
-8649 -8659 8668 0
-8648 8669 0
-8658 8669 0
-8648 -8658 8670 0
-8668 8671 0
-8669 8671 0
-8668 -8669 8672 0
-8665 8673 0
-8667 8673 0
-8665 -8667 8674 0
-8666 8675 0
-8671 8675 0
-8666 -8671 8676 0
-8664 8677 0
-8672 8677 0
-8664 -8672 8678 0
-8676 0
8642 8643 8644 8645 8646 8647 8648 8649 8650 8651 8652 8653 8654 8655 8656 8657 8658 8659 8660 8661 8662 8663 8664 8665 8666 8667 8668 8669 8670 8671 8672 8673 8674 8675 8676 8677 8678 8679 8680 8681 8682 8683 8684 8685 8686 8687 8688 8689 8690 8691 8692 8693 8694 8695 8696 8697 8698 8699 8700 8701 8702 8703 8704 8705 8706 8707 8708 8709 8710 8711 8712 8713 8714 8715 8716 8717 8718 8719 8720 8721 8722 8723 8724 8725 8726 8727 8728 8729 8730 8731 8732 8733 8734 8735 8736 8737 8738 8739 8740 8741 8742 8743 8744 8745 8746 8747 8748 8749 8750 8751 8752 8753 8754 8755 8756 8757 8758 8759 8760 0
8762 -8642 0
9482 -8642 0
-8762 -9482 8642 0
-8762 10202 0
-8762 11642 0
8762 -10202 -11642 0
-9482 10922 0
-9482 12362 0
9482 -10922 -12362 0
-1 2 -10202 0
1 10202 0
-2 10202 0
-721 722 -10922 0
721 10922 0
-722 10922 0
1 -2 -11642 0
-1 11642 0
2 11642 0
721 -722 -12362 0
-721 12362 0
722 12362 0
8882 -8642 0
9602 -8642 0
-8882 -9602 8642 0
-8882 10322 0
-8882 11762 0
8882 -10322 -11762 0
-9602 11042 0
-9602 12482 0
9602 -11042 -12482 0
-121 122 -10322 0
121 10322 0
-122 10322 0
-841 842 -11042 0
841 11042 0
-842 11042 0
121 -122 -11762 0
-121 11762 0
122 11762 0
841 -842 -12482 0
-841 12482 0
842 12482 0
9002 -8642 0
9722 -8642 0
-9002 -9722 8642 0
-9002 10442 0
-9002 11882 0
9002 -10442 -11882 0
-9722 11162 0
-9722 12602 0
9722 -11162 -12602 0
-241 242 -10442 0
241 10442 0
-242 10442 0
-961 962 -11162 0
961 11162 0
-962 11162 0
241 -242 -11882 0
-241 11882 0
242 11882 0
961 -962 -12602 0
-961 12602 0
962 12602 0
9122 -8642 0
9842 -8642 0
-9122 -9842 8642 0
-9122 10562 0
-9122 12002 0
9122 -10562 -12002 0
-9842 11282 0
-9842 12722 0
9842 -11282 -12722 0
-361 362 -10562 0
361 10562 0
-362 10562 0
-1081 1082 -11282 0
1081 11282 0
-1082 11282 0
361 -362 -12002 0
-361 12002 0
362 12002 0
1081 -1082 -12722 0
-1081 12722 0
1082 12722 0
9242 -8642 0
9962 -8642 0
-9242 -9962 8642 0
-9242 10682 0
-9242 12122 0
9242 -10682 -12122 0
-9962 11402 0
-9962 12842 0
9962 -11402 -12842 0
-481 482 -10682 0
481 10682 0
-482 10682 0
-1201 1202 -11402 0
1201 11402 0
-1202 11402 0
481 -482 -12122 0
-481 12122 0
482 12122 0
1201 -1202 -12842 0
-1201 12842 0
1202 12842 0
9362 -8642 0
10082 -8642 0
-9362 -10082 8642 0
-9362 10802 0
-9362 12242 0
9362 -10802 -12242 0
-10082 11522 0
-10082 12962 0
10082 -11522 -12962 0
-601 602 -10802 0
601 10802 0
-602 10802 0
-1321 1322 -11522 0
1321 11522 0
-1322 11522 0
601 -602 -12242 0
-601 12242 0
602 12242 0
1321 -1322 -12962 0
-1321 12962 0
1322 12962 0
8763 -8643 0
9483 -8643 0
-8763 -9483 8643 0
-8763 10203 0
-8763 11643 0
8763 -10203 -11643 0
-9483 10923 0
-9483 12363 0
9483 -10923 -12363 0
-1 3 -10203 0
1 10203 0
-3 10203 0
-721 723 -10923 0
721 10923 0
-723 10923 0
1 -3 -11643 0
-1 11643 0
3 11643 0
721 -723 -12363 0
-721 12363 0
723 12363 0
8883 -8643 0
9603 -8643 0
-8883 -9603 8643 0
-8883 10323 0
-8883 11763 0
8883 -10323 -11763 0
-9603 11043 0
-9603 12483 0
9603 -11043 -12483 0
-121 123 -10323 0
121 10323 0
-123 10323 0
-841 843 -11043 0
841 11043 0
-843 11043 0
121 -123 -11763 0
-121 11763 0
123 11763 0
841 -843 -12483 0
-841 12483 0
843 12483 0
9003 -8643 0
9723 -8643 0
-9003 -9723 8643 0
-9003 10443 0
-9003 11883 0
9003 -10443 -11883 0
-9723 11163 0
-9723 12603 0
9723 -11163 -12603 0
-241 243 -10443 0
241 10443 0
-243 10443 0
-961 963 -11163 0
961 11163 0
-963 11163 0
241 -243 -11883 0
-241 11883 0
243 11883 0
961 -963 -12603 0
-961 12603 0
963 12603 0
9123 -8643 0
9843 -8643 0
-9123 -9843 8643 0
-9123 10563 0
-9123 12003 0
9123 -10563 -12003 0
-9843 11283 0
-9843 12723 0
9843 -11283 -12723 0
-361 363 -10563 0
361 10563 0
-363 10563 0
-1081 1083 -11283 0
1081 11283 0
-1083 11283 0
361 -363 -12003 0
-361 12003 0
363 12003 0
1081 -1083 -12723 0
-1081 12723 0
1083 12723 0
9243 -8643 0
9963 -8643 0
-9243 -9963 8643 0
-9243 10683 0
-9243 12123 0
9243 -10683 -12123 0
-9963 11403 0
-9963 12843 0
9963 -11403 -12843 0
-481 483 -10683 0
481 10683 0
-483 10683 0
-1201 1203 -11403 0
1201 11403 0
-1203 11403 0
481 -483 -12123 0
-481 12123 0
483 12123 0
1201 -1203 -12843 0
-1201 12843 0
1203 12843 0
9363 -8643 0
10083 -8643 0
-9363 -10083 8643 0
-9363 10803 0
-9363 12243 0
9363 -10803 -12243 0
-10083 11523 0
-10083 12963 0
10083 -11523 -12963 0
-601 603 -10803 0
601 10803 0
-603 10803 0
-1321 1323 -11523 0
1321 11523 0
-1323 11523 0
601 -603 -12243 0
-601 12243 0
603 12243 0
1321 -1323 -12963 0
-1321 12963 0
1323 12963 0
8764 -8644 0
9484 -8644 0
-8764 -9484 8644 0
-8764 10204 0
-8764 11644 0
8764 -10204 -11644 0
-9484 10924 0
-9484 12364 0
9484 -10924 -12364 0
-1 4 -10204 0
1 10204 0
-4 10204 0
-721 724 -10924 0
721 10924 0
-724 10924 0
1 -4 -11644 0
-1 11644 0
4 11644 0
721 -724 -12364 0
-721 12364 0
724 12364 0
8884 -8644 0
9604 -8644 0
-8884 -9604 8644 0
-8884 10324 0
-8884 11764 0
8884 -10324 -11764 0
-9604 11044 0
-9604 12484 0
9604 -11044 -12484 0
-121 124 -10324 0
121 10324 0
-124 10324 0
-841 844 -11044 0
841 11044 0
-844 11044 0
121 -124 -11764 0
-121 11764 0
124 11764 0
841 -844 -12484 0
-841 12484 0
844 12484 0
9004 -8644 0
9724 -8644 0
-9004 -9724 8644 0
-9004 10444 0
-9004 11884 0
9004 -10444 -11884 0
-9724 11164 0
-9724 12604 0
9724 -11164 -12604 0
-241 244 -10444 0
241 10444 0
-244 10444 0
-961 964 -11164 0
961 11164 0
-964 11164 0
241 -244 -11884 0
-241 11884 0
244 11884 0
961 -964 -12604 0
-961 12604 0
964 12604 0
9124 -8644 0
9844 -8644 0
-9124 -9844 8644 0
-9124 10564 0
-9124 12004 0
9124 -10564 -12004 0
-9844 11284 0
-9844 12724 0
9844 -11284 -12724 0
-361 364 -10564 0
361 10564 0
-364 10564 0
-1081 1084 -11284 0
1081 11284 0
-1084 11284 0
361 -364 -12004 0
-361 12004 0
364 12004 0
1081 -1084 -12724 0
-1081 12724 0
1084 12724 0
9244 -8644 0
9964 -8644 0
-9244 -9964 8644 0
-9244 10684 0
-9244 12124 0
9244 -10684 -12124 0
-9964 11404 0
-9964 12844 0
9964 -11404 -12844 0
-481 484 -10684 0
481 10684 0
-484 10684 0
-1201 1204 -11404 0
1201 11404 0
-1204 11404 0
481 -484 -12124 0
-481 12124 0
484 12124 0
1201 -1204 -12844 0
-1201 12844 0
1204 12844 0
9364 -8644 0
10084 -8644 0
-9364 -10084 8644 0
-9364 10804 0
-9364 12244 0
9364 -10804 -12244 0
-10084 11524 0
-10084 12964 0
10084 -11524 -12964 0
-601 604 -10804 0
601 10804 0
-604 10804 0
-1321 1324 -11524 0
1321 11524 0
-1324 11524 0
601 -604 -12244 0
-601 12244 0
604 12244 0
1321 -1324 -12964 0
-1321 12964 0
1324 12964 0
8765 -8645 0
9485 -8645 0
-8765 -9485 8645 0
-8765 10205 0
-8765 11645 0
8765 -10205 -11645 0
-9485 10925 0
-9485 12365 0
9485 -10925 -12365 0
-1 5 -10205 0
1 10205 0
-5 10205 0
-721 725 -10925 0
721 10925 0
-725 10925 0
1 -5 -11645 0
-1 11645 0
5 11645 0
721 -725 -12365 0
-721 12365 0
725 12365 0
8885 -8645 0
9605 -8645 0
-8885 -9605 8645 0
-8885 10325 0
-8885 11765 0
8885 -10325 -11765 0
-9605 11045 0
-9605 12485 0
9605 -11045 -12485 0
-121 125 -10325 0
121 10325 0
-125 10325 0
-841 845 -11045 0
841 11045 0
-845 11045 0
121 -125 -11765 0
-121 11765 0
125 11765 0
841 -845 -12485 0
-841 12485 0
845 12485 0
9005 -8645 0
9725 -8645 0
-9005 -9725 8645 0
-9005 10445 0
-9005 11885 0
9005 -10445 -11885 0
-9725 11165 0
-9725 12605 0
9725 -11165 -12605 0
-241 245 -10445 0
241 10445 0
-245 10445 0
-961 965 -11165 0
961 11165 0
-965 11165 0
241 -245 -11885 0
-241 11885 0
245 11885 0
961 -965 -12605 0
-961 12605 0
965 12605 0
9125 -8645 0
9845 -8645 0
-9125 -9845 8645 0
-9125 10565 0
-9125 12005 0
9125 -10565 -12005 0
-9845 11285 0
-9845 12725 0
9845 -11285 -12725 0
-361 365 -10565 0
361 10565 0
-365 10565 0
-1081 1085 -11285 0
1081 11285 0
-1085 11285 0
361 -365 -12005 0
-361 12005 0
365 12005 0
1081 -1085 -12725 0
-1081 12725 0
1085 12725 0
9245 -8645 0
9965 -8645 0
-9245 -9965 8645 0
-9245 10685 0
-9245 12125 0
9245 -10685 -12125 0
-9965 11405 0
-9965 12845 0
9965 -11405 -12845 0
-481 485 -10685 0
481 10685 0
-485 10685 0
-1201 1205 -11405 0
1201 11405 0
-1205 11405 0
481 -485 -12125 0
-481 12125 0
485 12125 0
1201 -1205 -12845 0
-1201 12845 0
1205 12845 0
9365 -8645 0
10085 -8645 0
-9365 -10085 8645 0
-9365 10805 0
-9365 12245 0
9365 -10805 -12245 0
-10085 11525 0
-10085 12965 0
10085 -11525 -12965 0
-601 605 -10805 0
601 10805 0
-605 10805 0
-1321 1325 -11525 0
1321 11525 0
-1325 11525 0
601 -605 -12245 0
-601 12245 0
605 12245 0
1321 -1325 -12965 0
-1321 12965 0
1325 12965 0
8766 -8646 0
9486 -8646 0
-8766 -9486 8646 0
-8766 10206 0
-8766 11646 0
8766 -10206 -11646 0
-9486 10926 0
-9486 12366 0
9486 -10926 -12366 0
-1 6 -10206 0
1 10206 0
-6 10206 0
-721 726 -10926 0
721 10926 0
-726 10926 0
1 -6 -11646 0
-1 11646 0
6 11646 0
721 -726 -12366 0
-721 12366 0
726 12366 0
8886 -8646 0
9606 -8646 0
-8886 -9606 8646 0
-8886 10326 0
-8886 11766 0
8886 -10326 -11766 0
-9606 11046 0
-9606 12486 0
9606 -11046 -12486 0
-121 126 -10326 0
121 10326 0
-126 10326 0
-841 846 -11046 0
841 11046 0
-846 11046 0
121 -126 -11766 0
-121 11766 0
126 11766 0
841 -846 -12486 0
-841 12486 0
846 12486 0
9006 -8646 0
9726 -8646 0
-9006 -9726 8646 0
-9006 10446 0
-9006 11886 0
9006 -10446 -11886 0
-9726 11166 0
-9726 12606 0
9726 -11166 -12606 0
-241 246 -10446 0
241 10446 0
-246 10446 0
-961 966 -11166 0
961 11166 0
-966 11166 0
241 -246 -11886 0
-241 11886 0
246 11886 0
961 -966 -12606 0
-961 12606 0
966 12606 0
9126 -8646 0
9846 -8646 0
-9126 -9846 8646 0
-9126 10566 0
-9126 12006 0
9126 -10566 -12006 0
-9846 11286 0
-9846 12726 0
9846 -11286 -12726 0
-361 366 -10566 0
361 10566 0
-366 10566 0
-1081 1086 -11286 0
1081 11286 0
-1086 11286 0
361 -366 -12006 0
-361 12006 0
366 12006 0
1081 -1086 -12726 0
-1081 12726 0
1086 12726 0
9246 -8646 0
9966 -8646 0
-9246 -9966 8646 0
-9246 10686 0
-9246 12126 0
9246 -10686 -12126 0
-9966 11406 0
-9966 12846 0
9966 -11406 -12846 0
-481 486 -10686 0
481 10686 0
-486 10686 0
-1201 1206 -11406 0
1201 11406 0
-1206 11406 0
481 -486 -12126 0
-481 12126 0
486 12126 0
1201 -1206 -12846 0
-1201 12846 0
1206 12846 0
9366 -8646 0
10086 -8646 0
-9366 -10086 8646 0
-9366 10806 0
-9366 12246 0
9366 -10806 -12246 0
-10086 11526 0
-10086 12966 0
10086 -11526 -12966 0
-601 606 -10806 0
601 10806 0
-606 10806 0
-1321 1326 -11526 0
1321 11526 0
-1326 11526 0
601 -606 -12246 0
-601 12246 0
606 12246 0
1321 -1326 -12966 0
-1321 12966 0
1326 12966 0
8767 -8647 0
9487 -8647 0
-8767 -9487 8647 0
-8767 10207 0
-8767 11647 0
8767 -10207 -11647 0
-9487 10927 0
-9487 12367 0
9487 -10927 -12367 0
-1 7 -10207 0
1 10207 0
-7 10207 0
-721 727 -10927 0
721 10927 0
-727 10927 0
1 -7 -11647 0
-1 11647 0
7 11647 0
721 -727 -12367 0
-721 12367 0
727 12367 0
8887 -8647 0
9607 -8647 0
-8887 -9607 8647 0
-8887 10327 0
-8887 11767 0
8887 -10327 -11767 0
-9607 11047 0
-9607 12487 0
9607 -11047 -12487 0
-121 127 -10327 0
121 10327 0
-127 10327 0
-841 847 -11047 0
841 11047 0
-847 11047 0
121 -127 -11767 0
-121 11767 0
127 11767 0
841 -847 -12487 0
-841 12487 0
847 12487 0
9007 -8647 0
9727 -8647 0
-9007 -9727 8647 0
-9007 10447 0
-9007 11887 0
9007 -10447 -11887 0
-9727 11167 0
-9727 12607 0
9727 -11167 -12607 0
-241 247 -10447 0
241 10447 0
-247 10447 0
-961 967 -11167 0
961 11167 0
-967 11167 0
241 -247 -11887 0
-241 11887 0
247 11887 0
961 -967 -12607 0
-961 12607 0
967 12607 0
9127 -8647 0
9847 -8647 0
-9127 -9847 8647 0
-9127 10567 0
-9127 12007 0
9127 -10567 -12007 0
-9847 11287 0
-9847 12727 0
9847 -11287 -12727 0
-361 367 -10567 0
361 10567 0
-367 10567 0
-1081 1087 -11287 0
1081 11287 0
-1087 11287 0
361 -367 -12007 0
-361 12007 0
367 12007 0
1081 -1087 -12727 0
-1081 12727 0
1087 12727 0
9247 -8647 0
9967 -8647 0
-9247 -9967 8647 0
-9247 10687 0
-9247 12127 0
9247 -10687 -12127 0
-9967 11407 0
-9967 12847 0
9967 -11407 -12847 0
-481 487 -10687 0
481 10687 0
-487 10687 0
-1201 1207 -11407 0
1201 11407 0
-1207 11407 0
481 -487 -12127 0
-481 12127 0
487 12127 0
1201 -1207 -12847 0
-1201 12847 0
1207 12847 0
9367 -8647 0
10087 -8647 0
-9367 -10087 8647 0
-9367 10807 0
-9367 12247 0
9367 -10807 -12247 0
-10087 11527 0
-10087 12967 0
10087 -11527 -12967 0
-601 607 -10807 0
601 10807 0
-607 10807 0
-1321 1327 -11527 0
1321 11527 0
-1327 11527 0
601 -607 -12247 0
-601 12247 0
607 12247 0
1321 -1327 -12967 0
-1321 12967 0
1327 12967 0
8768 -8648 0
9488 -8648 0
-8768 -9488 8648 0
-8768 10208 0
-8768 11648 0
8768 -10208 -11648 0
-9488 10928 0
-9488 12368 0
9488 -10928 -12368 0
-1 8 -10208 0
1 10208 0
-8 10208 0
-721 728 -10928 0
721 10928 0
-728 10928 0
1 -8 -11648 0
-1 11648 0
8 11648 0
721 -728 -12368 0
-721 12368 0
728 12368 0
8888 -8648 0
9608 -8648 0
-8888 -9608 8648 0
-8888 10328 0
-8888 11768 0
8888 -10328 -11768 0
-9608 11048 0
-9608 12488 0
9608 -11048 -12488 0
-121 128 -10328 0
121 10328 0
-128 10328 0
-841 848 -11048 0
841 11048 0
-848 11048 0
121 -128 -11768 0
-121 11768 0
128 11768 0
841 -848 -12488 0
-841 12488 0
848 12488 0
9008 -8648 0
9728 -8648 0
-9008 -9728 8648 0
-9008 10448 0
-9008 11888 0
9008 -10448 -11888 0
-9728 11168 0
-9728 12608 0
9728 -11168 -12608 0
-241 248 -10448 0
241 10448 0
-248 10448 0
-961 968 -11168 0
961 11168 0
-968 11168 0
241 -248 -11888 0
-241 11888 0
248 11888 0
961 -968 -12608 0
-961 12608 0
968 12608 0
9128 -8648 0
9848 -8648 0
-9128 -9848 8648 0
-9128 10568 0
-9128 12008 0
9128 -10568 -12008 0
-9848 11288 0
-9848 12728 0
9848 -11288 -12728 0
-361 368 -10568 0
361 10568 0
-368 10568 0
-1081 1088 -11288 0
1081 11288 0
-1088 11288 0
361 -368 -12008 0
-361 12008 0
368 12008 0
1081 -1088 -12728 0
-1081 12728 0
1088 12728 0
9248 -8648 0
9968 -8648 0
-9248 -9968 8648 0
-9248 10688 0
-9248 12128 0
9248 -10688 -12128 0
-9968 11408 0
-9968 12848 0
9968 -11408 -12848 0
-481 488 -10688 0
481 10688 0
-488 10688 0
-1201 1208 -11408 0
1201 11408 0
-1208 11408 0
481 -488 -12128 0
-481 12128 0
488 12128 0
1201 -1208 -12848 0
-1201 12848 0
1208 12848 0
9368 -8648 0
10088 -8648 0
-9368 -10088 8648 0
-9368 10808 0
-9368 12248 0
9368 -10808 -12248 0
-10088 11528 0
-10088 12968 0
10088 -11528 -12968 0
-601 608 -10808 0
601 10808 0
-608 10808 0
-1321 1328 -11528 0
1321 11528 0
-1328 11528 0
601 -608 -12248 0
-601 12248 0
608 12248 0
1321 -1328 -12968 0
-1321 12968 0
1328 12968 0
8769 -8649 0
9489 -8649 0
-8769 -9489 8649 0
-8769 10209 0
-8769 11649 0
8769 -10209 -11649 0
-9489 10929 0
-9489 12369 0
9489 -10929 -12369 0
-1 9 -10209 0
1 10209 0
-9 10209 0
-721 729 -10929 0
721 10929 0
-729 10929 0
1 -9 -11649 0
-1 11649 0
9 11649 0
721 -729 -12369 0
-721 12369 0
729 12369 0
8889 -8649 0
9609 -8649 0
-8889 -9609 8649 0
-8889 10329 0
-8889 11769 0
8889 -10329 -11769 0
-9609 11049 0
-9609 12489 0
9609 -11049 -12489 0
-121 129 -10329 0
121 10329 0
-129 10329 0
-841 849 -11049 0
841 11049 0
-849 11049 0
121 -129 -11769 0
-121 11769 0
129 11769 0
841 -849 -12489 0
-841 12489 0
849 12489 0
9009 -8649 0
9729 -8649 0
-9009 -9729 8649 0
-9009 10449 0
-9009 11889 0
9009 -10449 -11889 0
-9729 11169 0
-9729 12609 0
9729 -11169 -12609 0
-241 249 -10449 0
241 10449 0
-249 10449 0
-961 969 -11169 0
961 11169 0
-969 11169 0
241 -249 -11889 0
-241 11889 0
249 11889 0
961 -969 -12609 0
-961 12609 0
969 12609 0
9129 -8649 0
9849 -8649 0
-9129 -9849 8649 0
-9129 10569 0
-9129 12009 0
9129 -10569 -12009 0
-9849 11289 0
-9849 12729 0
9849 -11289 -12729 0
-361 369 -10569 0
361 10569 0
-369 10569 0
-1081 1089 -11289 0
1081 11289 0
-1089 11289 0
361 -369 -12009 0
-361 12009 0
369 12009 0
1081 -1089 -12729 0
-1081 12729 0
1089 12729 0
9249 -8649 0
9969 -8649 0
-9249 -9969 8649 0
-9249 10689 0
-9249 12129 0
9249 -10689 -12129 0
-9969 11409 0
-9969 12849 0
9969 -11409 -12849 0
-481 489 -10689 0
481 10689 0
-489 10689 0
-1201 1209 -11409 0
1201 11409 0
-1209 11409 0
481 -489 -12129 0
-481 12129 0
489 12129 0
1201 -1209 -12849 0
-1201 12849 0
1209 12849 0
9369 -8649 0
10089 -8649 0
-9369 -10089 8649 0
-9369 10809 0
-9369 12249 0
9369 -10809 -12249 0
-10089 11529 0
-10089 12969 0
10089 -11529 -12969 0
-601 609 -10809 0
601 10809 0
-609 10809 0
-1321 1329 -11529 0
1321 11529 0
-1329 11529 0
601 -609 -12249 0
-601 12249 0
609 12249 0
1321 -1329 -12969 0
-1321 12969 0
1329 12969 0
8770 -8650 0
9490 -8650 0
-8770 -9490 8650 0
-8770 10210 0
-8770 11650 0
8770 -10210 -11650 0
-9490 10930 0
-9490 12370 0
9490 -10930 -12370 0
-1 10 -10210 0
1 10210 0
-10 10210 0
-721 730 -10930 0
721 10930 0
-730 10930 0
1 -10 -11650 0
-1 11650 0
10 11650 0
721 -730 -12370 0
-721 12370 0
730 12370 0
8890 -8650 0
9610 -8650 0
-8890 -9610 8650 0
-8890 10330 0
-8890 11770 0
8890 -10330 -11770 0
-9610 11050 0
-9610 12490 0
9610 -11050 -12490 0
-121 130 -10330 0
121 10330 0
-130 10330 0
-841 850 -11050 0
841 11050 0
-850 11050 0
121 -130 -11770 0
-121 11770 0
130 11770 0
841 -850 -12490 0
-841 12490 0
850 12490 0
9010 -8650 0
9730 -8650 0
-9010 -9730 8650 0
-9010 10450 0
-9010 11890 0
9010 -10450 -11890 0
-9730 11170 0
-9730 12610 0
9730 -11170 -12610 0
-241 250 -10450 0
241 10450 0
-250 10450 0
-961 970 -11170 0
961 11170 0
-970 11170 0
241 -250 -11890 0
-241 11890 0
250 11890 0
961 -970 -12610 0
-961 12610 0
970 12610 0
9130 -8650 0
9850 -8650 0
-9130 -9850 8650 0
-9130 10570 0
-9130 12010 0
9130 -10570 -12010 0
-9850 11290 0
-9850 12730 0
9850 -11290 -12730 0
-361 370 -10570 0
361 10570 0
-370 10570 0
-1081 1090 -11290 0
1081 11290 0
-1090 11290 0
361 -370 -12010 0
-361 12010 0
370 12010 0
1081 -1090 -12730 0
-1081 12730 0
1090 12730 0
9250 -8650 0
9970 -8650 0
-9250 -9970 8650 0
-9250 10690 0
-9250 12130 0
9250 -10690 -12130 0
-9970 11410 0
-9970 12850 0
9970 -11410 -12850 0
-481 490 -10690 0
481 10690 0
-490 10690 0
-1201 1210 -11410 0
1201 11410 0
-1210 11410 0
481 -490 -12130 0
-481 12130 0
490 12130 0
1201 -1210 -12850 0
-1201 12850 0
1210 12850 0
9370 -8650 0
10090 -8650 0
-9370 -10090 8650 0
-9370 10810 0
-9370 12250 0
9370 -10810 -12250 0
-10090 11530 0
-10090 12970 0
10090 -11530 -12970 0
-601 610 -10810 0
601 10810 0
-610 10810 0
-1321 1330 -11530 0
1321 11530 0
-1330 11530 0
601 -610 -12250 0
-601 12250 0
610 12250 0
1321 -1330 -12970 0
-1321 12970 0
1330 12970 0
8771 -8651 0
9491 -8651 0
-8771 -9491 8651 0
-8771 10211 0
-8771 11651 0
8771 -10211 -11651 0
-9491 10931 0
-9491 12371 0
9491 -10931 -12371 0
-1 11 -10211 0
1 10211 0
-11 10211 0
-721 731 -10931 0
721 10931 0
-731 10931 0
1 -11 -11651 0
-1 11651 0
11 11651 0
721 -731 -12371 0
-721 12371 0
731 12371 0
8891 -8651 0
9611 -8651 0
-8891 -9611 8651 0
-8891 10331 0
-8891 11771 0
8891 -10331 -11771 0
-9611 11051 0
-9611 12491 0
9611 -11051 -12491 0
-121 131 -10331 0
121 10331 0
-131 10331 0
-841 851 -11051 0
841 11051 0
-851 11051 0
121 -131 -11771 0
-121 11771 0
131 11771 0
841 -851 -12491 0
-841 12491 0
851 12491 0
9011 -8651 0
9731 -8651 0
-9011 -9731 8651 0
-9011 10451 0
-9011 11891 0
9011 -10451 -11891 0
-9731 11171 0
-9731 12611 0
9731 -11171 -12611 0
-241 251 -10451 0
241 10451 0
-251 10451 0
-961 971 -11171 0
961 11171 0
-971 11171 0
241 -251 -11891 0
-241 11891 0
251 11891 0
961 -971 -12611 0
-961 12611 0
971 12611 0
9131 -8651 0
9851 -8651 0
-9131 -9851 8651 0
-9131 10571 0
-9131 12011 0
9131 -10571 -12011 0
-9851 11291 0
-9851 12731 0
9851 -11291 -12731 0
-361 371 -10571 0
361 10571 0
-371 10571 0
-1081 1091 -11291 0
1081 11291 0
-1091 11291 0
361 -371 -12011 0
-361 12011 0
371 12011 0
1081 -1091 -12731 0
-1081 12731 0
1091 12731 0
9251 -8651 0
9971 -8651 0
-9251 -9971 8651 0
-9251 10691 0
-9251 12131 0
9251 -10691 -12131 0
-9971 11411 0
-9971 12851 0
9971 -11411 -12851 0
-481 491 -10691 0
481 10691 0
-491 10691 0
-1201 1211 -11411 0
1201 11411 0
-1211 11411 0
481 -491 -12131 0
-481 12131 0
491 12131 0
1201 -1211 -12851 0
-1201 12851 0
1211 12851 0
9371 -8651 0
10091 -8651 0
-9371 -10091 8651 0
-9371 10811 0
-9371 12251 0
9371 -10811 -12251 0
-10091 11531 0
-10091 12971 0
10091 -11531 -12971 0
-601 611 -10811 0
601 10811 0
-611 10811 0
-1321 1331 -11531 0
1321 11531 0
-1331 11531 0
601 -611 -12251 0
-601 12251 0
611 12251 0
1321 -1331 -12971 0
-1321 12971 0
1331 12971 0
8772 -8652 0
9492 -8652 0
-8772 -9492 8652 0
-8772 10212 0
-8772 11652 0
8772 -10212 -11652 0
-9492 10932 0
-9492 12372 0
9492 -10932 -12372 0
-1 12 -10212 0
1 10212 0
-12 10212 0
-721 732 -10932 0
721 10932 0
-732 10932 0
1 -12 -11652 0
-1 11652 0
12 11652 0
721 -732 -12372 0
-721 12372 0
732 12372 0
8892 -8652 0
9612 -8652 0
-8892 -9612 8652 0
-8892 10332 0
-8892 11772 0
8892 -10332 -11772 0
-9612 11052 0
-9612 12492 0
9612 -11052 -12492 0
-121 132 -10332 0
121 10332 0
-132 10332 0
-841 852 -11052 0
841 11052 0
-852 11052 0
121 -132 -11772 0
-121 11772 0
132 11772 0
841 -852 -12492 0
-841 12492 0
852 12492 0
9012 -8652 0
9732 -8652 0
-9012 -9732 8652 0
-9012 10452 0
-9012 11892 0
9012 -10452 -11892 0
-9732 11172 0
-9732 12612 0
9732 -11172 -12612 0
-241 252 -10452 0
241 10452 0
-252 10452 0
-961 972 -11172 0
961 11172 0
-972 11172 0
241 -252 -11892 0
-241 11892 0
252 11892 0
961 -972 -12612 0
-961 12612 0
972 12612 0
9132 -8652 0
9852 -8652 0
-9132 -9852 8652 0
-9132 10572 0
-9132 12012 0
9132 -10572 -12012 0
-9852 11292 0
-9852 12732 0
9852 -11292 -12732 0
-361 372 -10572 0
361 10572 0
-372 10572 0
-1081 1092 -11292 0
1081 11292 0
-1092 11292 0
361 -372 -12012 0
-361 12012 0
372 12012 0
1081 -1092 -12732 0
-1081 12732 0
1092 12732 0
9252 -8652 0
9972 -8652 0
-9252 -9972 8652 0
-9252 10692 0
-9252 12132 0
9252 -10692 -12132 0
-9972 11412 0
-9972 12852 0
9972 -11412 -12852 0
-481 492 -10692 0
481 10692 0
-492 10692 0
-1201 1212 -11412 0
1201 11412 0
-1212 11412 0
481 -492 -12132 0
-481 12132 0
492 12132 0
1201 -1212 -12852 0
-1201 12852 0
1212 12852 0
9372 -8652 0
10092 -8652 0
-9372 -10092 8652 0
-9372 10812 0
-9372 12252 0
9372 -10812 -12252 0
-10092 11532 0
-10092 12972 0
10092 -11532 -12972 0
-601 612 -10812 0
601 10812 0
-612 10812 0
-1321 1332 -11532 0
1321 11532 0
-1332 11532 0
601 -612 -12252 0
-601 12252 0
612 12252 0
1321 -1332 -12972 0
-1321 12972 0
1332 12972 0
8773 -8653 0
9493 -8653 0
-8773 -9493 8653 0
-8773 10213 0
-8773 11653 0
8773 -10213 -11653 0
-9493 10933 0
-9493 12373 0
9493 -10933 -12373 0
-1 13 -10213 0
1 10213 0
-13 10213 0
-721 733 -10933 0
721 10933 0
-733 10933 0
1 -13 -11653 0
-1 11653 0
13 11653 0
721 -733 -12373 0
-721 12373 0
733 12373 0
8893 -8653 0
9613 -8653 0
-8893 -9613 8653 0
-8893 10333 0
-8893 11773 0
8893 -10333 -11773 0
-9613 11053 0
-9613 12493 0
9613 -11053 -12493 0
-121 133 -10333 0
121 10333 0
-133 10333 0
-841 853 -11053 0
841 11053 0
-853 11053 0
121 -133 -11773 0
-121 11773 0
133 11773 0
841 -853 -12493 0
-841 12493 0
853 12493 0
9013 -8653 0
9733 -8653 0
-9013 -9733 8653 0
-9013 10453 0
-9013 11893 0
9013 -10453 -11893 0
-9733 11173 0
-9733 12613 0
9733 -11173 -12613 0
-241 253 -10453 0
241 10453 0
-253 10453 0
-961 973 -11173 0
961 11173 0
-973 11173 0
241 -253 -11893 0
-241 11893 0
253 11893 0
961 -973 -12613 0
-961 12613 0
973 12613 0
9133 -8653 0
9853 -8653 0
-9133 -9853 8653 0
-9133 10573 0
-9133 12013 0
9133 -10573 -12013 0
-9853 11293 0
-9853 12733 0
9853 -11293 -12733 0
-361 373 -10573 0
361 10573 0
-373 10573 0
-1081 1093 -11293 0
1081 11293 0
-1093 11293 0
361 -373 -12013 0
-361 12013 0
373 12013 0
1081 -1093 -12733 0
-1081 12733 0
1093 12733 0
9253 -8653 0
9973 -8653 0
-9253 -9973 8653 0
-9253 10693 0
-9253 12133 0
9253 -10693 -12133 0
-9973 11413 0
-9973 12853 0
9973 -11413 -12853 0
-481 493 -10693 0
481 10693 0
-493 10693 0
-1201 1213 -11413 0
1201 11413 0
-1213 11413 0
481 -493 -12133 0
-481 12133 0
493 12133 0
1201 -1213 -12853 0
-1201 12853 0
1213 12853 0
9373 -8653 0
10093 -8653 0
-9373 -10093 8653 0
-9373 10813 0
-9373 12253 0
9373 -10813 -12253 0
-10093 11533 0
-10093 12973 0
10093 -11533 -12973 0
-601 613 -10813 0
601 10813 0
-613 10813 0
-1321 1333 -11533 0
1321 11533 0
-1333 11533 0
601 -613 -12253 0
-601 12253 0
613 12253 0
1321 -1333 -12973 0
-1321 12973 0
1333 12973 0
8774 -8654 0
9494 -8654 0
-8774 -9494 8654 0
-8774 10214 0
-8774 11654 0
8774 -10214 -11654 0
-9494 10934 0
-9494 12374 0
9494 -10934 -12374 0
-1 14 -10214 0
1 10214 0
-14 10214 0
-721 734 -10934 0
721 10934 0
-734 10934 0
1 -14 -11654 0
-1 11654 0
14 11654 0
721 -734 -12374 0
-721 12374 0
734 12374 0
8894 -8654 0
9614 -8654 0
-8894 -9614 8654 0
-8894 10334 0
-8894 11774 0
8894 -10334 -11774 0
-9614 11054 0
-9614 12494 0
9614 -11054 -12494 0
-121 134 -10334 0
121 10334 0
-134 10334 0
-841 854 -11054 0
841 11054 0
-854 11054 0
121 -134 -11774 0
-121 11774 0
134 11774 0
841 -854 -12494 0
-841 12494 0
854 12494 0
9014 -8654 0
9734 -8654 0
-9014 -9734 8654 0
-9014 10454 0
-9014 11894 0
9014 -10454 -11894 0
-9734 11174 0
-9734 12614 0
9734 -11174 -12614 0
-241 254 -10454 0
241 10454 0
-254 10454 0
-961 974 -11174 0
961 11174 0
-974 11174 0
241 -254 -11894 0
-241 11894 0
254 11894 0
961 -974 -12614 0
-961 12614 0
974 12614 0
9134 -8654 0
9854 -8654 0
-9134 -9854 8654 0
-9134 10574 0
-9134 12014 0
9134 -10574 -12014 0
-9854 11294 0
-9854 12734 0
9854 -11294 -12734 0
-361 374 -10574 0
361 10574 0
-374 10574 0
-1081 1094 -11294 0
1081 11294 0
-1094 11294 0
361 -374 -12014 0
-361 12014 0
374 12014 0
1081 -1094 -12734 0
-1081 12734 0
1094 12734 0
9254 -8654 0
9974 -8654 0
-9254 -9974 8654 0
-9254 10694 0
-9254 12134 0
9254 -10694 -12134 0
-9974 11414 0
-9974 12854 0
9974 -11414 -12854 0
-481 494 -10694 0
481 10694 0
-494 10694 0
-1201 1214 -11414 0
1201 11414 0
-1214 11414 0
481 -494 -12134 0
-481 12134 0
494 12134 0
1201 -1214 -12854 0
-1201 12854 0
1214 12854 0
9374 -8654 0
10094 -8654 0
-9374 -10094 8654 0
-9374 10814 0
-9374 12254 0
9374 -10814 -12254 0
-10094 11534 0
-10094 12974 0
10094 -11534 -12974 0
-601 614 -10814 0
601 10814 0
-614 10814 0
-1321 1334 -11534 0
1321 11534 0
-1334 11534 0
601 -614 -12254 0
-601 12254 0
614 12254 0
1321 -1334 -12974 0
-1321 12974 0
1334 12974 0
8775 -8655 0
9495 -8655 0
-8775 -9495 8655 0
-8775 10215 0
-8775 11655 0
8775 -10215 -11655 0
-9495 10935 0
-9495 12375 0
9495 -10935 -12375 0
-1 15 -10215 0
1 10215 0
-15 10215 0
-721 735 -10935 0
721 10935 0
-735 10935 0
1 -15 -11655 0
-1 11655 0
15 11655 0
721 -735 -12375 0
-721 12375 0
735 12375 0
8895 -8655 0
9615 -8655 0
-8895 -9615 8655 0
-8895 10335 0
-8895 11775 0
8895 -10335 -11775 0
-9615 11055 0
-9615 12495 0
9615 -11055 -12495 0
-121 135 -10335 0
121 10335 0
-135 10335 0
-841 855 -11055 0
841 11055 0
-855 11055 0
121 -135 -11775 0
-121 11775 0
135 11775 0
841 -855 -12495 0
-841 12495 0
855 12495 0
9015 -8655 0
9735 -8655 0
-9015 -9735 8655 0
-9015 10455 0
-9015 11895 0
9015 -10455 -11895 0
-9735 11175 0
-9735 12615 0
9735 -11175 -12615 0
-241 255 -10455 0
241 10455 0
-255 10455 0
-961 975 -11175 0
961 11175 0
-975 11175 0
241 -255 -11895 0
-241 11895 0
255 11895 0
961 -975 -12615 0
-961 12615 0
975 12615 0
9135 -8655 0
9855 -8655 0
-9135 -9855 8655 0
-9135 10575 0
-9135 12015 0
9135 -10575 -12015 0
-9855 11295 0
-9855 12735 0
9855 -11295 -12735 0
-361 375 -10575 0
361 10575 0
-375 10575 0
-1081 1095 -11295 0
1081 11295 0
-1095 11295 0
361 -375 -12015 0
-361 12015 0
375 12015 0
1081 -1095 -12735 0
-1081 12735 0
1095 12735 0
9255 -8655 0
9975 -8655 0
-9255 -9975 8655 0
-9255 10695 0
-9255 12135 0
9255 -10695 -12135 0
-9975 11415 0
-9975 12855 0
9975 -11415 -12855 0
-481 495 -10695 0
481 10695 0
-495 10695 0
-1201 1215 -11415 0
1201 11415 0
-1215 11415 0
481 -495 -12135 0
-481 12135 0
495 12135 0
1201 -1215 -12855 0
-1201 12855 0
1215 12855 0
9375 -8655 0
10095 -8655 0
-9375 -10095 8655 0
-9375 10815 0
-9375 12255 0
9375 -10815 -12255 0
-10095 11535 0
-10095 12975 0
10095 -11535 -12975 0
-601 615 -10815 0
601 10815 0
-615 10815 0
-1321 1335 -11535 0
1321 11535 0
-1335 11535 0
601 -615 -12255 0
-601 12255 0
615 12255 0
1321 -1335 -12975 0
-1321 12975 0
1335 12975 0
8776 -8656 0
9496 -8656 0
-8776 -9496 8656 0
-8776 10216 0
-8776 11656 0
8776 -10216 -11656 0
-9496 10936 0
-9496 12376 0
9496 -10936 -12376 0
-1 16 -10216 0
1 10216 0
-16 10216 0
-721 736 -10936 0
721 10936 0
-736 10936 0
1 -16 -11656 0
-1 11656 0
16 11656 0
721 -736 -12376 0
-721 12376 0
736 12376 0
8896 -8656 0
9616 -8656 0
-8896 -9616 8656 0
-8896 10336 0
-8896 11776 0
8896 -10336 -11776 0
-9616 11056 0
-9616 12496 0
9616 -11056 -12496 0
-121 136 -10336 0
121 10336 0
-136 10336 0
-841 856 -11056 0
841 11056 0
-856 11056 0
121 -136 -11776 0
-121 11776 0
136 11776 0
841 -856 -12496 0
-841 12496 0
856 12496 0
9016 -8656 0
9736 -8656 0
-9016 -9736 8656 0
-9016 10456 0
-9016 11896 0
9016 -10456 -11896 0
-9736 11176 0
-9736 12616 0
9736 -11176 -12616 0
-241 256 -10456 0
241 10456 0
-256 10456 0
-961 976 -11176 0
961 11176 0
-976 11176 0
241 -256 -11896 0
-241 11896 0
256 11896 0
961 -976 -12616 0
-961 12616 0
976 12616 0
9136 -8656 0
9856 -8656 0
-9136 -9856 8656 0
-9136 10576 0
-9136 12016 0
9136 -10576 -12016 0
-9856 11296 0
-9856 12736 0
9856 -11296 -12736 0
-361 376 -10576 0
361 10576 0
-376 10576 0
-1081 1096 -11296 0
1081 11296 0
-1096 11296 0
361 -376 -12016 0
-361 12016 0
376 12016 0
1081 -1096 -12736 0
-1081 12736 0
1096 12736 0
9256 -8656 0
9976 -8656 0
-9256 -9976 8656 0
-9256 10696 0
-9256 12136 0
9256 -10696 -12136 0
-9976 11416 0
-9976 12856 0
9976 -11416 -12856 0
-481 496 -10696 0
481 10696 0
-496 10696 0
-1201 1216 -11416 0
1201 11416 0
-1216 11416 0
481 -496 -12136 0
-481 12136 0
496 12136 0
1201 -1216 -12856 0
-1201 12856 0
1216 12856 0
9376 -8656 0
10096 -8656 0
-9376 -10096 8656 0
-9376 10816 0
-9376 12256 0
9376 -10816 -12256 0
-10096 11536 0
-10096 12976 0
10096 -11536 -12976 0
-601 616 -10816 0
601 10816 0
-616 10816 0
-1321 1336 -11536 0
1321 11536 0
-1336 11536 0
601 -616 -12256 0
-601 12256 0
616 12256 0
1321 -1336 -12976 0
-1321 12976 0
1336 12976 0
8777 -8657 0
9497 -8657 0
-8777 -9497 8657 0
-8777 10217 0
-8777 11657 0
8777 -10217 -11657 0
-9497 10937 0
-9497 12377 0
9497 -10937 -12377 0
-1 17 -10217 0
1 10217 0
-17 10217 0
-721 737 -10937 0
721 10937 0
-737 10937 0
1 -17 -11657 0
-1 11657 0
17 11657 0
721 -737 -12377 0
-721 12377 0
737 12377 0
8897 -8657 0
9617 -8657 0
-8897 -9617 8657 0
-8897 10337 0
-8897 11777 0
8897 -10337 -11777 0
-9617 11057 0
-9617 12497 0
9617 -11057 -12497 0
-121 137 -10337 0
121 10337 0
-137 10337 0
-841 857 -11057 0
841 11057 0
-857 11057 0
121 -137 -11777 0
-121 11777 0
137 11777 0
841 -857 -12497 0
-841 12497 0
857 12497 0
9017 -8657 0
9737 -8657 0
-9017 -9737 8657 0
-9017 10457 0
-9017 11897 0
9017 -10457 -11897 0
-9737 11177 0
-9737 12617 0
9737 -11177 -12617 0
-241 257 -10457 0
241 10457 0
-257 10457 0
-961 977 -11177 0
961 11177 0
-977 11177 0
241 -257 -11897 0
-241 11897 0
257 11897 0
961 -977 -12617 0
-961 12617 0
977 12617 0
9137 -8657 0
9857 -8657 0
-9137 -9857 8657 0
-9137 10577 0
-9137 12017 0
9137 -10577 -12017 0
-9857 11297 0
-9857 12737 0
9857 -11297 -12737 0
-361 377 -10577 0
361 10577 0
-377 10577 0
-1081 1097 -11297 0
1081 11297 0
-1097 11297 0
361 -377 -12017 0
-361 12017 0
377 12017 0
1081 -1097 -12737 0
-1081 12737 0
1097 12737 0
9257 -8657 0
9977 -8657 0
-9257 -9977 8657 0
-9257 10697 0
-9257 12137 0
9257 -10697 -12137 0
-9977 11417 0
-9977 12857 0
9977 -11417 -12857 0
-481 497 -10697 0
481 10697 0
-497 10697 0
-1201 1217 -11417 0
1201 11417 0
-1217 11417 0
481 -497 -12137 0
-481 12137 0
497 12137 0
1201 -1217 -12857 0
-1201 12857 0
1217 12857 0
9377 -8657 0
10097 -8657 0
-9377 -10097 8657 0
-9377 10817 0
-9377 12257 0
9377 -10817 -12257 0
-10097 11537 0
-10097 12977 0
10097 -11537 -12977 0
-601 617 -10817 0
601 10817 0
-617 10817 0
-1321 1337 -11537 0
1321 11537 0
-1337 11537 0
601 -617 -12257 0
-601 12257 0
617 12257 0
1321 -1337 -12977 0
-1321 12977 0
1337 12977 0
8778 -8658 0
9498 -8658 0
-8778 -9498 8658 0
-8778 10218 0
-8778 11658 0
8778 -10218 -11658 0
-9498 10938 0
-9498 12378 0
9498 -10938 -12378 0
-1 18 -10218 0
1 10218 0
-18 10218 0
-721 738 -10938 0
721 10938 0
-738 10938 0
1 -18 -11658 0
-1 11658 0
18 11658 0
721 -738 -12378 0
-721 12378 0
738 12378 0
8898 -8658 0
9618 -8658 0
-8898 -9618 8658 0
-8898 10338 0
-8898 11778 0
8898 -10338 -11778 0
-9618 11058 0
-9618 12498 0
9618 -11058 -12498 0
-121 138 -10338 0
121 10338 0
-138 10338 0
-841 858 -11058 0
841 11058 0
-858 11058 0
121 -138 -11778 0
-121 11778 0
138 11778 0
841 -858 -12498 0
-841 12498 0
858 12498 0
9018 -8658 0
9738 -8658 0
-9018 -9738 8658 0
-9018 10458 0
-9018 11898 0
9018 -10458 -11898 0
-9738 11178 0
-9738 12618 0
9738 -11178 -12618 0
-241 258 -10458 0
241 10458 0
-258 10458 0
-961 978 -11178 0
961 11178 0
-978 11178 0
241 -258 -11898 0
-241 11898 0
258 11898 0
961 -978 -12618 0
-961 12618 0
978 12618 0
9138 -8658 0
9858 -8658 0
-9138 -9858 8658 0
-9138 10578 0
-9138 12018 0
9138 -10578 -12018 0
-9858 11298 0
-9858 12738 0
9858 -11298 -12738 0
-361 378 -10578 0
361 10578 0
-378 10578 0
-1081 1098 -11298 0
1081 11298 0
-1098 11298 0
361 -378 -12018 0
-361 12018 0
378 12018 0
1081 -1098 -12738 0
-1081 12738 0
1098 12738 0
9258 -8658 0
9978 -8658 0
-9258 -9978 8658 0
-9258 10698 0
-9258 12138 0
9258 -10698 -12138 0
-9978 11418 0
-9978 12858 0
9978 -11418 -12858 0
-481 498 -10698 0
481 10698 0
-498 10698 0
-1201 1218 -11418 0
1201 11418 0
-1218 11418 0
481 -498 -12138 0
-481 12138 0
498 12138 0
1201 -1218 -12858 0
-1201 12858 0
1218 12858 0
9378 -8658 0
10098 -8658 0
-9378 -10098 8658 0
-9378 10818 0
-9378 12258 0
9378 -10818 -12258 0
-10098 11538 0
-10098 12978 0
10098 -11538 -12978 0
-601 618 -10818 0
601 10818 0
-618 10818 0
-1321 1338 -11538 0
1321 11538 0
-1338 11538 0
601 -618 -12258 0
-601 12258 0
618 12258 0
1321 -1338 -12978 0
-1321 12978 0
1338 12978 0
8779 -8659 0
9499 -8659 0
-8779 -9499 8659 0
-8779 10219 0
-8779 11659 0
8779 -10219 -11659 0
-9499 10939 0
-9499 12379 0
9499 -10939 -12379 0
-1 19 -10219 0
1 10219 0
-19 10219 0
-721 739 -10939 0
721 10939 0
-739 10939 0
1 -19 -11659 0
-1 11659 0
19 11659 0
721 -739 -12379 0
-721 12379 0
739 12379 0
8899 -8659 0
9619 -8659 0
-8899 -9619 8659 0
-8899 10339 0
-8899 11779 0
8899 -10339 -11779 0
-9619 11059 0
-9619 12499 0
9619 -11059 -12499 0
-121 139 -10339 0
121 10339 0
-139 10339 0
-841 859 -11059 0
841 11059 0
-859 11059 0
121 -139 -11779 0
-121 11779 0
139 11779 0
841 -859 -12499 0
-841 12499 0
859 12499 0
9019 -8659 0
9739 -8659 0
-9019 -9739 8659 0
-9019 10459 0
-9019 11899 0
9019 -10459 -11899 0
-9739 11179 0
-9739 12619 0
9739 -11179 -12619 0
-241 259 -10459 0
241 10459 0
-259 10459 0
-961 979 -11179 0
961 11179 0
-979 11179 0
241 -259 -11899 0
-241 11899 0
259 11899 0
961 -979 -12619 0
-961 12619 0
979 12619 0
9139 -8659 0
9859 -8659 0
-9139 -9859 8659 0
-9139 10579 0
-9139 12019 0
9139 -10579 -12019 0
-9859 11299 0
-9859 12739 0
9859 -11299 -12739 0
-361 379 -10579 0
361 10579 0
-379 10579 0
-1081 1099 -11299 0
1081 11299 0
-1099 11299 0
361 -379 -12019 0
-361 12019 0
379 12019 0
1081 -1099 -12739 0
-1081 12739 0
1099 12739 0
9259 -8659 0
9979 -8659 0
-9259 -9979 8659 0
-9259 10699 0
-9259 12139 0
9259 -10699 -12139 0
-9979 11419 0
-9979 12859 0
9979 -11419 -12859 0
-481 499 -10699 0
481 10699 0
-499 10699 0
-1201 1219 -11419 0
1201 11419 0
-1219 11419 0
481 -499 -12139 0
-481 12139 0
499 12139 0
1201 -1219 -12859 0
-1201 12859 0
1219 12859 0
9379 -8659 0
10099 -8659 0
-9379 -10099 8659 0
-9379 10819 0
-9379 12259 0
9379 -10819 -12259 0
-10099 11539 0
-10099 12979 0
10099 -11539 -12979 0
-601 619 -10819 0
601 10819 0
-619 10819 0
-1321 1339 -11539 0
1321 11539 0
-1339 11539 0
601 -619 -12259 0
-601 12259 0
619 12259 0
1321 -1339 -12979 0
-1321 12979 0
1339 12979 0
8780 -8660 0
9500 -8660 0
-8780 -9500 8660 0
-8780 10220 0
-8780 11660 0
8780 -10220 -11660 0
-9500 10940 0
-9500 12380 0
9500 -10940 -12380 0
-1 20 -10220 0
1 10220 0
-20 10220 0
-721 740 -10940 0
721 10940 0
-740 10940 0
1 -20 -11660 0
-1 11660 0
20 11660 0
721 -740 -12380 0
-721 12380 0
740 12380 0
8900 -8660 0
9620 -8660 0
-8900 -9620 8660 0
-8900 10340 0
-8900 11780 0
8900 -10340 -11780 0
-9620 11060 0
-9620 12500 0
9620 -11060 -12500 0
-121 140 -10340 0
121 10340 0
-140 10340 0
-841 860 -11060 0
841 11060 0
-860 11060 0
121 -140 -11780 0
-121 11780 0
140 11780 0
841 -860 -12500 0
-841 12500 0
860 12500 0
9020 -8660 0
9740 -8660 0
-9020 -9740 8660 0
-9020 10460 0
-9020 11900 0
9020 -10460 -11900 0
-9740 11180 0
-9740 12620 0
9740 -11180 -12620 0
-241 260 -10460 0
241 10460 0
-260 10460 0
-961 980 -11180 0
961 11180 0
-980 11180 0
241 -260 -11900 0
-241 11900 0
260 11900 0
961 -980 -12620 0
-961 12620 0
980 12620 0
9140 -8660 0
9860 -8660 0
-9140 -9860 8660 0
-9140 10580 0
-9140 12020 0
9140 -10580 -12020 0
-9860 11300 0
-9860 12740 0
9860 -11300 -12740 0
-361 380 -10580 0
361 10580 0
-380 10580 0
-1081 1100 -11300 0
1081 11300 0
-1100 11300 0
361 -380 -12020 0
-361 12020 0
380 12020 0
1081 -1100 -12740 0
-1081 12740 0
1100 12740 0
9260 -8660 0
9980 -8660 0
-9260 -9980 8660 0
-9260 10700 0
-9260 12140 0
9260 -10700 -12140 0
-9980 11420 0
-9980 12860 0
9980 -11420 -12860 0
-481 500 -10700 0
481 10700 0
-500 10700 0
-1201 1220 -11420 0
1201 11420 0
-1220 11420 0
481 -500 -12140 0
-481 12140 0
500 12140 0
1201 -1220 -12860 0
-1201 12860 0
1220 12860 0
9380 -8660 0
10100 -8660 0
-9380 -10100 8660 0
-9380 10820 0
-9380 12260 0
9380 -10820 -12260 0
-10100 11540 0
-10100 12980 0
10100 -11540 -12980 0
-601 620 -10820 0
601 10820 0
-620 10820 0
-1321 1340 -11540 0
1321 11540 0
-1340 11540 0
601 -620 -12260 0
-601 12260 0
620 12260 0
1321 -1340 -12980 0
-1321 12980 0
1340 12980 0
8781 -8661 0
9501 -8661 0
-8781 -9501 8661 0
-8781 10221 0
-8781 11661 0
8781 -10221 -11661 0
-9501 10941 0
-9501 12381 0
9501 -10941 -12381 0
-1 21 -10221 0
1 10221 0
-21 10221 0
-721 741 -10941 0
721 10941 0
-741 10941 0
1 -21 -11661 0
-1 11661 0
21 11661 0
721 -741 -12381 0
-721 12381 0
741 12381 0
8901 -8661 0
9621 -8661 0
-8901 -9621 8661 0
-8901 10341 0
-8901 11781 0
8901 -10341 -11781 0
-9621 11061 0
-9621 12501 0
9621 -11061 -12501 0
-121 141 -10341 0
121 10341 0
-141 10341 0
-841 861 -11061 0
841 11061 0
-861 11061 0
121 -141 -11781 0
-121 11781 0
141 11781 0
841 -861 -12501 0
-841 12501 0
861 12501 0
9021 -8661 0
9741 -8661 0
-9021 -9741 8661 0
-9021 10461 0
-9021 11901 0
9021 -10461 -11901 0
-9741 11181 0
-9741 12621 0
9741 -11181 -12621 0
-241 261 -10461 0
241 10461 0
-261 10461 0
-961 981 -11181 0
961 11181 0
-981 11181 0
241 -261 -11901 0
-241 11901 0
261 11901 0
961 -981 -12621 0
-961 12621 0
981 12621 0
9141 -8661 0
9861 -8661 0
-9141 -9861 8661 0
-9141 10581 0
-9141 12021 0
9141 -10581 -12021 0
-9861 11301 0
-9861 12741 0
9861 -11301 -12741 0
-361 381 -10581 0
361 10581 0
-381 10581 0
-1081 1101 -11301 0
1081 11301 0
-1101 11301 0
361 -381 -12021 0
-361 12021 0
381 12021 0
1081 -1101 -12741 0
-1081 12741 0
1101 12741 0
9261 -8661 0
9981 -8661 0
-9261 -9981 8661 0
-9261 10701 0
-9261 12141 0
9261 -10701 -12141 0
-9981 11421 0
-9981 12861 0
9981 -11421 -12861 0
-481 501 -10701 0
481 10701 0
-501 10701 0
-1201 1221 -11421 0
1201 11421 0
-1221 11421 0
481 -501 -12141 0
-481 12141 0
501 12141 0
1201 -1221 -12861 0
-1201 12861 0
1221 12861 0
9381 -8661 0
10101 -8661 0
-9381 -10101 8661 0
-9381 10821 0
-9381 12261 0
9381 -10821 -12261 0
-10101 11541 0
-10101 12981 0
10101 -11541 -12981 0
-601 621 -10821 0
601 10821 0
-621 10821 0
-1321 1341 -11541 0
1321 11541 0
-1341 11541 0
601 -621 -12261 0
-601 12261 0
621 12261 0
1321 -1341 -12981 0
-1321 12981 0
1341 12981 0
8782 -8662 0
9502 -8662 0
-8782 -9502 8662 0
-8782 10222 0
-8782 11662 0
8782 -10222 -11662 0
-9502 10942 0
-9502 12382 0
9502 -10942 -12382 0
-1 22 -10222 0
1 10222 0
-22 10222 0
-721 742 -10942 0
721 10942 0
-742 10942 0
1 -22 -11662 0
-1 11662 0
22 11662 0
721 -742 -12382 0
-721 12382 0
742 12382 0
8902 -8662 0
9622 -8662 0
-8902 -9622 8662 0
-8902 10342 0
-8902 11782 0
8902 -10342 -11782 0
-9622 11062 0
-9622 12502 0
9622 -11062 -12502 0
-121 142 -10342 0
121 10342 0
-142 10342 0
-841 862 -11062 0
841 11062 0
-862 11062 0
121 -142 -11782 0
-121 11782 0
142 11782 0
841 -862 -12502 0
-841 12502 0
862 12502 0
9022 -8662 0
9742 -8662 0
-9022 -9742 8662 0
-9022 10462 0
-9022 11902 0
9022 -10462 -11902 0
-9742 11182 0
-9742 12622 0
9742 -11182 -12622 0
-241 262 -10462 0
241 10462 0
-262 10462 0
-961 982 -11182 0
961 11182 0
-982 11182 0
241 -262 -11902 0
-241 11902 0
262 11902 0
961 -982 -12622 0
-961 12622 0
982 12622 0
9142 -8662 0
9862 -8662 0
-9142 -9862 8662 0
-9142 10582 0
-9142 12022 0
9142 -10582 -12022 0
-9862 11302 0
-9862 12742 0
9862 -11302 -12742 0
-361 382 -10582 0
361 10582 0
-382 10582 0
-1081 1102 -11302 0
1081 11302 0
-1102 11302 0
361 -382 -12022 0
-361 12022 0
382 12022 0
1081 -1102 -12742 0
-1081 12742 0
1102 12742 0
9262 -8662 0
9982 -8662 0
-9262 -9982 8662 0
-9262 10702 0
-9262 12142 0
9262 -10702 -12142 0
-9982 11422 0
-9982 12862 0
9982 -11422 -12862 0
-481 502 -10702 0
481 10702 0
-502 10702 0
-1201 1222 -11422 0
1201 11422 0
-1222 11422 0
481 -502 -12142 0
-481 12142 0
502 12142 0
1201 -1222 -12862 0
-1201 12862 0
1222 12862 0
9382 -8662 0
10102 -8662 0
-9382 -10102 8662 0
-9382 10822 0
-9382 12262 0
9382 -10822 -12262 0
-10102 11542 0
-10102 12982 0
10102 -11542 -12982 0
-601 622 -10822 0
601 10822 0
-622 10822 0
-1321 1342 -11542 0
1321 11542 0
-1342 11542 0
601 -622 -12262 0
-601 12262 0
622 12262 0
1321 -1342 -12982 0
-1321 12982 0
1342 12982 0
8783 -8663 0
9503 -8663 0
-8783 -9503 8663 0
-8783 10223 0
-8783 11663 0
8783 -10223 -11663 0
-9503 10943 0
-9503 12383 0
9503 -10943 -12383 0
-1 23 -10223 0
1 10223 0
-23 10223 0
-721 743 -10943 0
721 10943 0
-743 10943 0
1 -23 -11663 0
-1 11663 0
23 11663 0
721 -743 -12383 0
-721 12383 0
743 12383 0
8903 -8663 0
9623 -8663 0
-8903 -9623 8663 0
-8903 10343 0
-8903 11783 0
8903 -10343 -11783 0
-9623 11063 0
-9623 12503 0
9623 -11063 -12503 0
-121 143 -10343 0
121 10343 0
-143 10343 0
-841 863 -11063 0
841 11063 0
-863 11063 0
121 -143 -11783 0
-121 11783 0
143 11783 0
841 -863 -12503 0
-841 12503 0
863 12503 0
9023 -8663 0
9743 -8663 0
-9023 -9743 8663 0
-9023 10463 0
-9023 11903 0
9023 -10463 -11903 0
-9743 11183 0
-9743 12623 0
9743 -11183 -12623 0
-241 263 -10463 0
241 10463 0
-263 10463 0
-961 983 -11183 0
961 11183 0
-983 11183 0
241 -263 -11903 0
-241 11903 0
263 11903 0
961 -983 -12623 0
-961 12623 0
983 12623 0
9143 -8663 0
9863 -8663 0
-9143 -9863 8663 0
-9143 10583 0
-9143 12023 0
9143 -10583 -12023 0
-9863 11303 0
-9863 12743 0
9863 -11303 -12743 0
-361 383 -10583 0
361 10583 0
-383 10583 0
-1081 1103 -11303 0
1081 11303 0
-1103 11303 0
361 -383 -12023 0
-361 12023 0
383 12023 0
1081 -1103 -12743 0
-1081 12743 0
1103 12743 0
9263 -8663 0
9983 -8663 0
-9263 -9983 8663 0
-9263 10703 0
-9263 12143 0
9263 -10703 -12143 0
-9983 11423 0
-9983 12863 0
9983 -11423 -12863 0
-481 503 -10703 0
481 10703 0
-503 10703 0
-1201 1223 -11423 0
1201 11423 0
-1223 11423 0
481 -503 -12143 0
-481 12143 0
503 12143 0
1201 -1223 -12863 0
-1201 12863 0
1223 12863 0
9383 -8663 0
10103 -8663 0
-9383 -10103 8663 0
-9383 10823 0
-9383 12263 0
9383 -10823 -12263 0
-10103 11543 0
-10103 12983 0
10103 -11543 -12983 0
-601 623 -10823 0
601 10823 0
-623 10823 0
-1321 1343 -11543 0
1321 11543 0
-1343 11543 0
601 -623 -12263 0
-601 12263 0
623 12263 0
1321 -1343 -12983 0
-1321 12983 0
1343 12983 0
8784 -8664 0
9504 -8664 0
-8784 -9504 8664 0
-8784 10224 0
-8784 11664 0
8784 -10224 -11664 0
-9504 10944 0
-9504 12384 0
9504 -10944 -12384 0
-1 24 -10224 0
1 10224 0
-24 10224 0
-721 744 -10944 0
721 10944 0
-744 10944 0
1 -24 -11664 0
-1 11664 0
24 11664 0
721 -744 -12384 0
-721 12384 0
744 12384 0
8904 -8664 0
9624 -8664 0
-8904 -9624 8664 0
-8904 10344 0
-8904 11784 0
8904 -10344 -11784 0
-9624 11064 0
-9624 12504 0
9624 -11064 -12504 0
-121 144 -10344 0
121 10344 0
-144 10344 0
-841 864 -11064 0
841 11064 0
-864 11064 0
121 -144 -11784 0
-121 11784 0
144 11784 0
841 -864 -12504 0
-841 12504 0
864 12504 0
9024 -8664 0
9744 -8664 0
-9024 -9744 8664 0
-9024 10464 0
-9024 11904 0
9024 -10464 -11904 0
-9744 11184 0
-9744 12624 0
9744 -11184 -12624 0
-241 264 -10464 0
241 10464 0
-264 10464 0
-961 984 -11184 0
961 11184 0
-984 11184 0
241 -264 -11904 0
-241 11904 0
264 11904 0
961 -984 -12624 0
-961 12624 0
984 12624 0
9144 -8664 0
9864 -8664 0
-9144 -9864 8664 0
-9144 10584 0
-9144 12024 0
9144 -10584 -12024 0
-9864 11304 0
-9864 12744 0
9864 -11304 -12744 0
-361 384 -10584 0
361 10584 0
-384 10584 0
-1081 1104 -11304 0
1081 11304 0
-1104 11304 0
361 -384 -12024 0
-361 12024 0
384 12024 0
1081 -1104 -12744 0
-1081 12744 0
1104 12744 0
9264 -8664 0
9984 -8664 0
-9264 -9984 8664 0
-9264 10704 0
-9264 12144 0
9264 -10704 -12144 0
-9984 11424 0
-9984 12864 0
9984 -11424 -12864 0
-481 504 -10704 0
481 10704 0
-504 10704 0
-1201 1224 -11424 0
1201 11424 0
-1224 11424 0
481 -504 -12144 0
-481 12144 0
504 12144 0
1201 -1224 -12864 0
-1201 12864 0
1224 12864 0
9384 -8664 0
10104 -8664 0
-9384 -10104 8664 0
-9384 10824 0
-9384 12264 0
9384 -10824 -12264 0
-10104 11544 0
-10104 12984 0
10104 -11544 -12984 0
-601 624 -10824 0
601 10824 0
-624 10824 0
-1321 1344 -11544 0
1321 11544 0
-1344 11544 0
601 -624 -12264 0
-601 12264 0
624 12264 0
1321 -1344 -12984 0
-1321 12984 0
1344 12984 0
8785 -8665 0
9505 -8665 0
-8785 -9505 8665 0
-8785 10225 0
-8785 11665 0
8785 -10225 -11665 0
-9505 10945 0
-9505 12385 0
9505 -10945 -12385 0
-1 25 -10225 0
1 10225 0
-25 10225 0
-721 745 -10945 0
721 10945 0
-745 10945 0
1 -25 -11665 0
-1 11665 0
25 11665 0
721 -745 -12385 0
-721 12385 0
745 12385 0
8905 -8665 0
9625 -8665 0
-8905 -9625 8665 0
-8905 10345 0
-8905 11785 0
8905 -10345 -11785 0
-9625 11065 0
-9625 12505 0
9625 -11065 -12505 0
-121 145 -10345 0
121 10345 0
-145 10345 0
-841 865 -11065 0
841 11065 0
-865 11065 0
121 -145 -11785 0
-121 11785 0
145 11785 0
841 -865 -12505 0
-841 12505 0
865 12505 0
9025 -8665 0
9745 -8665 0
-9025 -9745 8665 0
-9025 10465 0
-9025 11905 0
9025 -10465 -11905 0
-9745 11185 0
-9745 12625 0
9745 -11185 -12625 0
-241 265 -10465 0
241 10465 0
-265 10465 0
-961 985 -11185 0
961 11185 0
-985 11185 0
241 -265 -11905 0
-241 11905 0
265 11905 0
961 -985 -12625 0
-961 12625 0
985 12625 0
9145 -8665 0
9865 -8665 0
-9145 -9865 8665 0
-9145 10585 0
-9145 12025 0
9145 -10585 -12025 0
-9865 11305 0
-9865 12745 0
9865 -11305 -12745 0
-361 385 -10585 0
361 10585 0
-385 10585 0
-1081 1105 -11305 0
1081 11305 0
-1105 11305 0
361 -385 -12025 0
-361 12025 0
385 12025 0
1081 -1105 -12745 0
-1081 12745 0
1105 12745 0
9265 -8665 0
9985 -8665 0
-9265 -9985 8665 0
-9265 10705 0
-9265 12145 0
9265 -10705 -12145 0
-9985 11425 0
-9985 12865 0
9985 -11425 -12865 0
-481 505 -10705 0
481 10705 0
-505 10705 0
-1201 1225 -11425 0
1201 11425 0
-1225 11425 0
481 -505 -12145 0
-481 12145 0
505 12145 0
1201 -1225 -12865 0
-1201 12865 0
1225 12865 0
9385 -8665 0
10105 -8665 0
-9385 -10105 8665 0
-9385 10825 0
-9385 12265 0
9385 -10825 -12265 0
-10105 11545 0
-10105 12985 0
10105 -11545 -12985 0
-601 625 -10825 0
601 10825 0
-625 10825 0
-1321 1345 -11545 0
1321 11545 0
-1345 11545 0
601 -625 -12265 0
-601 12265 0
625 12265 0
1321 -1345 -12985 0
-1321 12985 0
1345 12985 0
8786 -8666 0
9506 -8666 0
-8786 -9506 8666 0
-8786 10226 0
-8786 11666 0
8786 -10226 -11666 0
-9506 10946 0
-9506 12386 0
9506 -10946 -12386 0
-1 26 -10226 0
1 10226 0
-26 10226 0
-721 746 -10946 0
721 10946 0
-746 10946 0
1 -26 -11666 0
-1 11666 0
26 11666 0
721 -746 -12386 0
-721 12386 0
746 12386 0
8906 -8666 0
9626 -8666 0
-8906 -9626 8666 0
-8906 10346 0
-8906 11786 0
8906 -10346 -11786 0
-9626 11066 0
-9626 12506 0
9626 -11066 -12506 0
-121 146 -10346 0
121 10346 0
-146 10346 0
-841 866 -11066 0
841 11066 0
-866 11066 0
121 -146 -11786 0
-121 11786 0
146 11786 0
841 -866 -12506 0
-841 12506 0
866 12506 0
9026 -8666 0
9746 -8666 0
-9026 -9746 8666 0
-9026 10466 0
-9026 11906 0
9026 -10466 -11906 0
-9746 11186 0
-9746 12626 0
9746 -11186 -12626 0
-241 266 -10466 0
241 10466 0
-266 10466 0
-961 986 -11186 0
961 11186 0
-986 11186 0
241 -266 -11906 0
-241 11906 0
266 11906 0
961 -986 -12626 0
-961 12626 0
986 12626 0
9146 -8666 0
9866 -8666 0
-9146 -9866 8666 0
-9146 10586 0
-9146 12026 0
9146 -10586 -12026 0
-9866 11306 0
-9866 12746 0
9866 -11306 -12746 0
-361 386 -10586 0
361 10586 0
-386 10586 0
-1081 1106 -11306 0
1081 11306 0
-1106 11306 0
361 -386 -12026 0
-361 12026 0
386 12026 0
1081 -1106 -12746 0
-1081 12746 0
1106 12746 0
9266 -8666 0
9986 -8666 0
-9266 -9986 8666 0
-9266 10706 0
-9266 12146 0
9266 -10706 -12146 0
-9986 11426 0
-9986 12866 0
9986 -11426 -12866 0
-481 506 -10706 0
481 10706 0
-506 10706 0
-1201 1226 -11426 0
1201 11426 0
-1226 11426 0
481 -506 -12146 0
-481 12146 0
506 12146 0
1201 -1226 -12866 0
-1201 12866 0
1226 12866 0
9386 -8666 0
10106 -8666 0
-9386 -10106 8666 0
-9386 10826 0
-9386 12266 0
9386 -10826 -12266 0
-10106 11546 0
-10106 12986 0
10106 -11546 -12986 0
-601 626 -10826 0
601 10826 0
-626 10826 0
-1321 1346 -11546 0
1321 11546 0
-1346 11546 0
601 -626 -12266 0
-601 12266 0
626 12266 0
1321 -1346 -12986 0
-1321 12986 0
1346 12986 0
8787 -8667 0
9507 -8667 0
-8787 -9507 8667 0
-8787 10227 0
-8787 11667 0
8787 -10227 -11667 0
-9507 10947 0
-9507 12387 0
9507 -10947 -12387 0
-1 27 -10227 0
1 10227 0
-27 10227 0
-721 747 -10947 0
721 10947 0
-747 10947 0
1 -27 -11667 0
-1 11667 0
27 11667 0
721 -747 -12387 0
-721 12387 0
747 12387 0
8907 -8667 0
9627 -8667 0
-8907 -9627 8667 0
-8907 10347 0
-8907 11787 0
8907 -10347 -11787 0
-9627 11067 0
-9627 12507 0
9627 -11067 -12507 0
-121 147 -10347 0
121 10347 0
-147 10347 0
-841 867 -11067 0
841 11067 0
-867 11067 0
121 -147 -11787 0
-121 11787 0
147 11787 0
841 -867 -12507 0
-841 12507 0
867 12507 0
9027 -8667 0
9747 -8667 0
-9027 -9747 8667 0
-9027 10467 0
-9027 11907 0
9027 -10467 -11907 0
-9747 11187 0
-9747 12627 0
9747 -11187 -12627 0
-241 267 -10467 0
241 10467 0
-267 10467 0
-961 987 -11187 0
961 11187 0
-987 11187 0
241 -267 -11907 0
-241 11907 0
267 11907 0
961 -987 -12627 0
-961 12627 0
987 12627 0
9147 -8667 0
9867 -8667 0
-9147 -9867 8667 0
-9147 10587 0
-9147 12027 0
9147 -10587 -12027 0
-9867 11307 0
-9867 12747 0
9867 -11307 -12747 0
-361 387 -10587 0
361 10587 0
-387 10587 0
-1081 1107 -11307 0
1081 11307 0
-1107 11307 0
361 -387 -12027 0
-361 12027 0
387 12027 0
1081 -1107 -12747 0
-1081 12747 0
1107 12747 0
9267 -8667 0
9987 -8667 0
-9267 -9987 8667 0
-9267 10707 0
-9267 12147 0
9267 -10707 -12147 0
-9987 11427 0
-9987 12867 0
9987 -11427 -12867 0
-481 507 -10707 0
481 10707 0
-507 10707 0
-1201 1227 -11427 0
1201 11427 0
-1227 11427 0
481 -507 -12147 0
-481 12147 0
507 12147 0
1201 -1227 -12867 0
-1201 12867 0
1227 12867 0
9387 -8667 0
10107 -8667 0
-9387 -10107 8667 0
-9387 10827 0
-9387 12267 0
9387 -10827 -12267 0
-10107 11547 0
-10107 12987 0
10107 -11547 -12987 0
-601 627 -10827 0
601 10827 0
-627 10827 0
-1321 1347 -11547 0
1321 11547 0
-1347 11547 0
601 -627 -12267 0
-601 12267 0
627 12267 0
1321 -1347 -12987 0
-1321 12987 0
1347 12987 0
8788 -8668 0
9508 -8668 0
-8788 -9508 8668 0
-8788 10228 0
-8788 11668 0
8788 -10228 -11668 0
-9508 10948 0
-9508 12388 0
9508 -10948 -12388 0
-1 28 -10228 0
1 10228 0
-28 10228 0
-721 748 -10948 0
721 10948 0
-748 10948 0
1 -28 -11668 0
-1 11668 0
28 11668 0
721 -748 -12388 0
-721 12388 0
748 12388 0
8908 -8668 0
9628 -8668 0
-8908 -9628 8668 0
-8908 10348 0
-8908 11788 0
8908 -10348 -11788 0
-9628 11068 0
-9628 12508 0
9628 -11068 -12508 0
-121 148 -10348 0
121 10348 0
-148 10348 0
-841 868 -11068 0
841 11068 0
-868 11068 0
121 -148 -11788 0
-121 11788 0
148 11788 0
841 -868 -12508 0
-841 12508 0
868 12508 0
9028 -8668 0
9748 -8668 0
-9028 -9748 8668 0
-9028 10468 0
-9028 11908 0
9028 -10468 -11908 0
-9748 11188 0
-9748 12628 0
9748 -11188 -12628 0
-241 268 -10468 0
241 10468 0
-268 10468 0
-961 988 -11188 0
961 11188 0
-988 11188 0
241 -268 -11908 0
-241 11908 0
268 11908 0
961 -988 -12628 0
-961 12628 0
988 12628 0
9148 -8668 0
9868 -8668 0
-9148 -9868 8668 0
-9148 10588 0
-9148 12028 0
9148 -10588 -12028 0
-9868 11308 0
-9868 12748 0
9868 -11308 -12748 0
-361 388 -10588 0
361 10588 0
-388 10588 0
-1081 1108 -11308 0
1081 11308 0
-1108 11308 0
361 -388 -12028 0
-361 12028 0
388 12028 0
1081 -1108 -12748 0
-1081 12748 0
1108 12748 0
9268 -8668 0
9988 -8668 0
-9268 -9988 8668 0
-9268 10708 0
-9268 12148 0
9268 -10708 -12148 0
-9988 11428 0
-9988 12868 0
9988 -11428 -12868 0
-481 508 -10708 0
481 10708 0
-508 10708 0
-1201 1228 -11428 0
1201 11428 0
-1228 11428 0
481 -508 -12148 0
-481 12148 0
508 12148 0
1201 -1228 -12868 0
-1201 12868 0
1228 12868 0
9388 -8668 0
10108 -8668 0
-9388 -10108 8668 0
-9388 10828 0
-9388 12268 0
9388 -10828 -12268 0
-10108 11548 0
-10108 12988 0
10108 -11548 -12988 0
-601 628 -10828 0
601 10828 0
-628 10828 0
-1321 1348 -11548 0
1321 11548 0
-1348 11548 0
601 -628 -12268 0
-601 12268 0
628 12268 0
1321 -1348 -12988 0
-1321 12988 0
1348 12988 0
8789 -8669 0
9509 -8669 0
-8789 -9509 8669 0
-8789 10229 0
-8789 11669 0
8789 -10229 -11669 0
-9509 10949 0
-9509 12389 0
9509 -10949 -12389 0
-1 29 -10229 0
1 10229 0
-29 10229 0
-721 749 -10949 0
721 10949 0
-749 10949 0
1 -29 -11669 0
-1 11669 0
29 11669 0
721 -749 -12389 0
-721 12389 0
749 12389 0
8909 -8669 0
9629 -8669 0
-8909 -9629 8669 0
-8909 10349 0
-8909 11789 0
8909 -10349 -11789 0
-9629 11069 0
-9629 12509 0
9629 -11069 -12509 0
-121 149 -10349 0
121 10349 0
-149 10349 0
-841 869 -11069 0
841 11069 0
-869 11069 0
121 -149 -11789 0
-121 11789 0
149 11789 0
841 -869 -12509 0
-841 12509 0
869 12509 0
9029 -8669 0
9749 -8669 0
-9029 -9749 8669 0
-9029 10469 0
-9029 11909 0
9029 -10469 -11909 0
-9749 11189 0
-9749 12629 0
9749 -11189 -12629 0
-241 269 -10469 0
241 10469 0
-269 10469 0
-961 989 -11189 0
961 11189 0
-989 11189 0
241 -269 -11909 0
-241 11909 0
269 11909 0
961 -989 -12629 0
-961 12629 0
989 12629 0
9149 -8669 0
9869 -8669 0
-9149 -9869 8669 0
-9149 10589 0
-9149 12029 0
9149 -10589 -12029 0
-9869 11309 0
-9869 12749 0
9869 -11309 -12749 0
-361 389 -10589 0
361 10589 0
-389 10589 0
-1081 1109 -11309 0
1081 11309 0
-1109 11309 0
361 -389 -12029 0
-361 12029 0
389 12029 0
1081 -1109 -12749 0
-1081 12749 0
1109 12749 0
9269 -8669 0
9989 -8669 0
-9269 -9989 8669 0
-9269 10709 0
-9269 12149 0
9269 -10709 -12149 0
-9989 11429 0
-9989 12869 0
9989 -11429 -12869 0
-481 509 -10709 0
481 10709 0
-509 10709 0
-1201 1229 -11429 0
1201 11429 0
-1229 11429 0
481 -509 -12149 0
-481 12149 0
509 12149 0
1201 -1229 -12869 0
-1201 12869 0
1229 12869 0
9389 -8669 0
10109 -8669 0
-9389 -10109 8669 0
-9389 10829 0
-9389 12269 0
9389 -10829 -12269 0
-10109 11549 0
-10109 12989 0
10109 -11549 -12989 0
-601 629 -10829 0
601 10829 0
-629 10829 0
-1321 1349 -11549 0
1321 11549 0
-1349 11549 0
601 -629 -12269 0
-601 12269 0
629 12269 0
1321 -1349 -12989 0
-1321 12989 0
1349 12989 0
8790 -8670 0
9510 -8670 0
-8790 -9510 8670 0
-8790 10230 0
-8790 11670 0
8790 -10230 -11670 0
-9510 10950 0
-9510 12390 0
9510 -10950 -12390 0
-1 30 -10230 0
1 10230 0
-30 10230 0
-721 750 -10950 0
721 10950 0
-750 10950 0
1 -30 -11670 0
-1 11670 0
30 11670 0
721 -750 -12390 0
-721 12390 0
750 12390 0
8910 -8670 0
9630 -8670 0
-8910 -9630 8670 0
-8910 10350 0
-8910 11790 0
8910 -10350 -11790 0
-9630 11070 0
-9630 12510 0
9630 -11070 -12510 0
-121 150 -10350 0
121 10350 0
-150 10350 0
-841 870 -11070 0
841 11070 0
-870 11070 0
121 -150 -11790 0
-121 11790 0
150 11790 0
841 -870 -12510 0
-841 12510 0
870 12510 0
9030 -8670 0
9750 -8670 0
-9030 -9750 8670 0
-9030 10470 0
-9030 11910 0
9030 -10470 -11910 0
-9750 11190 0
-9750 12630 0
9750 -11190 -12630 0
-241 270 -10470 0
241 10470 0
-270 10470 0
-961 990 -11190 0
961 11190 0
-990 11190 0
241 -270 -11910 0
-241 11910 0
270 11910 0
961 -990 -12630 0
-961 12630 0
990 12630 0
9150 -8670 0
9870 -8670 0
-9150 -9870 8670 0
-9150 10590 0
-9150 12030 0
9150 -10590 -12030 0
-9870 11310 0
-9870 12750 0
9870 -11310 -12750 0
-361 390 -10590 0
361 10590 0
-390 10590 0
-1081 1110 -11310 0
1081 11310 0
-1110 11310 0
361 -390 -12030 0
-361 12030 0
390 12030 0
1081 -1110 -12750 0
-1081 12750 0
1110 12750 0
9270 -8670 0
9990 -8670 0
-9270 -9990 8670 0
-9270 10710 0
-9270 12150 0
9270 -10710 -12150 0
-9990 11430 0
-9990 12870 0
9990 -11430 -12870 0
-481 510 -10710 0
481 10710 0
-510 10710 0
-1201 1230 -11430 0
1201 11430 0
-1230 11430 0
481 -510 -12150 0
-481 12150 0
510 12150 0
1201 -1230 -12870 0
-1201 12870 0
1230 12870 0
9390 -8670 0
10110 -8670 0
-9390 -10110 8670 0
-9390 10830 0
-9390 12270 0
9390 -10830 -12270 0
-10110 11550 0
-10110 12990 0
10110 -11550 -12990 0
-601 630 -10830 0
601 10830 0
-630 10830 0
-1321 1350 -11550 0
1321 11550 0
-1350 11550 0
601 -630 -12270 0
-601 12270 0
630 12270 0
1321 -1350 -12990 0
-1321 12990 0
1350 12990 0
8791 -8671 0
9511 -8671 0
-8791 -9511 8671 0
-8791 10231 0
-8791 11671 0
8791 -10231 -11671 0
-9511 10951 0
-9511 12391 0
9511 -10951 -12391 0
-1 31 -10231 0
1 10231 0
-31 10231 0
-721 751 -10951 0
721 10951 0
-751 10951 0
1 -31 -11671 0
-1 11671 0
31 11671 0
721 -751 -12391 0
-721 12391 0
751 12391 0
8911 -8671 0
9631 -8671 0
-8911 -9631 8671 0
-8911 10351 0
-8911 11791 0
8911 -10351 -11791 0
-9631 11071 0
-9631 12511 0
9631 -11071 -12511 0
-121 151 -10351 0
121 10351 0
-151 10351 0
-841 871 -11071 0
841 11071 0
-871 11071 0
121 -151 -11791 0
-121 11791 0
151 11791 0
841 -871 -12511 0
-841 12511 0
871 12511 0
9031 -8671 0
9751 -8671 0
-9031 -9751 8671 0
-9031 10471 0
-9031 11911 0
9031 -10471 -11911 0
-9751 11191 0
-9751 12631 0
9751 -11191 -12631 0
-241 271 -10471 0
241 10471 0
-271 10471 0
-961 991 -11191 0
961 11191 0
-991 11191 0
241 -271 -11911 0
-241 11911 0
271 11911 0
961 -991 -12631 0
-961 12631 0
991 12631 0
9151 -8671 0
9871 -8671 0
-9151 -9871 8671 0
-9151 10591 0
-9151 12031 0
9151 -10591 -12031 0
-9871 11311 0
-9871 12751 0
9871 -11311 -12751 0
-361 391 -10591 0
361 10591 0
-391 10591 0
-1081 1111 -11311 0
1081 11311 0
-1111 11311 0
361 -391 -12031 0
-361 12031 0
391 12031 0
1081 -1111 -12751 0
-1081 12751 0
1111 12751 0
9271 -8671 0
9991 -8671 0
-9271 -9991 8671 0
-9271 10711 0
-9271 12151 0
9271 -10711 -12151 0
-9991 11431 0
-9991 12871 0
9991 -11431 -12871 0
-481 511 -10711 0
481 10711 0
-511 10711 0
-1201 1231 -11431 0
1201 11431 0
-1231 11431 0
481 -511 -12151 0
-481 12151 0
511 12151 0
1201 -1231 -12871 0
-1201 12871 0
1231 12871 0
9391 -8671 0
10111 -8671 0
-9391 -10111 8671 0
-9391 10831 0
-9391 12271 0
9391 -10831 -12271 0
-10111 11551 0
-10111 12991 0
10111 -11551 -12991 0
-601 631 -10831 0
601 10831 0
-631 10831 0
-1321 1351 -11551 0
1321 11551 0
-1351 11551 0
601 -631 -12271 0
-601 12271 0
631 12271 0
1321 -1351 -12991 0
-1321 12991 0
1351 12991 0
8792 -8672 0
9512 -8672 0
-8792 -9512 8672 0
-8792 10232 0
-8792 11672 0
8792 -10232 -11672 0
-9512 10952 0
-9512 12392 0
9512 -10952 -12392 0
-1 32 -10232 0
1 10232 0
-32 10232 0
-721 752 -10952 0
721 10952 0
-752 10952 0
1 -32 -11672 0
-1 11672 0
32 11672 0
721 -752 -12392 0
-721 12392 0
752 12392 0
8912 -8672 0
9632 -8672 0
-8912 -9632 8672 0
-8912 10352 0
-8912 11792 0
8912 -10352 -11792 0
-9632 11072 0
-9632 12512 0
9632 -11072 -12512 0
-121 152 -10352 0
121 10352 0
-152 10352 0
-841 872 -11072 0
841 11072 0
-872 11072 0
121 -152 -11792 0
-121 11792 0
152 11792 0
841 -872 -12512 0
-841 12512 0
872 12512 0
9032 -8672 0
9752 -8672 0
-9032 -9752 8672 0
-9032 10472 0
-9032 11912 0
9032 -10472 -11912 0
-9752 11192 0
-9752 12632 0
9752 -11192 -12632 0
-241 272 -10472 0
241 10472 0
-272 10472 0
-961 992 -11192 0
961 11192 0
-992 11192 0
241 -272 -11912 0
-241 11912 0
272 11912 0
961 -992 -12632 0
-961 12632 0
992 12632 0
9152 -8672 0
9872 -8672 0
-9152 -9872 8672 0
-9152 10592 0
-9152 12032 0
9152 -10592 -12032 0
-9872 11312 0
-9872 12752 0
9872 -11312 -12752 0
-361 392 -10592 0
361 10592 0
-392 10592 0
-1081 1112 -11312 0
1081 11312 0
-1112 11312 0
361 -392 -12032 0
-361 12032 0
392 12032 0
1081 -1112 -12752 0
-1081 12752 0
1112 12752 0
9272 -8672 0
9992 -8672 0
-9272 -9992 8672 0
-9272 10712 0
-9272 12152 0
9272 -10712 -12152 0
-9992 11432 0
-9992 12872 0
9992 -11432 -12872 0
-481 512 -10712 0
481 10712 0
-512 10712 0
-1201 1232 -11432 0
1201 11432 0
-1232 11432 0
481 -512 -12152 0
-481 12152 0
512 12152 0
1201 -1232 -12872 0
-1201 12872 0
1232 12872 0
9392 -8672 0
10112 -8672 0
-9392 -10112 8672 0
-9392 10832 0
-9392 12272 0
9392 -10832 -12272 0
-10112 11552 0
-10112 12992 0
10112 -11552 -12992 0
-601 632 -10832 0
601 10832 0
-632 10832 0
-1321 1352 -11552 0
1321 11552 0
-1352 11552 0
601 -632 -12272 0
-601 12272 0
632 12272 0
1321 -1352 -12992 0
-1321 12992 0
1352 12992 0
8793 -8673 0
9513 -8673 0
-8793 -9513 8673 0
-8793 10233 0
-8793 11673 0
8793 -10233 -11673 0
-9513 10953 0
-9513 12393 0
9513 -10953 -12393 0
-1 33 -10233 0
1 10233 0
-33 10233 0
-721 753 -10953 0
721 10953 0
-753 10953 0
1 -33 -11673 0
-1 11673 0
33 11673 0
721 -753 -12393 0
-721 12393 0
753 12393 0
8913 -8673 0
9633 -8673 0
-8913 -9633 8673 0
-8913 10353 0
-8913 11793 0
8913 -10353 -11793 0
-9633 11073 0
-9633 12513 0
9633 -11073 -12513 0
-121 153 -10353 0
121 10353 0
-153 10353 0
-841 873 -11073 0
841 11073 0
-873 11073 0
121 -153 -11793 0
-121 11793 0
153 11793 0
841 -873 -12513 0
-841 12513 0
873 12513 0
9033 -8673 0
9753 -8673 0
-9033 -9753 8673 0
-9033 10473 0
-9033 11913 0
9033 -10473 -11913 0
-9753 11193 0
-9753 12633 0
9753 -11193 -12633 0
-241 273 -10473 0
241 10473 0
-273 10473 0
-961 993 -11193 0
961 11193 0
-993 11193 0
241 -273 -11913 0
-241 11913 0
273 11913 0
961 -993 -12633 0
-961 12633 0
993 12633 0
9153 -8673 0
9873 -8673 0
-9153 -9873 8673 0
-9153 10593 0
-9153 12033 0
9153 -10593 -12033 0
-9873 11313 0
-9873 12753 0
9873 -11313 -12753 0
-361 393 -10593 0
361 10593 0
-393 10593 0
-1081 1113 -11313 0
1081 11313 0
-1113 11313 0
361 -393 -12033 0
-361 12033 0
393 12033 0
1081 -1113 -12753 0
-1081 12753 0
1113 12753 0
9273 -8673 0
9993 -8673 0
-9273 -9993 8673 0
-9273 10713 0
-9273 12153 0
9273 -10713 -12153 0
-9993 11433 0
-9993 12873 0
9993 -11433 -12873 0
-481 513 -10713 0
481 10713 0
-513 10713 0
-1201 1233 -11433 0
1201 11433 0
-1233 11433 0
481 -513 -12153 0
-481 12153 0
513 12153 0
1201 -1233 -12873 0
-1201 12873 0
1233 12873 0
9393 -8673 0
10113 -8673 0
-9393 -10113 8673 0
-9393 10833 0
-9393 12273 0
9393 -10833 -12273 0
-10113 11553 0
-10113 12993 0
10113 -11553 -12993 0
-601 633 -10833 0
601 10833 0
-633 10833 0
-1321 1353 -11553 0
1321 11553 0
-1353 11553 0
601 -633 -12273 0
-601 12273 0
633 12273 0
1321 -1353 -12993 0
-1321 12993 0
1353 12993 0
8794 -8674 0
9514 -8674 0
-8794 -9514 8674 0
-8794 10234 0
-8794 11674 0
8794 -10234 -11674 0
-9514 10954 0
-9514 12394 0
9514 -10954 -12394 0
-1 34 -10234 0
1 10234 0
-34 10234 0
-721 754 -10954 0
721 10954 0
-754 10954 0
1 -34 -11674 0
-1 11674 0
34 11674 0
721 -754 -12394 0
-721 12394 0
754 12394 0
8914 -8674 0
9634 -8674 0
-8914 -9634 8674 0
-8914 10354 0
-8914 11794 0
8914 -10354 -11794 0
-9634 11074 0
-9634 12514 0
9634 -11074 -12514 0
-121 154 -10354 0
121 10354 0
-154 10354 0
-841 874 -11074 0
841 11074 0
-874 11074 0
121 -154 -11794 0
-121 11794 0
154 11794 0
841 -874 -12514 0
-841 12514 0
874 12514 0
9034 -8674 0
9754 -8674 0
-9034 -9754 8674 0
-9034 10474 0
-9034 11914 0
9034 -10474 -11914 0
-9754 11194 0
-9754 12634 0
9754 -11194 -12634 0
-241 274 -10474 0
241 10474 0
-274 10474 0
-961 994 -11194 0
961 11194 0
-994 11194 0
241 -274 -11914 0
-241 11914 0
274 11914 0
961 -994 -12634 0
-961 12634 0
994 12634 0
9154 -8674 0
9874 -8674 0
-9154 -9874 8674 0
-9154 10594 0
-9154 12034 0
9154 -10594 -12034 0
-9874 11314 0
-9874 12754 0
9874 -11314 -12754 0
-361 394 -10594 0
361 10594 0
-394 10594 0
-1081 1114 -11314 0
1081 11314 0
-1114 11314 0
361 -394 -12034 0
-361 12034 0
394 12034 0
1081 -1114 -12754 0
-1081 12754 0
1114 12754 0
9274 -8674 0
9994 -8674 0
-9274 -9994 8674 0
-9274 10714 0
-9274 12154 0
9274 -10714 -12154 0
-9994 11434 0
-9994 12874 0
9994 -11434 -12874 0
-481 514 -10714 0
481 10714 0
-514 10714 0
-1201 1234 -11434 0
1201 11434 0
-1234 11434 0
481 -514 -12154 0
-481 12154 0
514 12154 0
1201 -1234 -12874 0
-1201 12874 0
1234 12874 0
9394 -8674 0
10114 -8674 0
-9394 -10114 8674 0
-9394 10834 0
-9394 12274 0
9394 -10834 -12274 0
-10114 11554 0
-10114 12994 0
10114 -11554 -12994 0
-601 634 -10834 0
601 10834 0
-634 10834 0
-1321 1354 -11554 0
1321 11554 0
-1354 11554 0
601 -634 -12274 0
-601 12274 0
634 12274 0
1321 -1354 -12994 0
-1321 12994 0
1354 12994 0
8795 -8675 0
9515 -8675 0
-8795 -9515 8675 0
-8795 10235 0
-8795 11675 0
8795 -10235 -11675 0
-9515 10955 0
-9515 12395 0
9515 -10955 -12395 0
-1 35 -10235 0
1 10235 0
-35 10235 0
-721 755 -10955 0
721 10955 0
-755 10955 0
1 -35 -11675 0
-1 11675 0
35 11675 0
721 -755 -12395 0
-721 12395 0
755 12395 0
8915 -8675 0
9635 -8675 0
-8915 -9635 8675 0
-8915 10355 0
-8915 11795 0
8915 -10355 -11795 0
-9635 11075 0
-9635 12515 0
9635 -11075 -12515 0
-121 155 -10355 0
121 10355 0
-155 10355 0
-841 875 -11075 0
841 11075 0
-875 11075 0
121 -155 -11795 0
-121 11795 0
155 11795 0
841 -875 -12515 0
-841 12515 0
875 12515 0
9035 -8675 0
9755 -8675 0
-9035 -9755 8675 0
-9035 10475 0
-9035 11915 0
9035 -10475 -11915 0
-9755 11195 0
-9755 12635 0
9755 -11195 -12635 0
-241 275 -10475 0
241 10475 0
-275 10475 0
-961 995 -11195 0
961 11195 0
-995 11195 0
241 -275 -11915 0
-241 11915 0
275 11915 0
961 -995 -12635 0
-961 12635 0
995 12635 0
9155 -8675 0
9875 -8675 0
-9155 -9875 8675 0
-9155 10595 0
-9155 12035 0
9155 -10595 -12035 0
-9875 11315 0
-9875 12755 0
9875 -11315 -12755 0
-361 395 -10595 0
361 10595 0
-395 10595 0
-1081 1115 -11315 0
1081 11315 0
-1115 11315 0
361 -395 -12035 0
-361 12035 0
395 12035 0
1081 -1115 -12755 0
-1081 12755 0
1115 12755 0
9275 -8675 0
9995 -8675 0
-9275 -9995 8675 0
-9275 10715 0
-9275 12155 0
9275 -10715 -12155 0
-9995 11435 0
-9995 12875 0
9995 -11435 -12875 0
-481 515 -10715 0
481 10715 0
-515 10715 0
-1201 1235 -11435 0
1201 11435 0
-1235 11435 0
481 -515 -12155 0
-481 12155 0
515 12155 0
1201 -1235 -12875 0
-1201 12875 0
1235 12875 0
9395 -8675 0
10115 -8675 0
-9395 -10115 8675 0
-9395 10835 0
-9395 12275 0
9395 -10835 -12275 0
-10115 11555 0
-10115 12995 0
10115 -11555 -12995 0
-601 635 -10835 0
601 10835 0
-635 10835 0
-1321 1355 -11555 0
1321 11555 0
-1355 11555 0
601 -635 -12275 0
-601 12275 0
635 12275 0
1321 -1355 -12995 0
-1321 12995 0
1355 12995 0
8796 -8676 0
9516 -8676 0
-8796 -9516 8676 0
-8796 10236 0
-8796 11676 0
8796 -10236 -11676 0
-9516 10956 0
-9516 12396 0
9516 -10956 -12396 0
-1 36 -10236 0
1 10236 0
-36 10236 0
-721 756 -10956 0
721 10956 0
-756 10956 0
1 -36 -11676 0
-1 11676 0
36 11676 0
721 -756 -12396 0
-721 12396 0
756 12396 0
8916 -8676 0
9636 -8676 0
-8916 -9636 8676 0
-8916 10356 0
-8916 11796 0
8916 -10356 -11796 0
-9636 11076 0
-9636 12516 0
9636 -11076 -12516 0
-121 156 -10356 0
121 10356 0
-156 10356 0
-841 876 -11076 0
841 11076 0
-876 11076 0
121 -156 -11796 0
-121 11796 0
156 11796 0
841 -876 -12516 0
-841 12516 0
876 12516 0
9036 -8676 0
9756 -8676 0
-9036 -9756 8676 0
-9036 10476 0
-9036 11916 0
9036 -10476 -11916 0
-9756 11196 0
-9756 12636 0
9756 -11196 -12636 0
-241 276 -10476 0
241 10476 0
-276 10476 0
-961 996 -11196 0
961 11196 0
-996 11196 0
241 -276 -11916 0
-241 11916 0
276 11916 0
961 -996 -12636 0
-961 12636 0
996 12636 0
9156 -8676 0
9876 -8676 0
-9156 -9876 8676 0
-9156 10596 0
-9156 12036 0
9156 -10596 -12036 0
-9876 11316 0
-9876 12756 0
9876 -11316 -12756 0
-361 396 -10596 0
361 10596 0
-396 10596 0
-1081 1116 -11316 0
1081 11316 0
-1116 11316 0
361 -396 -12036 0
-361 12036 0
396 12036 0
1081 -1116 -12756 0
-1081 12756 0
1116 12756 0
9276 -8676 0
9996 -8676 0
-9276 -9996 8676 0
-9276 10716 0
-9276 12156 0
9276 -10716 -12156 0
-9996 11436 0
-9996 12876 0
9996 -11436 -12876 0
-481 516 -10716 0
481 10716 0
-516 10716 0
-1201 1236 -11436 0
1201 11436 0
-1236 11436 0
481 -516 -12156 0
-481 12156 0
516 12156 0
1201 -1236 -12876 0
-1201 12876 0
1236 12876 0
9396 -8676 0
10116 -8676 0
-9396 -10116 8676 0
-9396 10836 0
-9396 12276 0
9396 -10836 -12276 0
-10116 11556 0
-10116 12996 0
10116 -11556 -12996 0
-601 636 -10836 0
601 10836 0
-636 10836 0
-1321 1356 -11556 0
1321 11556 0
-1356 11556 0
601 -636 -12276 0
-601 12276 0
636 12276 0
1321 -1356 -12996 0
-1321 12996 0
1356 12996 0
8797 -8677 0
9517 -8677 0
-8797 -9517 8677 0
-8797 10237 0
-8797 11677 0
8797 -10237 -11677 0
-9517 10957 0
-9517 12397 0
9517 -10957 -12397 0
-1 37 -10237 0
1 10237 0
-37 10237 0
-721 757 -10957 0
721 10957 0
-757 10957 0
1 -37 -11677 0
-1 11677 0
37 11677 0
721 -757 -12397 0
-721 12397 0
757 12397 0
8917 -8677 0
9637 -8677 0
-8917 -9637 8677 0
-8917 10357 0
-8917 11797 0
8917 -10357 -11797 0
-9637 11077 0
-9637 12517 0
9637 -11077 -12517 0
-121 157 -10357 0
121 10357 0
-157 10357 0
-841 877 -11077 0
841 11077 0
-877 11077 0
121 -157 -11797 0
-121 11797 0
157 11797 0
841 -877 -12517 0
-841 12517 0
877 12517 0
9037 -8677 0
9757 -8677 0
-9037 -9757 8677 0
-9037 10477 0
-9037 11917 0
9037 -10477 -11917 0
-9757 11197 0
-9757 12637 0
9757 -11197 -12637 0
-241 277 -10477 0
241 10477 0
-277 10477 0
-961 997 -11197 0
961 11197 0
-997 11197 0
241 -277 -11917 0
-241 11917 0
277 11917 0
961 -997 -12637 0
-961 12637 0
997 12637 0
9157 -8677 0
9877 -8677 0
-9157 -9877 8677 0
-9157 10597 0
-9157 12037 0
9157 -10597 -12037 0
-9877 11317 0
-9877 12757 0
9877 -11317 -12757 0
-361 397 -10597 0
361 10597 0
-397 10597 0
-1081 1117 -11317 0
1081 11317 0
-1117 11317 0
361 -397 -12037 0
-361 12037 0
397 12037 0
1081 -1117 -12757 0
-1081 12757 0
1117 12757 0
9277 -8677 0
9997 -8677 0
-9277 -9997 8677 0
-9277 10717 0
-9277 12157 0
9277 -10717 -12157 0
-9997 11437 0
-9997 12877 0
9997 -11437 -12877 0
-481 517 -10717 0
481 10717 0
-517 10717 0
-1201 1237 -11437 0
1201 11437 0
-1237 11437 0
481 -517 -12157 0
-481 12157 0
517 12157 0
1201 -1237 -12877 0
-1201 12877 0
1237 12877 0
9397 -8677 0
10117 -8677 0
-9397 -10117 8677 0
-9397 10837 0
-9397 12277 0
9397 -10837 -12277 0
-10117 11557 0
-10117 12997 0
10117 -11557 -12997 0
-601 637 -10837 0
601 10837 0
-637 10837 0
-1321 1357 -11557 0
1321 11557 0
-1357 11557 0
601 -637 -12277 0
-601 12277 0
637 12277 0
1321 -1357 -12997 0
-1321 12997 0
1357 12997 0
8798 -8678 0
9518 -8678 0
-8798 -9518 8678 0
-8798 10238 0
-8798 11678 0
8798 -10238 -11678 0
-9518 10958 0
-9518 12398 0
9518 -10958 -12398 0
-1 38 -10238 0
1 10238 0
-38 10238 0
-721 758 -10958 0
721 10958 0
-758 10958 0
1 -38 -11678 0
-1 11678 0
38 11678 0
721 -758 -12398 0
-721 12398 0
758 12398 0
8918 -8678 0
9638 -8678 0
-8918 -9638 8678 0
-8918 10358 0
-8918 11798 0
8918 -10358 -11798 0
-9638 11078 0
-9638 12518 0
9638 -11078 -12518 0
-121 158 -10358 0
121 10358 0
-158 10358 0
-841 878 -11078 0
841 11078 0
-878 11078 0
121 -158 -11798 0
-121 11798 0
158 11798 0
841 -878 -12518 0
-841 12518 0
878 12518 0
9038 -8678 0
9758 -8678 0
-9038 -9758 8678 0
-9038 10478 0
-9038 11918 0
9038 -10478 -11918 0
-9758 11198 0
-9758 12638 0
9758 -11198 -12638 0
-241 278 -10478 0
241 10478 0
-278 10478 0
-961 998 -11198 0
961 11198 0
-998 11198 0
241 -278 -11918 0
-241 11918 0
278 11918 0
961 -998 -12638 0
-961 12638 0
998 12638 0
9158 -8678 0
9878 -8678 0
-9158 -9878 8678 0
-9158 10598 0
-9158 12038 0
9158 -10598 -12038 0
-9878 11318 0
-9878 12758 0
9878 -11318 -12758 0
-361 398 -10598 0
361 10598 0
-398 10598 0
-1081 1118 -11318 0
1081 11318 0
-1118 11318 0
361 -398 -12038 0
-361 12038 0
398 12038 0
1081 -1118 -12758 0
-1081 12758 0
1118 12758 0
9278 -8678 0
9998 -8678 0
-9278 -9998 8678 0
-9278 10718 0
-9278 12158 0
9278 -10718 -12158 0
-9998 11438 0
-9998 12878 0
9998 -11438 -12878 0
-481 518 -10718 0
481 10718 0
-518 10718 0
-1201 1238 -11438 0
1201 11438 0
-1238 11438 0
481 -518 -12158 0
-481 12158 0
518 12158 0
1201 -1238 -12878 0
-1201 12878 0
1238 12878 0
9398 -8678 0
10118 -8678 0
-9398 -10118 8678 0
-9398 10838 0
-9398 12278 0
9398 -10838 -12278 0
-10118 11558 0
-10118 12998 0
10118 -11558 -12998 0
-601 638 -10838 0
601 10838 0
-638 10838 0
-1321 1358 -11558 0
1321 11558 0
-1358 11558 0
601 -638 -12278 0
-601 12278 0
638 12278 0
1321 -1358 -12998 0
-1321 12998 0
1358 12998 0
8799 -8679 0
9519 -8679 0
-8799 -9519 8679 0
-8799 10239 0
-8799 11679 0
8799 -10239 -11679 0
-9519 10959 0
-9519 12399 0
9519 -10959 -12399 0
-1 39 -10239 0
1 10239 0
-39 10239 0
-721 759 -10959 0
721 10959 0
-759 10959 0
1 -39 -11679 0
-1 11679 0
39 11679 0
721 -759 -12399 0
-721 12399 0
759 12399 0
8919 -8679 0
9639 -8679 0
-8919 -9639 8679 0
-8919 10359 0
-8919 11799 0
8919 -10359 -11799 0
-9639 11079 0
-9639 12519 0
9639 -11079 -12519 0
-121 159 -10359 0
121 10359 0
-159 10359 0
-841 879 -11079 0
841 11079 0
-879 11079 0
121 -159 -11799 0
-121 11799 0
159 11799 0
841 -879 -12519 0
-841 12519 0
879 12519 0
9039 -8679 0
9759 -8679 0
-9039 -9759 8679 0
-9039 10479 0
-9039 11919 0
9039 -10479 -11919 0
-9759 11199 0
-9759 12639 0
9759 -11199 -12639 0
-241 279 -10479 0
241 10479 0
-279 10479 0
-961 999 -11199 0
961 11199 0
-999 11199 0
241 -279 -11919 0
-241 11919 0
279 11919 0
961 -999 -12639 0
-961 12639 0
999 12639 0
9159 -8679 0
9879 -8679 0
-9159 -9879 8679 0
-9159 10599 0
-9159 12039 0
9159 -10599 -12039 0
-9879 11319 0
-9879 12759 0
9879 -11319 -12759 0
-361 399 -10599 0
361 10599 0
-399 10599 0
-1081 1119 -11319 0
1081 11319 0
-1119 11319 0
361 -399 -12039 0
-361 12039 0
399 12039 0
1081 -1119 -12759 0
-1081 12759 0
1119 12759 0
9279 -8679 0
9999 -8679 0
-9279 -9999 8679 0
-9279 10719 0
-9279 12159 0
9279 -10719 -12159 0
-9999 11439 0
-9999 12879 0
9999 -11439 -12879 0
-481 519 -10719 0
481 10719 0
-519 10719 0
-1201 1239 -11439 0
1201 11439 0
-1239 11439 0
481 -519 -12159 0
-481 12159 0
519 12159 0
1201 -1239 -12879 0
-1201 12879 0
1239 12879 0
9399 -8679 0
10119 -8679 0
-9399 -10119 8679 0
-9399 10839 0
-9399 12279 0
9399 -10839 -12279 0
-10119 11559 0
-10119 12999 0
10119 -11559 -12999 0
-601 639 -10839 0
601 10839 0
-639 10839 0
-1321 1359 -11559 0
1321 11559 0
-1359 11559 0
601 -639 -12279 0
-601 12279 0
639 12279 0
1321 -1359 -12999 0
-1321 12999 0
1359 12999 0
8800 -8680 0
9520 -8680 0
-8800 -9520 8680 0
-8800 10240 0
-8800 11680 0
8800 -10240 -11680 0
-9520 10960 0
-9520 12400 0
9520 -10960 -12400 0
-1 40 -10240 0
1 10240 0
-40 10240 0
-721 760 -10960 0
721 10960 0
-760 10960 0
1 -40 -11680 0
-1 11680 0
40 11680 0
721 -760 -12400 0
-721 12400 0
760 12400 0
8920 -8680 0
9640 -8680 0
-8920 -9640 8680 0
-8920 10360 0
-8920 11800 0
8920 -10360 -11800 0
-9640 11080 0
-9640 12520 0
9640 -11080 -12520 0
-121 160 -10360 0
121 10360 0
-160 10360 0
-841 880 -11080 0
841 11080 0
-880 11080 0
121 -160 -11800 0
-121 11800 0
160 11800 0
841 -880 -12520 0
-841 12520 0
880 12520 0
9040 -8680 0
9760 -8680 0
-9040 -9760 8680 0
-9040 10480 0
-9040 11920 0
9040 -10480 -11920 0
-9760 11200 0
-9760 12640 0
9760 -11200 -12640 0
-241 280 -10480 0
241 10480 0
-280 10480 0
-961 1000 -11200 0
961 11200 0
-1000 11200 0
241 -280 -11920 0
-241 11920 0
280 11920 0
961 -1000 -12640 0
-961 12640 0
1000 12640 0
9160 -8680 0
9880 -8680 0
-9160 -9880 8680 0
-9160 10600 0
-9160 12040 0
9160 -10600 -12040 0
-9880 11320 0
-9880 12760 0
9880 -11320 -12760 0
-361 400 -10600 0
361 10600 0
-400 10600 0
-1081 1120 -11320 0
1081 11320 0
-1120 11320 0
361 -400 -12040 0
-361 12040 0
400 12040 0
1081 -1120 -12760 0
-1081 12760 0
1120 12760 0
9280 -8680 0
10000 -8680 0
-9280 -10000 8680 0
-9280 10720 0
-9280 12160 0
9280 -10720 -12160 0
-10000 11440 0
-10000 12880 0
10000 -11440 -12880 0
-481 520 -10720 0
481 10720 0
-520 10720 0
-1201 1240 -11440 0
1201 11440 0
-1240 11440 0
481 -520 -12160 0
-481 12160 0
520 12160 0
1201 -1240 -12880 0
-1201 12880 0
1240 12880 0
9400 -8680 0
10120 -8680 0
-9400 -10120 8680 0
-9400 10840 0
-9400 12280 0
9400 -10840 -12280 0
-10120 11560 0
-10120 13000 0
10120 -11560 -13000 0
-601 640 -10840 0
601 10840 0
-640 10840 0
-1321 1360 -11560 0
1321 11560 0
-1360 11560 0
601 -640 -12280 0
-601 12280 0
640 12280 0
1321 -1360 -13000 0
-1321 13000 0
1360 13000 0
8801 -8681 0
9521 -8681 0
-8801 -9521 8681 0
-8801 10241 0
-8801 11681 0
8801 -10241 -11681 0
-9521 10961 0
-9521 12401 0
9521 -10961 -12401 0
-1 41 -10241 0
1 10241 0
-41 10241 0
-721 761 -10961 0
721 10961 0
-761 10961 0
1 -41 -11681 0
-1 11681 0
41 11681 0
721 -761 -12401 0
-721 12401 0
761 12401 0
8921 -8681 0
9641 -8681 0
-8921 -9641 8681 0
-8921 10361 0
-8921 11801 0
8921 -10361 -11801 0
-9641 11081 0
-9641 12521 0
9641 -11081 -12521 0
-121 161 -10361 0
121 10361 0
-161 10361 0
-841 881 -11081 0
841 11081 0
-881 11081 0
121 -161 -11801 0
-121 11801 0
161 11801 0
841 -881 -12521 0
-841 12521 0
881 12521 0
9041 -8681 0
9761 -8681 0
-9041 -9761 8681 0
-9041 10481 0
-9041 11921 0
9041 -10481 -11921 0
-9761 11201 0
-9761 12641 0
9761 -11201 -12641 0
-241 281 -10481 0
241 10481 0
-281 10481 0
-961 1001 -11201 0
961 11201 0
-1001 11201 0
241 -281 -11921 0
-241 11921 0
281 11921 0
961 -1001 -12641 0
-961 12641 0
1001 12641 0
9161 -8681 0
9881 -8681 0
-9161 -9881 8681 0
-9161 10601 0
-9161 12041 0
9161 -10601 -12041 0
-9881 11321 0
-9881 12761 0
9881 -11321 -12761 0
-361 401 -10601 0
361 10601 0
-401 10601 0
-1081 1121 -11321 0
1081 11321 0
-1121 11321 0
361 -401 -12041 0
-361 12041 0
401 12041 0
1081 -1121 -12761 0
-1081 12761 0
1121 12761 0
9281 -8681 0
10001 -8681 0
-9281 -10001 8681 0
-9281 10721 0
-9281 12161 0
9281 -10721 -12161 0
-10001 11441 0
-10001 12881 0
10001 -11441 -12881 0
-481 521 -10721 0
481 10721 0
-521 10721 0
-1201 1241 -11441 0
1201 11441 0
-1241 11441 0
481 -521 -12161 0
-481 12161 0
521 12161 0
1201 -1241 -12881 0
-1201 12881 0
1241 12881 0
9401 -8681 0
10121 -8681 0
-9401 -10121 8681 0
-9401 10841 0
-9401 12281 0
9401 -10841 -12281 0
-10121 11561 0
-10121 13001 0
10121 -11561 -13001 0
-601 641 -10841 0
601 10841 0
-641 10841 0
-1321 1361 -11561 0
1321 11561 0
-1361 11561 0
601 -641 -12281 0
-601 12281 0
641 12281 0
1321 -1361 -13001 0
-1321 13001 0
1361 13001 0
8802 -8682 0
9522 -8682 0
-8802 -9522 8682 0
-8802 10242 0
-8802 11682 0
8802 -10242 -11682 0
-9522 10962 0
-9522 12402 0
9522 -10962 -12402 0
-1 42 -10242 0
1 10242 0
-42 10242 0
-721 762 -10962 0
721 10962 0
-762 10962 0
1 -42 -11682 0
-1 11682 0
42 11682 0
721 -762 -12402 0
-721 12402 0
762 12402 0
8922 -8682 0
9642 -8682 0
-8922 -9642 8682 0
-8922 10362 0
-8922 11802 0
8922 -10362 -11802 0
-9642 11082 0
-9642 12522 0
9642 -11082 -12522 0
-121 162 -10362 0
121 10362 0
-162 10362 0
-841 882 -11082 0
841 11082 0
-882 11082 0
121 -162 -11802 0
-121 11802 0
162 11802 0
841 -882 -12522 0
-841 12522 0
882 12522 0
9042 -8682 0
9762 -8682 0
-9042 -9762 8682 0
-9042 10482 0
-9042 11922 0
9042 -10482 -11922 0
-9762 11202 0
-9762 12642 0
9762 -11202 -12642 0
-241 282 -10482 0
241 10482 0
-282 10482 0
-961 1002 -11202 0
961 11202 0
-1002 11202 0
241 -282 -11922 0
-241 11922 0
282 11922 0
961 -1002 -12642 0
-961 12642 0
1002 12642 0
9162 -8682 0
9882 -8682 0
-9162 -9882 8682 0
-9162 10602 0
-9162 12042 0
9162 -10602 -12042 0
-9882 11322 0
-9882 12762 0
9882 -11322 -12762 0
-361 402 -10602 0
361 10602 0
-402 10602 0
-1081 1122 -11322 0
1081 11322 0
-1122 11322 0
361 -402 -12042 0
-361 12042 0
402 12042 0
1081 -1122 -12762 0
-1081 12762 0
1122 12762 0
9282 -8682 0
10002 -8682 0
-9282 -10002 8682 0
-9282 10722 0
-9282 12162 0
9282 -10722 -12162 0
-10002 11442 0
-10002 12882 0
10002 -11442 -12882 0
-481 522 -10722 0
481 10722 0
-522 10722 0
-1201 1242 -11442 0
1201 11442 0
-1242 11442 0
481 -522 -12162 0
-481 12162 0
522 12162 0
1201 -1242 -12882 0
-1201 12882 0
1242 12882 0
9402 -8682 0
10122 -8682 0
-9402 -10122 8682 0
-9402 10842 0
-9402 12282 0
9402 -10842 -12282 0
-10122 11562 0
-10122 13002 0
10122 -11562 -13002 0
-601 642 -10842 0
601 10842 0
-642 10842 0
-1321 1362 -11562 0
1321 11562 0
-1362 11562 0
601 -642 -12282 0
-601 12282 0
642 12282 0
1321 -1362 -13002 0
-1321 13002 0
1362 13002 0
8803 -8683 0
9523 -8683 0
-8803 -9523 8683 0
-8803 10243 0
-8803 11683 0
8803 -10243 -11683 0
-9523 10963 0
-9523 12403 0
9523 -10963 -12403 0
-1 43 -10243 0
1 10243 0
-43 10243 0
-721 763 -10963 0
721 10963 0
-763 10963 0
1 -43 -11683 0
-1 11683 0
43 11683 0
721 -763 -12403 0
-721 12403 0
763 12403 0
8923 -8683 0
9643 -8683 0
-8923 -9643 8683 0
-8923 10363 0
-8923 11803 0
8923 -10363 -11803 0
-9643 11083 0
-9643 12523 0
9643 -11083 -12523 0
-121 163 -10363 0
121 10363 0
-163 10363 0
-841 883 -11083 0
841 11083 0
-883 11083 0
121 -163 -11803 0
-121 11803 0
163 11803 0
841 -883 -12523 0
-841 12523 0
883 12523 0
9043 -8683 0
9763 -8683 0
-9043 -9763 8683 0
-9043 10483 0
-9043 11923 0
9043 -10483 -11923 0
-9763 11203 0
-9763 12643 0
9763 -11203 -12643 0
-241 283 -10483 0
241 10483 0
-283 10483 0
-961 1003 -11203 0
961 11203 0
-1003 11203 0
241 -283 -11923 0
-241 11923 0
283 11923 0
961 -1003 -12643 0
-961 12643 0
1003 12643 0
9163 -8683 0
9883 -8683 0
-9163 -9883 8683 0
-9163 10603 0
-9163 12043 0
9163 -10603 -12043 0
-9883 11323 0
-9883 12763 0
9883 -11323 -12763 0
-361 403 -10603 0
361 10603 0
-403 10603 0
-1081 1123 -11323 0
1081 11323 0
-1123 11323 0
361 -403 -12043 0
-361 12043 0
403 12043 0
1081 -1123 -12763 0
-1081 12763 0
1123 12763 0
9283 -8683 0
10003 -8683 0
-9283 -10003 8683 0
-9283 10723 0
-9283 12163 0
9283 -10723 -12163 0
-10003 11443 0
-10003 12883 0
10003 -11443 -12883 0
-481 523 -10723 0
481 10723 0
-523 10723 0
-1201 1243 -11443 0
1201 11443 0
-1243 11443 0
481 -523 -12163 0
-481 12163 0
523 12163 0
1201 -1243 -12883 0
-1201 12883 0
1243 12883 0
9403 -8683 0
10123 -8683 0
-9403 -10123 8683 0
-9403 10843 0
-9403 12283 0
9403 -10843 -12283 0
-10123 11563 0
-10123 13003 0
10123 -11563 -13003 0
-601 643 -10843 0
601 10843 0
-643 10843 0
-1321 1363 -11563 0
1321 11563 0
-1363 11563 0
601 -643 -12283 0
-601 12283 0
643 12283 0
1321 -1363 -13003 0
-1321 13003 0
1363 13003 0
8804 -8684 0
9524 -8684 0
-8804 -9524 8684 0
-8804 10244 0
-8804 11684 0
8804 -10244 -11684 0
-9524 10964 0
-9524 12404 0
9524 -10964 -12404 0
-1 44 -10244 0
1 10244 0
-44 10244 0
-721 764 -10964 0
721 10964 0
-764 10964 0
1 -44 -11684 0
-1 11684 0
44 11684 0
721 -764 -12404 0
-721 12404 0
764 12404 0
8924 -8684 0
9644 -8684 0
-8924 -9644 8684 0
-8924 10364 0
-8924 11804 0
8924 -10364 -11804 0
-9644 11084 0
-9644 12524 0
9644 -11084 -12524 0
-121 164 -10364 0
121 10364 0
-164 10364 0
-841 884 -11084 0
841 11084 0
-884 11084 0
121 -164 -11804 0
-121 11804 0
164 11804 0
841 -884 -12524 0
-841 12524 0
884 12524 0
9044 -8684 0
9764 -8684 0
-9044 -9764 8684 0
-9044 10484 0
-9044 11924 0
9044 -10484 -11924 0
-9764 11204 0
-9764 12644 0
9764 -11204 -12644 0
-241 284 -10484 0
241 10484 0
-284 10484 0
-961 1004 -11204 0
961 11204 0
-1004 11204 0
241 -284 -11924 0
-241 11924 0
284 11924 0
961 -1004 -12644 0
-961 12644 0
1004 12644 0
9164 -8684 0
9884 -8684 0
-9164 -9884 8684 0
-9164 10604 0
-9164 12044 0
9164 -10604 -12044 0
-9884 11324 0
-9884 12764 0
9884 -11324 -12764 0
-361 404 -10604 0
361 10604 0
-404 10604 0
-1081 1124 -11324 0
1081 11324 0
-1124 11324 0
361 -404 -12044 0
-361 12044 0
404 12044 0
1081 -1124 -12764 0
-1081 12764 0
1124 12764 0
9284 -8684 0
10004 -8684 0
-9284 -10004 8684 0
-9284 10724 0
-9284 12164 0
9284 -10724 -12164 0
-10004 11444 0
-10004 12884 0
10004 -11444 -12884 0
-481 524 -10724 0
481 10724 0
-524 10724 0
-1201 1244 -11444 0
1201 11444 0
-1244 11444 0
481 -524 -12164 0
-481 12164 0
524 12164 0
1201 -1244 -12884 0
-1201 12884 0
1244 12884 0
9404 -8684 0
10124 -8684 0
-9404 -10124 8684 0
-9404 10844 0
-9404 12284 0
9404 -10844 -12284 0
-10124 11564 0
-10124 13004 0
10124 -11564 -13004 0
-601 644 -10844 0
601 10844 0
-644 10844 0
-1321 1364 -11564 0
1321 11564 0
-1364 11564 0
601 -644 -12284 0
-601 12284 0
644 12284 0
1321 -1364 -13004 0
-1321 13004 0
1364 13004 0
8805 -8685 0
9525 -8685 0
-8805 -9525 8685 0
-8805 10245 0
-8805 11685 0
8805 -10245 -11685 0
-9525 10965 0
-9525 12405 0
9525 -10965 -12405 0
-1 45 -10245 0
1 10245 0
-45 10245 0
-721 765 -10965 0
721 10965 0
-765 10965 0
1 -45 -11685 0
-1 11685 0
45 11685 0
721 -765 -12405 0
-721 12405 0
765 12405 0
8925 -8685 0
9645 -8685 0
-8925 -9645 8685 0
-8925 10365 0
-8925 11805 0
8925 -10365 -11805 0
-9645 11085 0
-9645 12525 0
9645 -11085 -12525 0
-121 165 -10365 0
121 10365 0
-165 10365 0
-841 885 -11085 0
841 11085 0
-885 11085 0
121 -165 -11805 0
-121 11805 0
165 11805 0
841 -885 -12525 0
-841 12525 0
885 12525 0
9045 -8685 0
9765 -8685 0
-9045 -9765 8685 0
-9045 10485 0
-9045 11925 0
9045 -10485 -11925 0
-9765 11205 0
-9765 12645 0
9765 -11205 -12645 0
-241 285 -10485 0
241 10485 0
-285 10485 0
-961 1005 -11205 0
961 11205 0
-1005 11205 0
241 -285 -11925 0
-241 11925 0
285 11925 0
961 -1005 -12645 0
-961 12645 0
1005 12645 0
9165 -8685 0
9885 -8685 0
-9165 -9885 8685 0
-9165 10605 0
-9165 12045 0
9165 -10605 -12045 0
-9885 11325 0
-9885 12765 0
9885 -11325 -12765 0
-361 405 -10605 0
361 10605 0
-405 10605 0
-1081 1125 -11325 0
1081 11325 0
-1125 11325 0
361 -405 -12045 0
-361 12045 0
405 12045 0
1081 -1125 -12765 0
-1081 12765 0
1125 12765 0
9285 -8685 0
10005 -8685 0
-9285 -10005 8685 0
-9285 10725 0
-9285 12165 0
9285 -10725 -12165 0
-10005 11445 0
-10005 12885 0
10005 -11445 -12885 0
-481 525 -10725 0
481 10725 0
-525 10725 0
-1201 1245 -11445 0
1201 11445 0
-1245 11445 0
481 -525 -12165 0
-481 12165 0
525 12165 0
1201 -1245 -12885 0
-1201 12885 0
1245 12885 0
9405 -8685 0
10125 -8685 0
-9405 -10125 8685 0
-9405 10845 0
-9405 12285 0
9405 -10845 -12285 0
-10125 11565 0
-10125 13005 0
10125 -11565 -13005 0
-601 645 -10845 0
601 10845 0
-645 10845 0
-1321 1365 -11565 0
1321 11565 0
-1365 11565 0
601 -645 -12285 0
-601 12285 0
645 12285 0
1321 -1365 -13005 0
-1321 13005 0
1365 13005 0
8806 -8686 0
9526 -8686 0
-8806 -9526 8686 0
-8806 10246 0
-8806 11686 0
8806 -10246 -11686 0
-9526 10966 0
-9526 12406 0
9526 -10966 -12406 0
-1 46 -10246 0
1 10246 0
-46 10246 0
-721 766 -10966 0
721 10966 0
-766 10966 0
1 -46 -11686 0
-1 11686 0
46 11686 0
721 -766 -12406 0
-721 12406 0
766 12406 0
8926 -8686 0
9646 -8686 0
-8926 -9646 8686 0
-8926 10366 0
-8926 11806 0
8926 -10366 -11806 0
-9646 11086 0
-9646 12526 0
9646 -11086 -12526 0
-121 166 -10366 0
121 10366 0
-166 10366 0
-841 886 -11086 0
841 11086 0
-886 11086 0
121 -166 -11806 0
-121 11806 0
166 11806 0
841 -886 -12526 0
-841 12526 0
886 12526 0
9046 -8686 0
9766 -8686 0
-9046 -9766 8686 0
-9046 10486 0
-9046 11926 0
9046 -10486 -11926 0
-9766 11206 0
-9766 12646 0
9766 -11206 -12646 0
-241 286 -10486 0
241 10486 0
-286 10486 0
-961 1006 -11206 0
961 11206 0
-1006 11206 0
241 -286 -11926 0
-241 11926 0
286 11926 0
961 -1006 -12646 0
-961 12646 0
1006 12646 0
9166 -8686 0
9886 -8686 0
-9166 -9886 8686 0
-9166 10606 0
-9166 12046 0
9166 -10606 -12046 0
-9886 11326 0
-9886 12766 0
9886 -11326 -12766 0
-361 406 -10606 0
361 10606 0
-406 10606 0
-1081 1126 -11326 0
1081 11326 0
-1126 11326 0
361 -406 -12046 0
-361 12046 0
406 12046 0
1081 -1126 -12766 0
-1081 12766 0
1126 12766 0
9286 -8686 0
10006 -8686 0
-9286 -10006 8686 0
-9286 10726 0
-9286 12166 0
9286 -10726 -12166 0
-10006 11446 0
-10006 12886 0
10006 -11446 -12886 0
-481 526 -10726 0
481 10726 0
-526 10726 0
-1201 1246 -11446 0
1201 11446 0
-1246 11446 0
481 -526 -12166 0
-481 12166 0
526 12166 0
1201 -1246 -12886 0
-1201 12886 0
1246 12886 0
9406 -8686 0
10126 -8686 0
-9406 -10126 8686 0
-9406 10846 0
-9406 12286 0
9406 -10846 -12286 0
-10126 11566 0
-10126 13006 0
10126 -11566 -13006 0
-601 646 -10846 0
601 10846 0
-646 10846 0
-1321 1366 -11566 0
1321 11566 0
-1366 11566 0
601 -646 -12286 0
-601 12286 0
646 12286 0
1321 -1366 -13006 0
-1321 13006 0
1366 13006 0
8807 -8687 0
9527 -8687 0
-8807 -9527 8687 0
-8807 10247 0
-8807 11687 0
8807 -10247 -11687 0
-9527 10967 0
-9527 12407 0
9527 -10967 -12407 0
-1 47 -10247 0
1 10247 0
-47 10247 0
-721 767 -10967 0
721 10967 0
-767 10967 0
1 -47 -11687 0
-1 11687 0
47 11687 0
721 -767 -12407 0
-721 12407 0
767 12407 0
8927 -8687 0
9647 -8687 0
-8927 -9647 8687 0
-8927 10367 0
-8927 11807 0
8927 -10367 -11807 0
-9647 11087 0
-9647 12527 0
9647 -11087 -12527 0
-121 167 -10367 0
121 10367 0
-167 10367 0
-841 887 -11087 0
841 11087 0
-887 11087 0
121 -167 -11807 0
-121 11807 0
167 11807 0
841 -887 -12527 0
-841 12527 0
887 12527 0
9047 -8687 0
9767 -8687 0
-9047 -9767 8687 0
-9047 10487 0
-9047 11927 0
9047 -10487 -11927 0
-9767 11207 0
-9767 12647 0
9767 -11207 -12647 0
-241 287 -10487 0
241 10487 0
-287 10487 0
-961 1007 -11207 0
961 11207 0
-1007 11207 0
241 -287 -11927 0
-241 11927 0
287 11927 0
961 -1007 -12647 0
-961 12647 0
1007 12647 0
9167 -8687 0
9887 -8687 0
-9167 -9887 8687 0
-9167 10607 0
-9167 12047 0
9167 -10607 -12047 0
-9887 11327 0
-9887 12767 0
9887 -11327 -12767 0
-361 407 -10607 0
361 10607 0
-407 10607 0
-1081 1127 -11327 0
1081 11327 0
-1127 11327 0
361 -407 -12047 0
-361 12047 0
407 12047 0
1081 -1127 -12767 0
-1081 12767 0
1127 12767 0
9287 -8687 0
10007 -8687 0
-9287 -10007 8687 0
-9287 10727 0
-9287 12167 0
9287 -10727 -12167 0
-10007 11447 0
-10007 12887 0
10007 -11447 -12887 0
-481 527 -10727 0
481 10727 0
-527 10727 0
-1201 1247 -11447 0
1201 11447 0
-1247 11447 0
481 -527 -12167 0
-481 12167 0
527 12167 0
1201 -1247 -12887 0
-1201 12887 0
1247 12887 0
9407 -8687 0
10127 -8687 0
-9407 -10127 8687 0
-9407 10847 0
-9407 12287 0
9407 -10847 -12287 0
-10127 11567 0
-10127 13007 0
10127 -11567 -13007 0
-601 647 -10847 0
601 10847 0
-647 10847 0
-1321 1367 -11567 0
1321 11567 0
-1367 11567 0
601 -647 -12287 0
-601 12287 0
647 12287 0
1321 -1367 -13007 0
-1321 13007 0
1367 13007 0
8808 -8688 0
9528 -8688 0
-8808 -9528 8688 0
-8808 10248 0
-8808 11688 0
8808 -10248 -11688 0
-9528 10968 0
-9528 12408 0
9528 -10968 -12408 0
-1 48 -10248 0
1 10248 0
-48 10248 0
-721 768 -10968 0
721 10968 0
-768 10968 0
1 -48 -11688 0
-1 11688 0
48 11688 0
721 -768 -12408 0
-721 12408 0
768 12408 0
8928 -8688 0
9648 -8688 0
-8928 -9648 8688 0
-8928 10368 0
-8928 11808 0
8928 -10368 -11808 0
-9648 11088 0
-9648 12528 0
9648 -11088 -12528 0
-121 168 -10368 0
121 10368 0
-168 10368 0
-841 888 -11088 0
841 11088 0
-888 11088 0
121 -168 -11808 0
-121 11808 0
168 11808 0
841 -888 -12528 0
-841 12528 0
888 12528 0
9048 -8688 0
9768 -8688 0
-9048 -9768 8688 0
-9048 10488 0
-9048 11928 0
9048 -10488 -11928 0
-9768 11208 0
-9768 12648 0
9768 -11208 -12648 0
-241 288 -10488 0
241 10488 0
-288 10488 0
-961 1008 -11208 0
961 11208 0
-1008 11208 0
241 -288 -11928 0
-241 11928 0
288 11928 0
961 -1008 -12648 0
-961 12648 0
1008 12648 0
9168 -8688 0
9888 -8688 0
-9168 -9888 8688 0
-9168 10608 0
-9168 12048 0
9168 -10608 -12048 0
-9888 11328 0
-9888 12768 0
9888 -11328 -12768 0
-361 408 -10608 0
361 10608 0
-408 10608 0
-1081 1128 -11328 0
1081 11328 0
-1128 11328 0
361 -408 -12048 0
-361 12048 0
408 12048 0
1081 -1128 -12768 0
-1081 12768 0
1128 12768 0
9288 -8688 0
10008 -8688 0
-9288 -10008 8688 0
-9288 10728 0
-9288 12168 0
9288 -10728 -12168 0
-10008 11448 0
-10008 12888 0
10008 -11448 -12888 0
-481 528 -10728 0
481 10728 0
-528 10728 0
-1201 1248 -11448 0
1201 11448 0
-1248 11448 0
481 -528 -12168 0
-481 12168 0
528 12168 0
1201 -1248 -12888 0
-1201 12888 0
1248 12888 0
9408 -8688 0
10128 -8688 0
-9408 -10128 8688 0
-9408 10848 0
-9408 12288 0
9408 -10848 -12288 0
-10128 11568 0
-10128 13008 0
10128 -11568 -13008 0
-601 648 -10848 0
601 10848 0
-648 10848 0
-1321 1368 -11568 0
1321 11568 0
-1368 11568 0
601 -648 -12288 0
-601 12288 0
648 12288 0
1321 -1368 -13008 0
-1321 13008 0
1368 13008 0
8809 -8689 0
9529 -8689 0
-8809 -9529 8689 0
-8809 10249 0
-8809 11689 0
8809 -10249 -11689 0
-9529 10969 0
-9529 12409 0
9529 -10969 -12409 0
-1 49 -10249 0
1 10249 0
-49 10249 0
-721 769 -10969 0
721 10969 0
-769 10969 0
1 -49 -11689 0
-1 11689 0
49 11689 0
721 -769 -12409 0
-721 12409 0
769 12409 0
8929 -8689 0
9649 -8689 0
-8929 -9649 8689 0
-8929 10369 0
-8929 11809 0
8929 -10369 -11809 0
-9649 11089 0
-9649 12529 0
9649 -11089 -12529 0
-121 169 -10369 0
121 10369 0
-169 10369 0
-841 889 -11089 0
841 11089 0
-889 11089 0
121 -169 -11809 0
-121 11809 0
169 11809 0
841 -889 -12529 0
-841 12529 0
889 12529 0
9049 -8689 0
9769 -8689 0
-9049 -9769 8689 0
-9049 10489 0
-9049 11929 0
9049 -10489 -11929 0
-9769 11209 0
-9769 12649 0
9769 -11209 -12649 0
-241 289 -10489 0
241 10489 0
-289 10489 0
-961 1009 -11209 0
961 11209 0
-1009 11209 0
241 -289 -11929 0
-241 11929 0
289 11929 0
961 -1009 -12649 0
-961 12649 0
1009 12649 0
9169 -8689 0
9889 -8689 0
-9169 -9889 8689 0
-9169 10609 0
-9169 12049 0
9169 -10609 -12049 0
-9889 11329 0
-9889 12769 0
9889 -11329 -12769 0
-361 409 -10609 0
361 10609 0
-409 10609 0
-1081 1129 -11329 0
1081 11329 0
-1129 11329 0
361 -409 -12049 0
-361 12049 0
409 12049 0
1081 -1129 -12769 0
-1081 12769 0
1129 12769 0
9289 -8689 0
10009 -8689 0
-9289 -10009 8689 0
-9289 10729 0
-9289 12169 0
9289 -10729 -12169 0
-10009 11449 0
-10009 12889 0
10009 -11449 -12889 0
-481 529 -10729 0
481 10729 0
-529 10729 0
-1201 1249 -11449 0
1201 11449 0
-1249 11449 0
481 -529 -12169 0
-481 12169 0
529 12169 0
1201 -1249 -12889 0
-1201 12889 0
1249 12889 0
9409 -8689 0
10129 -8689 0
-9409 -10129 8689 0
-9409 10849 0
-9409 12289 0
9409 -10849 -12289 0
-10129 11569 0
-10129 13009 0
10129 -11569 -13009 0
-601 649 -10849 0
601 10849 0
-649 10849 0
-1321 1369 -11569 0
1321 11569 0
-1369 11569 0
601 -649 -12289 0
-601 12289 0
649 12289 0
1321 -1369 -13009 0
-1321 13009 0
1369 13009 0
8810 -8690 0
9530 -8690 0
-8810 -9530 8690 0
-8810 10250 0
-8810 11690 0
8810 -10250 -11690 0
-9530 10970 0
-9530 12410 0
9530 -10970 -12410 0
-1 50 -10250 0
1 10250 0
-50 10250 0
-721 770 -10970 0
721 10970 0
-770 10970 0
1 -50 -11690 0
-1 11690 0
50 11690 0
721 -770 -12410 0
-721 12410 0
770 12410 0
8930 -8690 0
9650 -8690 0
-8930 -9650 8690 0
-8930 10370 0
-8930 11810 0
8930 -10370 -11810 0
-9650 11090 0
-9650 12530 0
9650 -11090 -12530 0
-121 170 -10370 0
121 10370 0
-170 10370 0
-841 890 -11090 0
841 11090 0
-890 11090 0
121 -170 -11810 0
-121 11810 0
170 11810 0
841 -890 -12530 0
-841 12530 0
890 12530 0
9050 -8690 0
9770 -8690 0
-9050 -9770 8690 0
-9050 10490 0
-9050 11930 0
9050 -10490 -11930 0
-9770 11210 0
-9770 12650 0
9770 -11210 -12650 0
-241 290 -10490 0
241 10490 0
-290 10490 0
-961 1010 -11210 0
961 11210 0
-1010 11210 0
241 -290 -11930 0
-241 11930 0
290 11930 0
961 -1010 -12650 0
-961 12650 0
1010 12650 0
9170 -8690 0
9890 -8690 0
-9170 -9890 8690 0
-9170 10610 0
-9170 12050 0
9170 -10610 -12050 0
-9890 11330 0
-9890 12770 0
9890 -11330 -12770 0
-361 410 -10610 0
361 10610 0
-410 10610 0
-1081 1130 -11330 0
1081 11330 0
-1130 11330 0
361 -410 -12050 0
-361 12050 0
410 12050 0
1081 -1130 -12770 0
-1081 12770 0
1130 12770 0
9290 -8690 0
10010 -8690 0
-9290 -10010 8690 0
-9290 10730 0
-9290 12170 0
9290 -10730 -12170 0
-10010 11450 0
-10010 12890 0
10010 -11450 -12890 0
-481 530 -10730 0
481 10730 0
-530 10730 0
-1201 1250 -11450 0
1201 11450 0
-1250 11450 0
481 -530 -12170 0
-481 12170 0
530 12170 0
1201 -1250 -12890 0
-1201 12890 0
1250 12890 0
9410 -8690 0
10130 -8690 0
-9410 -10130 8690 0
-9410 10850 0
-9410 12290 0
9410 -10850 -12290 0
-10130 11570 0
-10130 13010 0
10130 -11570 -13010 0
-601 650 -10850 0
601 10850 0
-650 10850 0
-1321 1370 -11570 0
1321 11570 0
-1370 11570 0
601 -650 -12290 0
-601 12290 0
650 12290 0
1321 -1370 -13010 0
-1321 13010 0
1370 13010 0
8811 -8691 0
9531 -8691 0
-8811 -9531 8691 0
-8811 10251 0
-8811 11691 0
8811 -10251 -11691 0
-9531 10971 0
-9531 12411 0
9531 -10971 -12411 0
-1 51 -10251 0
1 10251 0
-51 10251 0
-721 771 -10971 0
721 10971 0
-771 10971 0
1 -51 -11691 0
-1 11691 0
51 11691 0
721 -771 -12411 0
-721 12411 0
771 12411 0
8931 -8691 0
9651 -8691 0
-8931 -9651 8691 0
-8931 10371 0
-8931 11811 0
8931 -10371 -11811 0
-9651 11091 0
-9651 12531 0
9651 -11091 -12531 0
-121 171 -10371 0
121 10371 0
-171 10371 0
-841 891 -11091 0
841 11091 0
-891 11091 0
121 -171 -11811 0
-121 11811 0
171 11811 0
841 -891 -12531 0
-841 12531 0
891 12531 0
9051 -8691 0
9771 -8691 0
-9051 -9771 8691 0
-9051 10491 0
-9051 11931 0
9051 -10491 -11931 0
-9771 11211 0
-9771 12651 0
9771 -11211 -12651 0
-241 291 -10491 0
241 10491 0
-291 10491 0
-961 1011 -11211 0
961 11211 0
-1011 11211 0
241 -291 -11931 0
-241 11931 0
291 11931 0
961 -1011 -12651 0
-961 12651 0
1011 12651 0
9171 -8691 0
9891 -8691 0
-9171 -9891 8691 0
-9171 10611 0
-9171 12051 0
9171 -10611 -12051 0
-9891 11331 0
-9891 12771 0
9891 -11331 -12771 0
-361 411 -10611 0
361 10611 0
-411 10611 0
-1081 1131 -11331 0
1081 11331 0
-1131 11331 0
361 -411 -12051 0
-361 12051 0
411 12051 0
1081 -1131 -12771 0
-1081 12771 0
1131 12771 0
9291 -8691 0
10011 -8691 0
-9291 -10011 8691 0
-9291 10731 0
-9291 12171 0
9291 -10731 -12171 0
-10011 11451 0
-10011 12891 0
10011 -11451 -12891 0
-481 531 -10731 0
481 10731 0
-531 10731 0
-1201 1251 -11451 0
1201 11451 0
-1251 11451 0
481 -531 -12171 0
-481 12171 0
531 12171 0
1201 -1251 -12891 0
-1201 12891 0
1251 12891 0
9411 -8691 0
10131 -8691 0
-9411 -10131 8691 0
-9411 10851 0
-9411 12291 0
9411 -10851 -12291 0
-10131 11571 0
-10131 13011 0
10131 -11571 -13011 0
-601 651 -10851 0
601 10851 0
-651 10851 0
-1321 1371 -11571 0
1321 11571 0
-1371 11571 0
601 -651 -12291 0
-601 12291 0
651 12291 0
1321 -1371 -13011 0
-1321 13011 0
1371 13011 0
8812 -8692 0
9532 -8692 0
-8812 -9532 8692 0
-8812 10252 0
-8812 11692 0
8812 -10252 -11692 0
-9532 10972 0
-9532 12412 0
9532 -10972 -12412 0
-1 52 -10252 0
1 10252 0
-52 10252 0
-721 772 -10972 0
721 10972 0
-772 10972 0
1 -52 -11692 0
-1 11692 0
52 11692 0
721 -772 -12412 0
-721 12412 0
772 12412 0
8932 -8692 0
9652 -8692 0
-8932 -9652 8692 0
-8932 10372 0
-8932 11812 0
8932 -10372 -11812 0
-9652 11092 0
-9652 12532 0
9652 -11092 -12532 0
-121 172 -10372 0
121 10372 0
-172 10372 0
-841 892 -11092 0
841 11092 0
-892 11092 0
121 -172 -11812 0
-121 11812 0
172 11812 0
841 -892 -12532 0
-841 12532 0
892 12532 0
9052 -8692 0
9772 -8692 0
-9052 -9772 8692 0
-9052 10492 0
-9052 11932 0
9052 -10492 -11932 0
-9772 11212 0
-9772 12652 0
9772 -11212 -12652 0
-241 292 -10492 0
241 10492 0
-292 10492 0
-961 1012 -11212 0
961 11212 0
-1012 11212 0
241 -292 -11932 0
-241 11932 0
292 11932 0
961 -1012 -12652 0
-961 12652 0
1012 12652 0
9172 -8692 0
9892 -8692 0
-9172 -9892 8692 0
-9172 10612 0
-9172 12052 0
9172 -10612 -12052 0
-9892 11332 0
-9892 12772 0
9892 -11332 -12772 0
-361 412 -10612 0
361 10612 0
-412 10612 0
-1081 1132 -11332 0
1081 11332 0
-1132 11332 0
361 -412 -12052 0
-361 12052 0
412 12052 0
1081 -1132 -12772 0
-1081 12772 0
1132 12772 0
9292 -8692 0
10012 -8692 0
-9292 -10012 8692 0
-9292 10732 0
-9292 12172 0
9292 -10732 -12172 0
-10012 11452 0
-10012 12892 0
10012 -11452 -12892 0
-481 532 -10732 0
481 10732 0
-532 10732 0
-1201 1252 -11452 0
1201 11452 0
-1252 11452 0
481 -532 -12172 0
-481 12172 0
532 12172 0
1201 -1252 -12892 0
-1201 12892 0
1252 12892 0
9412 -8692 0
10132 -8692 0
-9412 -10132 8692 0
-9412 10852 0
-9412 12292 0
9412 -10852 -12292 0
-10132 11572 0
-10132 13012 0
10132 -11572 -13012 0
-601 652 -10852 0
601 10852 0
-652 10852 0
-1321 1372 -11572 0
1321 11572 0
-1372 11572 0
601 -652 -12292 0
-601 12292 0
652 12292 0
1321 -1372 -13012 0
-1321 13012 0
1372 13012 0
8813 -8693 0
9533 -8693 0
-8813 -9533 8693 0
-8813 10253 0
-8813 11693 0
8813 -10253 -11693 0
-9533 10973 0
-9533 12413 0
9533 -10973 -12413 0
-1 53 -10253 0
1 10253 0
-53 10253 0
-721 773 -10973 0
721 10973 0
-773 10973 0
1 -53 -11693 0
-1 11693 0
53 11693 0
721 -773 -12413 0
-721 12413 0
773 12413 0
8933 -8693 0
9653 -8693 0
-8933 -9653 8693 0
-8933 10373 0
-8933 11813 0
8933 -10373 -11813 0
-9653 11093 0
-9653 12533 0
9653 -11093 -12533 0
-121 173 -10373 0
121 10373 0
-173 10373 0
-841 893 -11093 0
841 11093 0
-893 11093 0
121 -173 -11813 0
-121 11813 0
173 11813 0
841 -893 -12533 0
-841 12533 0
893 12533 0
9053 -8693 0
9773 -8693 0
-9053 -9773 8693 0
-9053 10493 0
-9053 11933 0
9053 -10493 -11933 0
-9773 11213 0
-9773 12653 0
9773 -11213 -12653 0
-241 293 -10493 0
241 10493 0
-293 10493 0
-961 1013 -11213 0
961 11213 0
-1013 11213 0
241 -293 -11933 0
-241 11933 0
293 11933 0
961 -1013 -12653 0
-961 12653 0
1013 12653 0
9173 -8693 0
9893 -8693 0
-9173 -9893 8693 0
-9173 10613 0
-9173 12053 0
9173 -10613 -12053 0
-9893 11333 0
-9893 12773 0
9893 -11333 -12773 0
-361 413 -10613 0
361 10613 0
-413 10613 0
-1081 1133 -11333 0
1081 11333 0
-1133 11333 0
361 -413 -12053 0
-361 12053 0
413 12053 0
1081 -1133 -12773 0
-1081 12773 0
1133 12773 0
9293 -8693 0
10013 -8693 0
-9293 -10013 8693 0
-9293 10733 0
-9293 12173 0
9293 -10733 -12173 0
-10013 11453 0
-10013 12893 0
10013 -11453 -12893 0
-481 533 -10733 0
481 10733 0
-533 10733 0
-1201 1253 -11453 0
1201 11453 0
-1253 11453 0
481 -533 -12173 0
-481 12173 0
533 12173 0
1201 -1253 -12893 0
-1201 12893 0
1253 12893 0
9413 -8693 0
10133 -8693 0
-9413 -10133 8693 0
-9413 10853 0
-9413 12293 0
9413 -10853 -12293 0
-10133 11573 0
-10133 13013 0
10133 -11573 -13013 0
-601 653 -10853 0
601 10853 0
-653 10853 0
-1321 1373 -11573 0
1321 11573 0
-1373 11573 0
601 -653 -12293 0
-601 12293 0
653 12293 0
1321 -1373 -13013 0
-1321 13013 0
1373 13013 0
8814 -8694 0
9534 -8694 0
-8814 -9534 8694 0
-8814 10254 0
-8814 11694 0
8814 -10254 -11694 0
-9534 10974 0
-9534 12414 0
9534 -10974 -12414 0
-1 54 -10254 0
1 10254 0
-54 10254 0
-721 774 -10974 0
721 10974 0
-774 10974 0
1 -54 -11694 0
-1 11694 0
54 11694 0
721 -774 -12414 0
-721 12414 0
774 12414 0
8934 -8694 0
9654 -8694 0
-8934 -9654 8694 0
-8934 10374 0
-8934 11814 0
8934 -10374 -11814 0
-9654 11094 0
-9654 12534 0
9654 -11094 -12534 0
-121 174 -10374 0
121 10374 0
-174 10374 0
-841 894 -11094 0
841 11094 0
-894 11094 0
121 -174 -11814 0
-121 11814 0
174 11814 0
841 -894 -12534 0
-841 12534 0
894 12534 0
9054 -8694 0
9774 -8694 0
-9054 -9774 8694 0
-9054 10494 0
-9054 11934 0
9054 -10494 -11934 0
-9774 11214 0
-9774 12654 0
9774 -11214 -12654 0
-241 294 -10494 0
241 10494 0
-294 10494 0
-961 1014 -11214 0
961 11214 0
-1014 11214 0
241 -294 -11934 0
-241 11934 0
294 11934 0
961 -1014 -12654 0
-961 12654 0
1014 12654 0
9174 -8694 0
9894 -8694 0
-9174 -9894 8694 0
-9174 10614 0
-9174 12054 0
9174 -10614 -12054 0
-9894 11334 0
-9894 12774 0
9894 -11334 -12774 0
-361 414 -10614 0
361 10614 0
-414 10614 0
-1081 1134 -11334 0
1081 11334 0
-1134 11334 0
361 -414 -12054 0
-361 12054 0
414 12054 0
1081 -1134 -12774 0
-1081 12774 0
1134 12774 0
9294 -8694 0
10014 -8694 0
-9294 -10014 8694 0
-9294 10734 0
-9294 12174 0
9294 -10734 -12174 0
-10014 11454 0
-10014 12894 0
10014 -11454 -12894 0
-481 534 -10734 0
481 10734 0
-534 10734 0
-1201 1254 -11454 0
1201 11454 0
-1254 11454 0
481 -534 -12174 0
-481 12174 0
534 12174 0
1201 -1254 -12894 0
-1201 12894 0
1254 12894 0
9414 -8694 0
10134 -8694 0
-9414 -10134 8694 0
-9414 10854 0
-9414 12294 0
9414 -10854 -12294 0
-10134 11574 0
-10134 13014 0
10134 -11574 -13014 0
-601 654 -10854 0
601 10854 0
-654 10854 0
-1321 1374 -11574 0
1321 11574 0
-1374 11574 0
601 -654 -12294 0
-601 12294 0
654 12294 0
1321 -1374 -13014 0
-1321 13014 0
1374 13014 0
8815 -8695 0
9535 -8695 0
-8815 -9535 8695 0
-8815 10255 0
-8815 11695 0
8815 -10255 -11695 0
-9535 10975 0
-9535 12415 0
9535 -10975 -12415 0
-1 55 -10255 0
1 10255 0
-55 10255 0
-721 775 -10975 0
721 10975 0
-775 10975 0
1 -55 -11695 0
-1 11695 0
55 11695 0
721 -775 -12415 0
-721 12415 0
775 12415 0
8935 -8695 0
9655 -8695 0
-8935 -9655 8695 0
-8935 10375 0
-8935 11815 0
8935 -10375 -11815 0
-9655 11095 0
-9655 12535 0
9655 -11095 -12535 0
-121 175 -10375 0
121 10375 0
-175 10375 0
-841 895 -11095 0
841 11095 0
-895 11095 0
121 -175 -11815 0
-121 11815 0
175 11815 0
841 -895 -12535 0
-841 12535 0
895 12535 0
9055 -8695 0
9775 -8695 0
-9055 -9775 8695 0
-9055 10495 0
-9055 11935 0
9055 -10495 -11935 0
-9775 11215 0
-9775 12655 0
9775 -11215 -12655 0
-241 295 -10495 0
241 10495 0
-295 10495 0
-961 1015 -11215 0
961 11215 0
-1015 11215 0
241 -295 -11935 0
-241 11935 0
295 11935 0
961 -1015 -12655 0
-961 12655 0
1015 12655 0
9175 -8695 0
9895 -8695 0
-9175 -9895 8695 0
-9175 10615 0
-9175 12055 0
9175 -10615 -12055 0
-9895 11335 0
-9895 12775 0
9895 -11335 -12775 0
-361 415 -10615 0
361 10615 0
-415 10615 0
-1081 1135 -11335 0
1081 11335 0
-1135 11335 0
361 -415 -12055 0
-361 12055 0
415 12055 0
1081 -1135 -12775 0
-1081 12775 0
1135 12775 0
9295 -8695 0
10015 -8695 0
-9295 -10015 8695 0
-9295 10735 0
-9295 12175 0
9295 -10735 -12175 0
-10015 11455 0
-10015 12895 0
10015 -11455 -12895 0
-481 535 -10735 0
481 10735 0
-535 10735 0
-1201 1255 -11455 0
1201 11455 0
-1255 11455 0
481 -535 -12175 0
-481 12175 0
535 12175 0
1201 -1255 -12895 0
-1201 12895 0
1255 12895 0
9415 -8695 0
10135 -8695 0
-9415 -10135 8695 0
-9415 10855 0
-9415 12295 0
9415 -10855 -12295 0
-10135 11575 0
-10135 13015 0
10135 -11575 -13015 0
-601 655 -10855 0
601 10855 0
-655 10855 0
-1321 1375 -11575 0
1321 11575 0
-1375 11575 0
601 -655 -12295 0
-601 12295 0
655 12295 0
1321 -1375 -13015 0
-1321 13015 0
1375 13015 0
8816 -8696 0
9536 -8696 0
-8816 -9536 8696 0
-8816 10256 0
-8816 11696 0
8816 -10256 -11696 0
-9536 10976 0
-9536 12416 0
9536 -10976 -12416 0
-1 56 -10256 0
1 10256 0
-56 10256 0
-721 776 -10976 0
721 10976 0
-776 10976 0
1 -56 -11696 0
-1 11696 0
56 11696 0
721 -776 -12416 0
-721 12416 0
776 12416 0
8936 -8696 0
9656 -8696 0
-8936 -9656 8696 0
-8936 10376 0
-8936 11816 0
8936 -10376 -11816 0
-9656 11096 0
-9656 12536 0
9656 -11096 -12536 0
-121 176 -10376 0
121 10376 0
-176 10376 0
-841 896 -11096 0
841 11096 0
-896 11096 0
121 -176 -11816 0
-121 11816 0
176 11816 0
841 -896 -12536 0
-841 12536 0
896 12536 0
9056 -8696 0
9776 -8696 0
-9056 -9776 8696 0
-9056 10496 0
-9056 11936 0
9056 -10496 -11936 0
-9776 11216 0
-9776 12656 0
9776 -11216 -12656 0
-241 296 -10496 0
241 10496 0
-296 10496 0
-961 1016 -11216 0
961 11216 0
-1016 11216 0
241 -296 -11936 0
-241 11936 0
296 11936 0
961 -1016 -12656 0
-961 12656 0
1016 12656 0
9176 -8696 0
9896 -8696 0
-9176 -9896 8696 0
-9176 10616 0
-9176 12056 0
9176 -10616 -12056 0
-9896 11336 0
-9896 12776 0
9896 -11336 -12776 0
-361 416 -10616 0
361 10616 0
-416 10616 0
-1081 1136 -11336 0
1081 11336 0
-1136 11336 0
361 -416 -12056 0
-361 12056 0
416 12056 0
1081 -1136 -12776 0
-1081 12776 0
1136 12776 0
9296 -8696 0
10016 -8696 0
-9296 -10016 8696 0
-9296 10736 0
-9296 12176 0
9296 -10736 -12176 0
-10016 11456 0
-10016 12896 0
10016 -11456 -12896 0
-481 536 -10736 0
481 10736 0
-536 10736 0
-1201 1256 -11456 0
1201 11456 0
-1256 11456 0
481 -536 -12176 0
-481 12176 0
536 12176 0
1201 -1256 -12896 0
-1201 12896 0
1256 12896 0
9416 -8696 0
10136 -8696 0
-9416 -10136 8696 0
-9416 10856 0
-9416 12296 0
9416 -10856 -12296 0
-10136 11576 0
-10136 13016 0
10136 -11576 -13016 0
-601 656 -10856 0
601 10856 0
-656 10856 0
-1321 1376 -11576 0
1321 11576 0
-1376 11576 0
601 -656 -12296 0
-601 12296 0
656 12296 0
1321 -1376 -13016 0
-1321 13016 0
1376 13016 0
8817 -8697 0
9537 -8697 0
-8817 -9537 8697 0
-8817 10257 0
-8817 11697 0
8817 -10257 -11697 0
-9537 10977 0
-9537 12417 0
9537 -10977 -12417 0
-1 57 -10257 0
1 10257 0
-57 10257 0
-721 777 -10977 0
721 10977 0
-777 10977 0
1 -57 -11697 0
-1 11697 0
57 11697 0
721 -777 -12417 0
-721 12417 0
777 12417 0
8937 -8697 0
9657 -8697 0
-8937 -9657 8697 0
-8937 10377 0
-8937 11817 0
8937 -10377 -11817 0
-9657 11097 0
-9657 12537 0
9657 -11097 -12537 0
-121 177 -10377 0
121 10377 0
-177 10377 0
-841 897 -11097 0
841 11097 0
-897 11097 0
121 -177 -11817 0
-121 11817 0
177 11817 0
841 -897 -12537 0
-841 12537 0
897 12537 0
9057 -8697 0
9777 -8697 0
-9057 -9777 8697 0
-9057 10497 0
-9057 11937 0
9057 -10497 -11937 0
-9777 11217 0
-9777 12657 0
9777 -11217 -12657 0
-241 297 -10497 0
241 10497 0
-297 10497 0
-961 1017 -11217 0
961 11217 0
-1017 11217 0
241 -297 -11937 0
-241 11937 0
297 11937 0
961 -1017 -12657 0
-961 12657 0
1017 12657 0
9177 -8697 0
9897 -8697 0
-9177 -9897 8697 0
-9177 10617 0
-9177 12057 0
9177 -10617 -12057 0
-9897 11337 0
-9897 12777 0
9897 -11337 -12777 0
-361 417 -10617 0
361 10617 0
-417 10617 0
-1081 1137 -11337 0
1081 11337 0
-1137 11337 0
361 -417 -12057 0
-361 12057 0
417 12057 0
1081 -1137 -12777 0
-1081 12777 0
1137 12777 0
9297 -8697 0
10017 -8697 0
-9297 -10017 8697 0
-9297 10737 0
-9297 12177 0
9297 -10737 -12177 0
-10017 11457 0
-10017 12897 0
10017 -11457 -12897 0
-481 537 -10737 0
481 10737 0
-537 10737 0
-1201 1257 -11457 0
1201 11457 0
-1257 11457 0
481 -537 -12177 0
-481 12177 0
537 12177 0
1201 -1257 -12897 0
-1201 12897 0
1257 12897 0
9417 -8697 0
10137 -8697 0
-9417 -10137 8697 0
-9417 10857 0
-9417 12297 0
9417 -10857 -12297 0
-10137 11577 0
-10137 13017 0
10137 -11577 -13017 0
-601 657 -10857 0
601 10857 0
-657 10857 0
-1321 1377 -11577 0
1321 11577 0
-1377 11577 0
601 -657 -12297 0
-601 12297 0
657 12297 0
1321 -1377 -13017 0
-1321 13017 0
1377 13017 0
8818 -8698 0
9538 -8698 0
-8818 -9538 8698 0
-8818 10258 0
-8818 11698 0
8818 -10258 -11698 0
-9538 10978 0
-9538 12418 0
9538 -10978 -12418 0
-1 58 -10258 0
1 10258 0
-58 10258 0
-721 778 -10978 0
721 10978 0
-778 10978 0
1 -58 -11698 0
-1 11698 0
58 11698 0
721 -778 -12418 0
-721 12418 0
778 12418 0
8938 -8698 0
9658 -8698 0
-8938 -9658 8698 0
-8938 10378 0
-8938 11818 0
8938 -10378 -11818 0
-9658 11098 0
-9658 12538 0
9658 -11098 -12538 0
-121 178 -10378 0
121 10378 0
-178 10378 0
-841 898 -11098 0
841 11098 0
-898 11098 0
121 -178 -11818 0
-121 11818 0
178 11818 0
841 -898 -12538 0
-841 12538 0
898 12538 0
9058 -8698 0
9778 -8698 0
-9058 -9778 8698 0
-9058 10498 0
-9058 11938 0
9058 -10498 -11938 0
-9778 11218 0
-9778 12658 0
9778 -11218 -12658 0
-241 298 -10498 0
241 10498 0
-298 10498 0
-961 1018 -11218 0
961 11218 0
-1018 11218 0
241 -298 -11938 0
-241 11938 0
298 11938 0
961 -1018 -12658 0
-961 12658 0
1018 12658 0
9178 -8698 0
9898 -8698 0
-9178 -9898 8698 0
-9178 10618 0
-9178 12058 0
9178 -10618 -12058 0
-9898 11338 0
-9898 12778 0
9898 -11338 -12778 0
-361 418 -10618 0
361 10618 0
-418 10618 0
-1081 1138 -11338 0
1081 11338 0
-1138 11338 0
361 -418 -12058 0
-361 12058 0
418 12058 0
1081 -1138 -12778 0
-1081 12778 0
1138 12778 0
9298 -8698 0
10018 -8698 0
-9298 -10018 8698 0
-9298 10738 0
-9298 12178 0
9298 -10738 -12178 0
-10018 11458 0
-10018 12898 0
10018 -11458 -12898 0
-481 538 -10738 0
481 10738 0
-538 10738 0
-1201 1258 -11458 0
1201 11458 0
-1258 11458 0
481 -538 -12178 0
-481 12178 0
538 12178 0
1201 -1258 -12898 0
-1201 12898 0
1258 12898 0
9418 -8698 0
10138 -8698 0
-9418 -10138 8698 0
-9418 10858 0
-9418 12298 0
9418 -10858 -12298 0
-10138 11578 0
-10138 13018 0
10138 -11578 -13018 0
-601 658 -10858 0
601 10858 0
-658 10858 0
-1321 1378 -11578 0
1321 11578 0
-1378 11578 0
601 -658 -12298 0
-601 12298 0
658 12298 0
1321 -1378 -13018 0
-1321 13018 0
1378 13018 0
8819 -8699 0
9539 -8699 0
-8819 -9539 8699 0
-8819 10259 0
-8819 11699 0
8819 -10259 -11699 0
-9539 10979 0
-9539 12419 0
9539 -10979 -12419 0
-1 59 -10259 0
1 10259 0
-59 10259 0
-721 779 -10979 0
721 10979 0
-779 10979 0
1 -59 -11699 0
-1 11699 0
59 11699 0
721 -779 -12419 0
-721 12419 0
779 12419 0
8939 -8699 0
9659 -8699 0
-8939 -9659 8699 0
-8939 10379 0
-8939 11819 0
8939 -10379 -11819 0
-9659 11099 0
-9659 12539 0
9659 -11099 -12539 0
-121 179 -10379 0
121 10379 0
-179 10379 0
-841 899 -11099 0
841 11099 0
-899 11099 0
121 -179 -11819 0
-121 11819 0
179 11819 0
841 -899 -12539 0
-841 12539 0
899 12539 0
9059 -8699 0
9779 -8699 0
-9059 -9779 8699 0
-9059 10499 0
-9059 11939 0
9059 -10499 -11939 0
-9779 11219 0
-9779 12659 0
9779 -11219 -12659 0
-241 299 -10499 0
241 10499 0
-299 10499 0
-961 1019 -11219 0
961 11219 0
-1019 11219 0
241 -299 -11939 0
-241 11939 0
299 11939 0
961 -1019 -12659 0
-961 12659 0
1019 12659 0
9179 -8699 0
9899 -8699 0
-9179 -9899 8699 0
-9179 10619 0
-9179 12059 0
9179 -10619 -12059 0
-9899 11339 0
-9899 12779 0
9899 -11339 -12779 0
-361 419 -10619 0
361 10619 0
-419 10619 0
-1081 1139 -11339 0
1081 11339 0
-1139 11339 0
361 -419 -12059 0
-361 12059 0
419 12059 0
1081 -1139 -12779 0
-1081 12779 0
1139 12779 0
9299 -8699 0
10019 -8699 0
-9299 -10019 8699 0
-9299 10739 0
-9299 12179 0
9299 -10739 -12179 0
-10019 11459 0
-10019 12899 0
10019 -11459 -12899 0
-481 539 -10739 0
481 10739 0
-539 10739 0
-1201 1259 -11459 0
1201 11459 0
-1259 11459 0
481 -539 -12179 0
-481 12179 0
539 12179 0
1201 -1259 -12899 0
-1201 12899 0
1259 12899 0
9419 -8699 0
10139 -8699 0
-9419 -10139 8699 0
-9419 10859 0
-9419 12299 0
9419 -10859 -12299 0
-10139 11579 0
-10139 13019 0
10139 -11579 -13019 0
-601 659 -10859 0
601 10859 0
-659 10859 0
-1321 1379 -11579 0
1321 11579 0
-1379 11579 0
601 -659 -12299 0
-601 12299 0
659 12299 0
1321 -1379 -13019 0
-1321 13019 0
1379 13019 0
8820 -8700 0
9540 -8700 0
-8820 -9540 8700 0
-8820 10260 0
-8820 11700 0
8820 -10260 -11700 0
-9540 10980 0
-9540 12420 0
9540 -10980 -12420 0
-1 60 -10260 0
1 10260 0
-60 10260 0
-721 780 -10980 0
721 10980 0
-780 10980 0
1 -60 -11700 0
-1 11700 0
60 11700 0
721 -780 -12420 0
-721 12420 0
780 12420 0
8940 -8700 0
9660 -8700 0
-8940 -9660 8700 0
-8940 10380 0
-8940 11820 0
8940 -10380 -11820 0
-9660 11100 0
-9660 12540 0
9660 -11100 -12540 0
-121 180 -10380 0
121 10380 0
-180 10380 0
-841 900 -11100 0
841 11100 0
-900 11100 0
121 -180 -11820 0
-121 11820 0
180 11820 0
841 -900 -12540 0
-841 12540 0
900 12540 0
9060 -8700 0
9780 -8700 0
-9060 -9780 8700 0
-9060 10500 0
-9060 11940 0
9060 -10500 -11940 0
-9780 11220 0
-9780 12660 0
9780 -11220 -12660 0
-241 300 -10500 0
241 10500 0
-300 10500 0
-961 1020 -11220 0
961 11220 0
-1020 11220 0
241 -300 -11940 0
-241 11940 0
300 11940 0
961 -1020 -12660 0
-961 12660 0
1020 12660 0
9180 -8700 0
9900 -8700 0
-9180 -9900 8700 0
-9180 10620 0
-9180 12060 0
9180 -10620 -12060 0
-9900 11340 0
-9900 12780 0
9900 -11340 -12780 0
-361 420 -10620 0
361 10620 0
-420 10620 0
-1081 1140 -11340 0
1081 11340 0
-1140 11340 0
361 -420 -12060 0
-361 12060 0
420 12060 0
1081 -1140 -12780 0
-1081 12780 0
1140 12780 0
9300 -8700 0
10020 -8700 0
-9300 -10020 8700 0
-9300 10740 0
-9300 12180 0
9300 -10740 -12180 0
-10020 11460 0
-10020 12900 0
10020 -11460 -12900 0
-481 540 -10740 0
481 10740 0
-540 10740 0
-1201 1260 -11460 0
1201 11460 0
-1260 11460 0
481 -540 -12180 0
-481 12180 0
540 12180 0
1201 -1260 -12900 0
-1201 12900 0
1260 12900 0
9420 -8700 0
10140 -8700 0
-9420 -10140 8700 0
-9420 10860 0
-9420 12300 0
9420 -10860 -12300 0
-10140 11580 0
-10140 13020 0
10140 -11580 -13020 0
-601 660 -10860 0
601 10860 0
-660 10860 0
-1321 1380 -11580 0
1321 11580 0
-1380 11580 0
601 -660 -12300 0
-601 12300 0
660 12300 0
1321 -1380 -13020 0
-1321 13020 0
1380 13020 0
8821 -8701 0
9541 -8701 0
-8821 -9541 8701 0
-8821 10261 0
-8821 11701 0
8821 -10261 -11701 0
-9541 10981 0
-9541 12421 0
9541 -10981 -12421 0
-1 61 -10261 0
1 10261 0
-61 10261 0
-721 781 -10981 0
721 10981 0
-781 10981 0
1 -61 -11701 0
-1 11701 0
61 11701 0
721 -781 -12421 0
-721 12421 0
781 12421 0
8941 -8701 0
9661 -8701 0
-8941 -9661 8701 0
-8941 10381 0
-8941 11821 0
8941 -10381 -11821 0
-9661 11101 0
-9661 12541 0
9661 -11101 -12541 0
-121 181 -10381 0
121 10381 0
-181 10381 0
-841 901 -11101 0
841 11101 0
-901 11101 0
121 -181 -11821 0
-121 11821 0
181 11821 0
841 -901 -12541 0
-841 12541 0
901 12541 0
9061 -8701 0
9781 -8701 0
-9061 -9781 8701 0
-9061 10501 0
-9061 11941 0
9061 -10501 -11941 0
-9781 11221 0
-9781 12661 0
9781 -11221 -12661 0
-241 301 -10501 0
241 10501 0
-301 10501 0
-961 1021 -11221 0
961 11221 0
-1021 11221 0
241 -301 -11941 0
-241 11941 0
301 11941 0
961 -1021 -12661 0
-961 12661 0
1021 12661 0
9181 -8701 0
9901 -8701 0
-9181 -9901 8701 0
-9181 10621 0
-9181 12061 0
9181 -10621 -12061 0
-9901 11341 0
-9901 12781 0
9901 -11341 -12781 0
-361 421 -10621 0
361 10621 0
-421 10621 0
-1081 1141 -11341 0
1081 11341 0
-1141 11341 0
361 -421 -12061 0
-361 12061 0
421 12061 0
1081 -1141 -12781 0
-1081 12781 0
1141 12781 0
9301 -8701 0
10021 -8701 0
-9301 -10021 8701 0
-9301 10741 0
-9301 12181 0
9301 -10741 -12181 0
-10021 11461 0
-10021 12901 0
10021 -11461 -12901 0
-481 541 -10741 0
481 10741 0
-541 10741 0
-1201 1261 -11461 0
1201 11461 0
-1261 11461 0
481 -541 -12181 0
-481 12181 0
541 12181 0
1201 -1261 -12901 0
-1201 12901 0
1261 12901 0
9421 -8701 0
10141 -8701 0
-9421 -10141 8701 0
-9421 10861 0
-9421 12301 0
9421 -10861 -12301 0
-10141 11581 0
-10141 13021 0
10141 -11581 -13021 0
-601 661 -10861 0
601 10861 0
-661 10861 0
-1321 1381 -11581 0
1321 11581 0
-1381 11581 0
601 -661 -12301 0
-601 12301 0
661 12301 0
1321 -1381 -13021 0
-1321 13021 0
1381 13021 0
8822 -8702 0
9542 -8702 0
-8822 -9542 8702 0
-8822 10262 0
-8822 11702 0
8822 -10262 -11702 0
-9542 10982 0
-9542 12422 0
9542 -10982 -12422 0
-1 62 -10262 0
1 10262 0
-62 10262 0
-721 782 -10982 0
721 10982 0
-782 10982 0
1 -62 -11702 0
-1 11702 0
62 11702 0
721 -782 -12422 0
-721 12422 0
782 12422 0
8942 -8702 0
9662 -8702 0
-8942 -9662 8702 0
-8942 10382 0
-8942 11822 0
8942 -10382 -11822 0
-9662 11102 0
-9662 12542 0
9662 -11102 -12542 0
-121 182 -10382 0
121 10382 0
-182 10382 0
-841 902 -11102 0
841 11102 0
-902 11102 0
121 -182 -11822 0
-121 11822 0
182 11822 0
841 -902 -12542 0
-841 12542 0
902 12542 0
9062 -8702 0
9782 -8702 0
-9062 -9782 8702 0
-9062 10502 0
-9062 11942 0
9062 -10502 -11942 0
-9782 11222 0
-9782 12662 0
9782 -11222 -12662 0
-241 302 -10502 0
241 10502 0
-302 10502 0
-961 1022 -11222 0
961 11222 0
-1022 11222 0
241 -302 -11942 0
-241 11942 0
302 11942 0
961 -1022 -12662 0
-961 12662 0
1022 12662 0
9182 -8702 0
9902 -8702 0
-9182 -9902 8702 0
-9182 10622 0
-9182 12062 0
9182 -10622 -12062 0
-9902 11342 0
-9902 12782 0
9902 -11342 -12782 0
-361 422 -10622 0
361 10622 0
-422 10622 0
-1081 1142 -11342 0
1081 11342 0
-1142 11342 0
361 -422 -12062 0
-361 12062 0
422 12062 0
1081 -1142 -12782 0
-1081 12782 0
1142 12782 0
9302 -8702 0
10022 -8702 0
-9302 -10022 8702 0
-9302 10742 0
-9302 12182 0
9302 -10742 -12182 0
-10022 11462 0
-10022 12902 0
10022 -11462 -12902 0
-481 542 -10742 0
481 10742 0
-542 10742 0
-1201 1262 -11462 0
1201 11462 0
-1262 11462 0
481 -542 -12182 0
-481 12182 0
542 12182 0
1201 -1262 -12902 0
-1201 12902 0
1262 12902 0
9422 -8702 0
10142 -8702 0
-9422 -10142 8702 0
-9422 10862 0
-9422 12302 0
9422 -10862 -12302 0
-10142 11582 0
-10142 13022 0
10142 -11582 -13022 0
-601 662 -10862 0
601 10862 0
-662 10862 0
-1321 1382 -11582 0
1321 11582 0
-1382 11582 0
601 -662 -12302 0
-601 12302 0
662 12302 0
1321 -1382 -13022 0
-1321 13022 0
1382 13022 0
8823 -8703 0
9543 -8703 0
-8823 -9543 8703 0
-8823 10263 0
-8823 11703 0
8823 -10263 -11703 0
-9543 10983 0
-9543 12423 0
9543 -10983 -12423 0
-1 63 -10263 0
1 10263 0
-63 10263 0
-721 783 -10983 0
721 10983 0
-783 10983 0
1 -63 -11703 0
-1 11703 0
63 11703 0
721 -783 -12423 0
-721 12423 0
783 12423 0
8943 -8703 0
9663 -8703 0
-8943 -9663 8703 0
-8943 10383 0
-8943 11823 0
8943 -10383 -11823 0
-9663 11103 0
-9663 12543 0
9663 -11103 -12543 0
-121 183 -10383 0
121 10383 0
-183 10383 0
-841 903 -11103 0
841 11103 0
-903 11103 0
121 -183 -11823 0
-121 11823 0
183 11823 0
841 -903 -12543 0
-841 12543 0
903 12543 0
9063 -8703 0
9783 -8703 0
-9063 -9783 8703 0
-9063 10503 0
-9063 11943 0
9063 -10503 -11943 0
-9783 11223 0
-9783 12663 0
9783 -11223 -12663 0
-241 303 -10503 0
241 10503 0
-303 10503 0
-961 1023 -11223 0
961 11223 0
-1023 11223 0
241 -303 -11943 0
-241 11943 0
303 11943 0
961 -1023 -12663 0
-961 12663 0
1023 12663 0
9183 -8703 0
9903 -8703 0
-9183 -9903 8703 0
-9183 10623 0
-9183 12063 0
9183 -10623 -12063 0
-9903 11343 0
-9903 12783 0
9903 -11343 -12783 0
-361 423 -10623 0
361 10623 0
-423 10623 0
-1081 1143 -11343 0
1081 11343 0
-1143 11343 0
361 -423 -12063 0
-361 12063 0
423 12063 0
1081 -1143 -12783 0
-1081 12783 0
1143 12783 0
9303 -8703 0
10023 -8703 0
-9303 -10023 8703 0
-9303 10743 0
-9303 12183 0
9303 -10743 -12183 0
-10023 11463 0
-10023 12903 0
10023 -11463 -12903 0
-481 543 -10743 0
481 10743 0
-543 10743 0
-1201 1263 -11463 0
1201 11463 0
-1263 11463 0
481 -543 -12183 0
-481 12183 0
543 12183 0
1201 -1263 -12903 0
-1201 12903 0
1263 12903 0
9423 -8703 0
10143 -8703 0
-9423 -10143 8703 0
-9423 10863 0
-9423 12303 0
9423 -10863 -12303 0
-10143 11583 0
-10143 13023 0
10143 -11583 -13023 0
-601 663 -10863 0
601 10863 0
-663 10863 0
-1321 1383 -11583 0
1321 11583 0
-1383 11583 0
601 -663 -12303 0
-601 12303 0
663 12303 0
1321 -1383 -13023 0
-1321 13023 0
1383 13023 0
8824 -8704 0
9544 -8704 0
-8824 -9544 8704 0
-8824 10264 0
-8824 11704 0
8824 -10264 -11704 0
-9544 10984 0
-9544 12424 0
9544 -10984 -12424 0
-1 64 -10264 0
1 10264 0
-64 10264 0
-721 784 -10984 0
721 10984 0
-784 10984 0
1 -64 -11704 0
-1 11704 0
64 11704 0
721 -784 -12424 0
-721 12424 0
784 12424 0
8944 -8704 0
9664 -8704 0
-8944 -9664 8704 0
-8944 10384 0
-8944 11824 0
8944 -10384 -11824 0
-9664 11104 0
-9664 12544 0
9664 -11104 -12544 0
-121 184 -10384 0
121 10384 0
-184 10384 0
-841 904 -11104 0
841 11104 0
-904 11104 0
121 -184 -11824 0
-121 11824 0
184 11824 0
841 -904 -12544 0
-841 12544 0
904 12544 0
9064 -8704 0
9784 -8704 0
-9064 -9784 8704 0
-9064 10504 0
-9064 11944 0
9064 -10504 -11944 0
-9784 11224 0
-9784 12664 0
9784 -11224 -12664 0
-241 304 -10504 0
241 10504 0
-304 10504 0
-961 1024 -11224 0
961 11224 0
-1024 11224 0
241 -304 -11944 0
-241 11944 0
304 11944 0
961 -1024 -12664 0
-961 12664 0
1024 12664 0
9184 -8704 0
9904 -8704 0
-9184 -9904 8704 0
-9184 10624 0
-9184 12064 0
9184 -10624 -12064 0
-9904 11344 0
-9904 12784 0
9904 -11344 -12784 0
-361 424 -10624 0
361 10624 0
-424 10624 0
-1081 1144 -11344 0
1081 11344 0
-1144 11344 0
361 -424 -12064 0
-361 12064 0
424 12064 0
1081 -1144 -12784 0
-1081 12784 0
1144 12784 0
9304 -8704 0
10024 -8704 0
-9304 -10024 8704 0
-9304 10744 0
-9304 12184 0
9304 -10744 -12184 0
-10024 11464 0
-10024 12904 0
10024 -11464 -12904 0
-481 544 -10744 0
481 10744 0
-544 10744 0
-1201 1264 -11464 0
1201 11464 0
-1264 11464 0
481 -544 -12184 0
-481 12184 0
544 12184 0
1201 -1264 -12904 0
-1201 12904 0
1264 12904 0
9424 -8704 0
10144 -8704 0
-9424 -10144 8704 0
-9424 10864 0
-9424 12304 0
9424 -10864 -12304 0
-10144 11584 0
-10144 13024 0
10144 -11584 -13024 0
-601 664 -10864 0
601 10864 0
-664 10864 0
-1321 1384 -11584 0
1321 11584 0
-1384 11584 0
601 -664 -12304 0
-601 12304 0
664 12304 0
1321 -1384 -13024 0
-1321 13024 0
1384 13024 0
8825 -8705 0
9545 -8705 0
-8825 -9545 8705 0
-8825 10265 0
-8825 11705 0
8825 -10265 -11705 0
-9545 10985 0
-9545 12425 0
9545 -10985 -12425 0
-1 65 -10265 0
1 10265 0
-65 10265 0
-721 785 -10985 0
721 10985 0
-785 10985 0
1 -65 -11705 0
-1 11705 0
65 11705 0
721 -785 -12425 0
-721 12425 0
785 12425 0
8945 -8705 0
9665 -8705 0
-8945 -9665 8705 0
-8945 10385 0
-8945 11825 0
8945 -10385 -11825 0
-9665 11105 0
-9665 12545 0
9665 -11105 -12545 0
-121 185 -10385 0
121 10385 0
-185 10385 0
-841 905 -11105 0
841 11105 0
-905 11105 0
121 -185 -11825 0
-121 11825 0
185 11825 0
841 -905 -12545 0
-841 12545 0
905 12545 0
9065 -8705 0
9785 -8705 0
-9065 -9785 8705 0
-9065 10505 0
-9065 11945 0
9065 -10505 -11945 0
-9785 11225 0
-9785 12665 0
9785 -11225 -12665 0
-241 305 -10505 0
241 10505 0
-305 10505 0
-961 1025 -11225 0
961 11225 0
-1025 11225 0
241 -305 -11945 0
-241 11945 0
305 11945 0
961 -1025 -12665 0
-961 12665 0
1025 12665 0
9185 -8705 0
9905 -8705 0
-9185 -9905 8705 0
-9185 10625 0
-9185 12065 0
9185 -10625 -12065 0
-9905 11345 0
-9905 12785 0
9905 -11345 -12785 0
-361 425 -10625 0
361 10625 0
-425 10625 0
-1081 1145 -11345 0
1081 11345 0
-1145 11345 0
361 -425 -12065 0
-361 12065 0
425 12065 0
1081 -1145 -12785 0
-1081 12785 0
1145 12785 0
9305 -8705 0
10025 -8705 0
-9305 -10025 8705 0
-9305 10745 0
-9305 12185 0
9305 -10745 -12185 0
-10025 11465 0
-10025 12905 0
10025 -11465 -12905 0
-481 545 -10745 0
481 10745 0
-545 10745 0
-1201 1265 -11465 0
1201 11465 0
-1265 11465 0
481 -545 -12185 0
-481 12185 0
545 12185 0
1201 -1265 -12905 0
-1201 12905 0
1265 12905 0
9425 -8705 0
10145 -8705 0
-9425 -10145 8705 0
-9425 10865 0
-9425 12305 0
9425 -10865 -12305 0
-10145 11585 0
-10145 13025 0
10145 -11585 -13025 0
-601 665 -10865 0
601 10865 0
-665 10865 0
-1321 1385 -11585 0
1321 11585 0
-1385 11585 0
601 -665 -12305 0
-601 12305 0
665 12305 0
1321 -1385 -13025 0
-1321 13025 0
1385 13025 0
8826 -8706 0
9546 -8706 0
-8826 -9546 8706 0
-8826 10266 0
-8826 11706 0
8826 -10266 -11706 0
-9546 10986 0
-9546 12426 0
9546 -10986 -12426 0
-1 66 -10266 0
1 10266 0
-66 10266 0
-721 786 -10986 0
721 10986 0
-786 10986 0
1 -66 -11706 0
-1 11706 0
66 11706 0
721 -786 -12426 0
-721 12426 0
786 12426 0
8946 -8706 0
9666 -8706 0
-8946 -9666 8706 0
-8946 10386 0
-8946 11826 0
8946 -10386 -11826 0
-9666 11106 0
-9666 12546 0
9666 -11106 -12546 0
-121 186 -10386 0
121 10386 0
-186 10386 0
-841 906 -11106 0
841 11106 0
-906 11106 0
121 -186 -11826 0
-121 11826 0
186 11826 0
841 -906 -12546 0
-841 12546 0
906 12546 0
9066 -8706 0
9786 -8706 0
-9066 -9786 8706 0
-9066 10506 0
-9066 11946 0
9066 -10506 -11946 0
-9786 11226 0
-9786 12666 0
9786 -11226 -12666 0
-241 306 -10506 0
241 10506 0
-306 10506 0
-961 1026 -11226 0
961 11226 0
-1026 11226 0
241 -306 -11946 0
-241 11946 0
306 11946 0
961 -1026 -12666 0
-961 12666 0
1026 12666 0
9186 -8706 0
9906 -8706 0
-9186 -9906 8706 0
-9186 10626 0
-9186 12066 0
9186 -10626 -12066 0
-9906 11346 0
-9906 12786 0
9906 -11346 -12786 0
-361 426 -10626 0
361 10626 0
-426 10626 0
-1081 1146 -11346 0
1081 11346 0
-1146 11346 0
361 -426 -12066 0
-361 12066 0
426 12066 0
1081 -1146 -12786 0
-1081 12786 0
1146 12786 0
9306 -8706 0
10026 -8706 0
-9306 -10026 8706 0
-9306 10746 0
-9306 12186 0
9306 -10746 -12186 0
-10026 11466 0
-10026 12906 0
10026 -11466 -12906 0
-481 546 -10746 0
481 10746 0
-546 10746 0
-1201 1266 -11466 0
1201 11466 0
-1266 11466 0
481 -546 -12186 0
-481 12186 0
546 12186 0
1201 -1266 -12906 0
-1201 12906 0
1266 12906 0
9426 -8706 0
10146 -8706 0
-9426 -10146 8706 0
-9426 10866 0
-9426 12306 0
9426 -10866 -12306 0
-10146 11586 0
-10146 13026 0
10146 -11586 -13026 0
-601 666 -10866 0
601 10866 0
-666 10866 0
-1321 1386 -11586 0
1321 11586 0
-1386 11586 0
601 -666 -12306 0
-601 12306 0
666 12306 0
1321 -1386 -13026 0
-1321 13026 0
1386 13026 0
8827 -8707 0
9547 -8707 0
-8827 -9547 8707 0
-8827 10267 0
-8827 11707 0
8827 -10267 -11707 0
-9547 10987 0
-9547 12427 0
9547 -10987 -12427 0
-1 67 -10267 0
1 10267 0
-67 10267 0
-721 787 -10987 0
721 10987 0
-787 10987 0
1 -67 -11707 0
-1 11707 0
67 11707 0
721 -787 -12427 0
-721 12427 0
787 12427 0
8947 -8707 0
9667 -8707 0
-8947 -9667 8707 0
-8947 10387 0
-8947 11827 0
8947 -10387 -11827 0
-9667 11107 0
-9667 12547 0
9667 -11107 -12547 0
-121 187 -10387 0
121 10387 0
-187 10387 0
-841 907 -11107 0
841 11107 0
-907 11107 0
121 -187 -11827 0
-121 11827 0
187 11827 0
841 -907 -12547 0
-841 12547 0
907 12547 0
9067 -8707 0
9787 -8707 0
-9067 -9787 8707 0
-9067 10507 0
-9067 11947 0
9067 -10507 -11947 0
-9787 11227 0
-9787 12667 0
9787 -11227 -12667 0
-241 307 -10507 0
241 10507 0
-307 10507 0
-961 1027 -11227 0
961 11227 0
-1027 11227 0
241 -307 -11947 0
-241 11947 0
307 11947 0
961 -1027 -12667 0
-961 12667 0
1027 12667 0
9187 -8707 0
9907 -8707 0
-9187 -9907 8707 0
-9187 10627 0
-9187 12067 0
9187 -10627 -12067 0
-9907 11347 0
-9907 12787 0
9907 -11347 -12787 0
-361 427 -10627 0
361 10627 0
-427 10627 0
-1081 1147 -11347 0
1081 11347 0
-1147 11347 0
361 -427 -12067 0
-361 12067 0
427 12067 0
1081 -1147 -12787 0
-1081 12787 0
1147 12787 0
9307 -8707 0
10027 -8707 0
-9307 -10027 8707 0
-9307 10747 0
-9307 12187 0
9307 -10747 -12187 0
-10027 11467 0
-10027 12907 0
10027 -11467 -12907 0
-481 547 -10747 0
481 10747 0
-547 10747 0
-1201 1267 -11467 0
1201 11467 0
-1267 11467 0
481 -547 -12187 0
-481 12187 0
547 12187 0
1201 -1267 -12907 0
-1201 12907 0
1267 12907 0
9427 -8707 0
10147 -8707 0
-9427 -10147 8707 0
-9427 10867 0
-9427 12307 0
9427 -10867 -12307 0
-10147 11587 0
-10147 13027 0
10147 -11587 -13027 0
-601 667 -10867 0
601 10867 0
-667 10867 0
-1321 1387 -11587 0
1321 11587 0
-1387 11587 0
601 -667 -12307 0
-601 12307 0
667 12307 0
1321 -1387 -13027 0
-1321 13027 0
1387 13027 0
8828 -8708 0
9548 -8708 0
-8828 -9548 8708 0
-8828 10268 0
-8828 11708 0
8828 -10268 -11708 0
-9548 10988 0
-9548 12428 0
9548 -10988 -12428 0
-1 68 -10268 0
1 10268 0
-68 10268 0
-721 788 -10988 0
721 10988 0
-788 10988 0
1 -68 -11708 0
-1 11708 0
68 11708 0
721 -788 -12428 0
-721 12428 0
788 12428 0
8948 -8708 0
9668 -8708 0
-8948 -9668 8708 0
-8948 10388 0
-8948 11828 0
8948 -10388 -11828 0
-9668 11108 0
-9668 12548 0
9668 -11108 -12548 0
-121 188 -10388 0
121 10388 0
-188 10388 0
-841 908 -11108 0
841 11108 0
-908 11108 0
121 -188 -11828 0
-121 11828 0
188 11828 0
841 -908 -12548 0
-841 12548 0
908 12548 0
9068 -8708 0
9788 -8708 0
-9068 -9788 8708 0
-9068 10508 0
-9068 11948 0
9068 -10508 -11948 0
-9788 11228 0
-9788 12668 0
9788 -11228 -12668 0
-241 308 -10508 0
241 10508 0
-308 10508 0
-961 1028 -11228 0
961 11228 0
-1028 11228 0
241 -308 -11948 0
-241 11948 0
308 11948 0
961 -1028 -12668 0
-961 12668 0
1028 12668 0
9188 -8708 0
9908 -8708 0
-9188 -9908 8708 0
-9188 10628 0
-9188 12068 0
9188 -10628 -12068 0
-9908 11348 0
-9908 12788 0
9908 -11348 -12788 0
-361 428 -10628 0
361 10628 0
-428 10628 0
-1081 1148 -11348 0
1081 11348 0
-1148 11348 0
361 -428 -12068 0
-361 12068 0
428 12068 0
1081 -1148 -12788 0
-1081 12788 0
1148 12788 0
9308 -8708 0
10028 -8708 0
-9308 -10028 8708 0
-9308 10748 0
-9308 12188 0
9308 -10748 -12188 0
-10028 11468 0
-10028 12908 0
10028 -11468 -12908 0
-481 548 -10748 0
481 10748 0
-548 10748 0
-1201 1268 -11468 0
1201 11468 0
-1268 11468 0
481 -548 -12188 0
-481 12188 0
548 12188 0
1201 -1268 -12908 0
-1201 12908 0
1268 12908 0
9428 -8708 0
10148 -8708 0
-9428 -10148 8708 0
-9428 10868 0
-9428 12308 0
9428 -10868 -12308 0
-10148 11588 0
-10148 13028 0
10148 -11588 -13028 0
-601 668 -10868 0
601 10868 0
-668 10868 0
-1321 1388 -11588 0
1321 11588 0
-1388 11588 0
601 -668 -12308 0
-601 12308 0
668 12308 0
1321 -1388 -13028 0
-1321 13028 0
1388 13028 0
8829 -8709 0
9549 -8709 0
-8829 -9549 8709 0
-8829 10269 0
-8829 11709 0
8829 -10269 -11709 0
-9549 10989 0
-9549 12429 0
9549 -10989 -12429 0
-1 69 -10269 0
1 10269 0
-69 10269 0
-721 789 -10989 0
721 10989 0
-789 10989 0
1 -69 -11709 0
-1 11709 0
69 11709 0
721 -789 -12429 0
-721 12429 0
789 12429 0
8949 -8709 0
9669 -8709 0
-8949 -9669 8709 0
-8949 10389 0
-8949 11829 0
8949 -10389 -11829 0
-9669 11109 0
-9669 12549 0
9669 -11109 -12549 0
-121 189 -10389 0
121 10389 0
-189 10389 0
-841 909 -11109 0
841 11109 0
-909 11109 0
121 -189 -11829 0
-121 11829 0
189 11829 0
841 -909 -12549 0
-841 12549 0
909 12549 0
9069 -8709 0
9789 -8709 0
-9069 -9789 8709 0
-9069 10509 0
-9069 11949 0
9069 -10509 -11949 0
-9789 11229 0
-9789 12669 0
9789 -11229 -12669 0
-241 309 -10509 0
241 10509 0
-309 10509 0
-961 1029 -11229 0
961 11229 0
-1029 11229 0
241 -309 -11949 0
-241 11949 0
309 11949 0
961 -1029 -12669 0
-961 12669 0
1029 12669 0
9189 -8709 0
9909 -8709 0
-9189 -9909 8709 0
-9189 10629 0
-9189 12069 0
9189 -10629 -12069 0
-9909 11349 0
-9909 12789 0
9909 -11349 -12789 0
-361 429 -10629 0
361 10629 0
-429 10629 0
-1081 1149 -11349 0
1081 11349 0
-1149 11349 0
361 -429 -12069 0
-361 12069 0
429 12069 0
1081 -1149 -12789 0
-1081 12789 0
1149 12789 0
9309 -8709 0
10029 -8709 0
-9309 -10029 8709 0
-9309 10749 0
-9309 12189 0
9309 -10749 -12189 0
-10029 11469 0
-10029 12909 0
10029 -11469 -12909 0
-481 549 -10749 0
481 10749 0
-549 10749 0
-1201 1269 -11469 0
1201 11469 0
-1269 11469 0
481 -549 -12189 0
-481 12189 0
549 12189 0
1201 -1269 -12909 0
-1201 12909 0
1269 12909 0
9429 -8709 0
10149 -8709 0
-9429 -10149 8709 0
-9429 10869 0
-9429 12309 0
9429 -10869 -12309 0
-10149 11589 0
-10149 13029 0
10149 -11589 -13029 0
-601 669 -10869 0
601 10869 0
-669 10869 0
-1321 1389 -11589 0
1321 11589 0
-1389 11589 0
601 -669 -12309 0
-601 12309 0
669 12309 0
1321 -1389 -13029 0
-1321 13029 0
1389 13029 0
8830 -8710 0
9550 -8710 0
-8830 -9550 8710 0
-8830 10270 0
-8830 11710 0
8830 -10270 -11710 0
-9550 10990 0
-9550 12430 0
9550 -10990 -12430 0
-1 70 -10270 0
1 10270 0
-70 10270 0
-721 790 -10990 0
721 10990 0
-790 10990 0
1 -70 -11710 0
-1 11710 0
70 11710 0
721 -790 -12430 0
-721 12430 0
790 12430 0
8950 -8710 0
9670 -8710 0
-8950 -9670 8710 0
-8950 10390 0
-8950 11830 0
8950 -10390 -11830 0
-9670 11110 0
-9670 12550 0
9670 -11110 -12550 0
-121 190 -10390 0
121 10390 0
-190 10390 0
-841 910 -11110 0
841 11110 0
-910 11110 0
121 -190 -11830 0
-121 11830 0
190 11830 0
841 -910 -12550 0
-841 12550 0
910 12550 0
9070 -8710 0
9790 -8710 0
-9070 -9790 8710 0
-9070 10510 0
-9070 11950 0
9070 -10510 -11950 0
-9790 11230 0
-9790 12670 0
9790 -11230 -12670 0
-241 310 -10510 0
241 10510 0
-310 10510 0
-961 1030 -11230 0
961 11230 0
-1030 11230 0
241 -310 -11950 0
-241 11950 0
310 11950 0
961 -1030 -12670 0
-961 12670 0
1030 12670 0
9190 -8710 0
9910 -8710 0
-9190 -9910 8710 0
-9190 10630 0
-9190 12070 0
9190 -10630 -12070 0
-9910 11350 0
-9910 12790 0
9910 -11350 -12790 0
-361 430 -10630 0
361 10630 0
-430 10630 0
-1081 1150 -11350 0
1081 11350 0
-1150 11350 0
361 -430 -12070 0
-361 12070 0
430 12070 0
1081 -1150 -12790 0
-1081 12790 0
1150 12790 0
9310 -8710 0
10030 -8710 0
-9310 -10030 8710 0
-9310 10750 0
-9310 12190 0
9310 -10750 -12190 0
-10030 11470 0
-10030 12910 0
10030 -11470 -12910 0
-481 550 -10750 0
481 10750 0
-550 10750 0
-1201 1270 -11470 0
1201 11470 0
-1270 11470 0
481 -550 -12190 0
-481 12190 0
550 12190 0
1201 -1270 -12910 0
-1201 12910 0
1270 12910 0
9430 -8710 0
10150 -8710 0
-9430 -10150 8710 0
-9430 10870 0
-9430 12310 0
9430 -10870 -12310 0
-10150 11590 0
-10150 13030 0
10150 -11590 -13030 0
-601 670 -10870 0
601 10870 0
-670 10870 0
-1321 1390 -11590 0
1321 11590 0
-1390 11590 0
601 -670 -12310 0
-601 12310 0
670 12310 0
1321 -1390 -13030 0
-1321 13030 0
1390 13030 0
8831 -8711 0
9551 -8711 0
-8831 -9551 8711 0
-8831 10271 0
-8831 11711 0
8831 -10271 -11711 0
-9551 10991 0
-9551 12431 0
9551 -10991 -12431 0
-1 71 -10271 0
1 10271 0
-71 10271 0
-721 791 -10991 0
721 10991 0
-791 10991 0
1 -71 -11711 0
-1 11711 0
71 11711 0
721 -791 -12431 0
-721 12431 0
791 12431 0
8951 -8711 0
9671 -8711 0
-8951 -9671 8711 0
-8951 10391 0
-8951 11831 0
8951 -10391 -11831 0
-9671 11111 0
-9671 12551 0
9671 -11111 -12551 0
-121 191 -10391 0
121 10391 0
-191 10391 0
-841 911 -11111 0
841 11111 0
-911 11111 0
121 -191 -11831 0
-121 11831 0
191 11831 0
841 -911 -12551 0
-841 12551 0
911 12551 0
9071 -8711 0
9791 -8711 0
-9071 -9791 8711 0
-9071 10511 0
-9071 11951 0
9071 -10511 -11951 0
-9791 11231 0
-9791 12671 0
9791 -11231 -12671 0
-241 311 -10511 0
241 10511 0
-311 10511 0
-961 1031 -11231 0
961 11231 0
-1031 11231 0
241 -311 -11951 0
-241 11951 0
311 11951 0
961 -1031 -12671 0
-961 12671 0
1031 12671 0
9191 -8711 0
9911 -8711 0
-9191 -9911 8711 0
-9191 10631 0
-9191 12071 0
9191 -10631 -12071 0
-9911 11351 0
-9911 12791 0
9911 -11351 -12791 0
-361 431 -10631 0
361 10631 0
-431 10631 0
-1081 1151 -11351 0
1081 11351 0
-1151 11351 0
361 -431 -12071 0
-361 12071 0
431 12071 0
1081 -1151 -12791 0
-1081 12791 0
1151 12791 0
9311 -8711 0
10031 -8711 0
-9311 -10031 8711 0
-9311 10751 0
-9311 12191 0
9311 -10751 -12191 0
-10031 11471 0
-10031 12911 0
10031 -11471 -12911 0
-481 551 -10751 0
481 10751 0
-551 10751 0
-1201 1271 -11471 0
1201 11471 0
-1271 11471 0
481 -551 -12191 0
-481 12191 0
551 12191 0
1201 -1271 -12911 0
-1201 12911 0
1271 12911 0
9431 -8711 0
10151 -8711 0
-9431 -10151 8711 0
-9431 10871 0
-9431 12311 0
9431 -10871 -12311 0
-10151 11591 0
-10151 13031 0
10151 -11591 -13031 0
-601 671 -10871 0
601 10871 0
-671 10871 0
-1321 1391 -11591 0
1321 11591 0
-1391 11591 0
601 -671 -12311 0
-601 12311 0
671 12311 0
1321 -1391 -13031 0
-1321 13031 0
1391 13031 0
8832 -8712 0
9552 -8712 0
-8832 -9552 8712 0
-8832 10272 0
-8832 11712 0
8832 -10272 -11712 0
-9552 10992 0
-9552 12432 0
9552 -10992 -12432 0
-1 72 -10272 0
1 10272 0
-72 10272 0
-721 792 -10992 0
721 10992 0
-792 10992 0
1 -72 -11712 0
-1 11712 0
72 11712 0
721 -792 -12432 0
-721 12432 0
792 12432 0
8952 -8712 0
9672 -8712 0
-8952 -9672 8712 0
-8952 10392 0
-8952 11832 0
8952 -10392 -11832 0
-9672 11112 0
-9672 12552 0
9672 -11112 -12552 0
-121 192 -10392 0
121 10392 0
-192 10392 0
-841 912 -11112 0
841 11112 0
-912 11112 0
121 -192 -11832 0
-121 11832 0
192 11832 0
841 -912 -12552 0
-841 12552 0
912 12552 0
9072 -8712 0
9792 -8712 0
-9072 -9792 8712 0
-9072 10512 0
-9072 11952 0
9072 -10512 -11952 0
-9792 11232 0
-9792 12672 0
9792 -11232 -12672 0
-241 312 -10512 0
241 10512 0
-312 10512 0
-961 1032 -11232 0
961 11232 0
-1032 11232 0
241 -312 -11952 0
-241 11952 0
312 11952 0
961 -1032 -12672 0
-961 12672 0
1032 12672 0
9192 -8712 0
9912 -8712 0
-9192 -9912 8712 0
-9192 10632 0
-9192 12072 0
9192 -10632 -12072 0
-9912 11352 0
-9912 12792 0
9912 -11352 -12792 0
-361 432 -10632 0
361 10632 0
-432 10632 0
-1081 1152 -11352 0
1081 11352 0
-1152 11352 0
361 -432 -12072 0
-361 12072 0
432 12072 0
1081 -1152 -12792 0
-1081 12792 0
1152 12792 0
9312 -8712 0
10032 -8712 0
-9312 -10032 8712 0
-9312 10752 0
-9312 12192 0
9312 -10752 -12192 0
-10032 11472 0
-10032 12912 0
10032 -11472 -12912 0
-481 552 -10752 0
481 10752 0
-552 10752 0
-1201 1272 -11472 0
1201 11472 0
-1272 11472 0
481 -552 -12192 0
-481 12192 0
552 12192 0
1201 -1272 -12912 0
-1201 12912 0
1272 12912 0
9432 -8712 0
10152 -8712 0
-9432 -10152 8712 0
-9432 10872 0
-9432 12312 0
9432 -10872 -12312 0
-10152 11592 0
-10152 13032 0
10152 -11592 -13032 0
-601 672 -10872 0
601 10872 0
-672 10872 0
-1321 1392 -11592 0
1321 11592 0
-1392 11592 0
601 -672 -12312 0
-601 12312 0
672 12312 0
1321 -1392 -13032 0
-1321 13032 0
1392 13032 0
8833 -8713 0
9553 -8713 0
-8833 -9553 8713 0
-8833 10273 0
-8833 11713 0
8833 -10273 -11713 0
-9553 10993 0
-9553 12433 0
9553 -10993 -12433 0
-1 73 -10273 0
1 10273 0
-73 10273 0
-721 793 -10993 0
721 10993 0
-793 10993 0
1 -73 -11713 0
-1 11713 0
73 11713 0
721 -793 -12433 0
-721 12433 0
793 12433 0
8953 -8713 0
9673 -8713 0
-8953 -9673 8713 0
-8953 10393 0
-8953 11833 0
8953 -10393 -11833 0
-9673 11113 0
-9673 12553 0
9673 -11113 -12553 0
-121 193 -10393 0
121 10393 0
-193 10393 0
-841 913 -11113 0
841 11113 0
-913 11113 0
121 -193 -11833 0
-121 11833 0
193 11833 0
841 -913 -12553 0
-841 12553 0
913 12553 0
9073 -8713 0
9793 -8713 0
-9073 -9793 8713 0
-9073 10513 0
-9073 11953 0
9073 -10513 -11953 0
-9793 11233 0
-9793 12673 0
9793 -11233 -12673 0
-241 313 -10513 0
241 10513 0
-313 10513 0
-961 1033 -11233 0
961 11233 0
-1033 11233 0
241 -313 -11953 0
-241 11953 0
313 11953 0
961 -1033 -12673 0
-961 12673 0
1033 12673 0
9193 -8713 0
9913 -8713 0
-9193 -9913 8713 0
-9193 10633 0
-9193 12073 0
9193 -10633 -12073 0
-9913 11353 0
-9913 12793 0
9913 -11353 -12793 0
-361 433 -10633 0
361 10633 0
-433 10633 0
-1081 1153 -11353 0
1081 11353 0
-1153 11353 0
361 -433 -12073 0
-361 12073 0
433 12073 0
1081 -1153 -12793 0
-1081 12793 0
1153 12793 0
9313 -8713 0
10033 -8713 0
-9313 -10033 8713 0
-9313 10753 0
-9313 12193 0
9313 -10753 -12193 0
-10033 11473 0
-10033 12913 0
10033 -11473 -12913 0
-481 553 -10753 0
481 10753 0
-553 10753 0
-1201 1273 -11473 0
1201 11473 0
-1273 11473 0
481 -553 -12193 0
-481 12193 0
553 12193 0
1201 -1273 -12913 0
-1201 12913 0
1273 12913 0
9433 -8713 0
10153 -8713 0
-9433 -10153 8713 0
-9433 10873 0
-9433 12313 0
9433 -10873 -12313 0
-10153 11593 0
-10153 13033 0
10153 -11593 -13033 0
-601 673 -10873 0
601 10873 0
-673 10873 0
-1321 1393 -11593 0
1321 11593 0
-1393 11593 0
601 -673 -12313 0
-601 12313 0
673 12313 0
1321 -1393 -13033 0
-1321 13033 0
1393 13033 0
8834 -8714 0
9554 -8714 0
-8834 -9554 8714 0
-8834 10274 0
-8834 11714 0
8834 -10274 -11714 0
-9554 10994 0
-9554 12434 0
9554 -10994 -12434 0
-1 74 -10274 0
1 10274 0
-74 10274 0
-721 794 -10994 0
721 10994 0
-794 10994 0
1 -74 -11714 0
-1 11714 0
74 11714 0
721 -794 -12434 0
-721 12434 0
794 12434 0
8954 -8714 0
9674 -8714 0
-8954 -9674 8714 0
-8954 10394 0
-8954 11834 0
8954 -10394 -11834 0
-9674 11114 0
-9674 12554 0
9674 -11114 -12554 0
-121 194 -10394 0
121 10394 0
-194 10394 0
-841 914 -11114 0
841 11114 0
-914 11114 0
121 -194 -11834 0
-121 11834 0
194 11834 0
841 -914 -12554 0
-841 12554 0
914 12554 0
9074 -8714 0
9794 -8714 0
-9074 -9794 8714 0
-9074 10514 0
-9074 11954 0
9074 -10514 -11954 0
-9794 11234 0
-9794 12674 0
9794 -11234 -12674 0
-241 314 -10514 0
241 10514 0
-314 10514 0
-961 1034 -11234 0
961 11234 0
-1034 11234 0
241 -314 -11954 0
-241 11954 0
314 11954 0
961 -1034 -12674 0
-961 12674 0
1034 12674 0
9194 -8714 0
9914 -8714 0
-9194 -9914 8714 0
-9194 10634 0
-9194 12074 0
9194 -10634 -12074 0
-9914 11354 0
-9914 12794 0
9914 -11354 -12794 0
-361 434 -10634 0
361 10634 0
-434 10634 0
-1081 1154 -11354 0
1081 11354 0
-1154 11354 0
361 -434 -12074 0
-361 12074 0
434 12074 0
1081 -1154 -12794 0
-1081 12794 0
1154 12794 0
9314 -8714 0
10034 -8714 0
-9314 -10034 8714 0
-9314 10754 0
-9314 12194 0
9314 -10754 -12194 0
-10034 11474 0
-10034 12914 0
10034 -11474 -12914 0
-481 554 -10754 0
481 10754 0
-554 10754 0
-1201 1274 -11474 0
1201 11474 0
-1274 11474 0
481 -554 -12194 0
-481 12194 0
554 12194 0
1201 -1274 -12914 0
-1201 12914 0
1274 12914 0
9434 -8714 0
10154 -8714 0
-9434 -10154 8714 0
-9434 10874 0
-9434 12314 0
9434 -10874 -12314 0
-10154 11594 0
-10154 13034 0
10154 -11594 -13034 0
-601 674 -10874 0
601 10874 0
-674 10874 0
-1321 1394 -11594 0
1321 11594 0
-1394 11594 0
601 -674 -12314 0
-601 12314 0
674 12314 0
1321 -1394 -13034 0
-1321 13034 0
1394 13034 0
8835 -8715 0
9555 -8715 0
-8835 -9555 8715 0
-8835 10275 0
-8835 11715 0
8835 -10275 -11715 0
-9555 10995 0
-9555 12435 0
9555 -10995 -12435 0
-1 75 -10275 0
1 10275 0
-75 10275 0
-721 795 -10995 0
721 10995 0
-795 10995 0
1 -75 -11715 0
-1 11715 0
75 11715 0
721 -795 -12435 0
-721 12435 0
795 12435 0
8955 -8715 0
9675 -8715 0
-8955 -9675 8715 0
-8955 10395 0
-8955 11835 0
8955 -10395 -11835 0
-9675 11115 0
-9675 12555 0
9675 -11115 -12555 0
-121 195 -10395 0
121 10395 0
-195 10395 0
-841 915 -11115 0
841 11115 0
-915 11115 0
121 -195 -11835 0
-121 11835 0
195 11835 0
841 -915 -12555 0
-841 12555 0
915 12555 0
9075 -8715 0
9795 -8715 0
-9075 -9795 8715 0
-9075 10515 0
-9075 11955 0
9075 -10515 -11955 0
-9795 11235 0
-9795 12675 0
9795 -11235 -12675 0
-241 315 -10515 0
241 10515 0
-315 10515 0
-961 1035 -11235 0
961 11235 0
-1035 11235 0
241 -315 -11955 0
-241 11955 0
315 11955 0
961 -1035 -12675 0
-961 12675 0
1035 12675 0
9195 -8715 0
9915 -8715 0
-9195 -9915 8715 0
-9195 10635 0
-9195 12075 0
9195 -10635 -12075 0
-9915 11355 0
-9915 12795 0
9915 -11355 -12795 0
-361 435 -10635 0
361 10635 0
-435 10635 0
-1081 1155 -11355 0
1081 11355 0
-1155 11355 0
361 -435 -12075 0
-361 12075 0
435 12075 0
1081 -1155 -12795 0
-1081 12795 0
1155 12795 0
9315 -8715 0
10035 -8715 0
-9315 -10035 8715 0
-9315 10755 0
-9315 12195 0
9315 -10755 -12195 0
-10035 11475 0
-10035 12915 0
10035 -11475 -12915 0
-481 555 -10755 0
481 10755 0
-555 10755 0
-1201 1275 -11475 0
1201 11475 0
-1275 11475 0
481 -555 -12195 0
-481 12195 0
555 12195 0
1201 -1275 -12915 0
-1201 12915 0
1275 12915 0
9435 -8715 0
10155 -8715 0
-9435 -10155 8715 0
-9435 10875 0
-9435 12315 0
9435 -10875 -12315 0
-10155 11595 0
-10155 13035 0
10155 -11595 -13035 0
-601 675 -10875 0
601 10875 0
-675 10875 0
-1321 1395 -11595 0
1321 11595 0
-1395 11595 0
601 -675 -12315 0
-601 12315 0
675 12315 0
1321 -1395 -13035 0
-1321 13035 0
1395 13035 0
8836 -8716 0
9556 -8716 0
-8836 -9556 8716 0
-8836 10276 0
-8836 11716 0
8836 -10276 -11716 0
-9556 10996 0
-9556 12436 0
9556 -10996 -12436 0
-1 76 -10276 0
1 10276 0
-76 10276 0
-721 796 -10996 0
721 10996 0
-796 10996 0
1 -76 -11716 0
-1 11716 0
76 11716 0
721 -796 -12436 0
-721 12436 0
796 12436 0
8956 -8716 0
9676 -8716 0
-8956 -9676 8716 0
-8956 10396 0
-8956 11836 0
8956 -10396 -11836 0
-9676 11116 0
-9676 12556 0
9676 -11116 -12556 0
-121 196 -10396 0
121 10396 0
-196 10396 0
-841 916 -11116 0
841 11116 0
-916 11116 0
121 -196 -11836 0
-121 11836 0
196 11836 0
841 -916 -12556 0
-841 12556 0
916 12556 0
9076 -8716 0
9796 -8716 0
-9076 -9796 8716 0
-9076 10516 0
-9076 11956 0
9076 -10516 -11956 0
-9796 11236 0
-9796 12676 0
9796 -11236 -12676 0
-241 316 -10516 0
241 10516 0
-316 10516 0
-961 1036 -11236 0
961 11236 0
-1036 11236 0
241 -316 -11956 0
-241 11956 0
316 11956 0
961 -1036 -12676 0
-961 12676 0
1036 12676 0
9196 -8716 0
9916 -8716 0
-9196 -9916 8716 0
-9196 10636 0
-9196 12076 0
9196 -10636 -12076 0
-9916 11356 0
-9916 12796 0
9916 -11356 -12796 0
-361 436 -10636 0
361 10636 0
-436 10636 0
-1081 1156 -11356 0
1081 11356 0
-1156 11356 0
361 -436 -12076 0
-361 12076 0
436 12076 0
1081 -1156 -12796 0
-1081 12796 0
1156 12796 0
9316 -8716 0
10036 -8716 0
-9316 -10036 8716 0
-9316 10756 0
-9316 12196 0
9316 -10756 -12196 0
-10036 11476 0
-10036 12916 0
10036 -11476 -12916 0
-481 556 -10756 0
481 10756 0
-556 10756 0
-1201 1276 -11476 0
1201 11476 0
-1276 11476 0
481 -556 -12196 0
-481 12196 0
556 12196 0
1201 -1276 -12916 0
-1201 12916 0
1276 12916 0
9436 -8716 0
10156 -8716 0
-9436 -10156 8716 0
-9436 10876 0
-9436 12316 0
9436 -10876 -12316 0
-10156 11596 0
-10156 13036 0
10156 -11596 -13036 0
-601 676 -10876 0
601 10876 0
-676 10876 0
-1321 1396 -11596 0
1321 11596 0
-1396 11596 0
601 -676 -12316 0
-601 12316 0
676 12316 0
1321 -1396 -13036 0
-1321 13036 0
1396 13036 0
8837 -8717 0
9557 -8717 0
-8837 -9557 8717 0
-8837 10277 0
-8837 11717 0
8837 -10277 -11717 0
-9557 10997 0
-9557 12437 0
9557 -10997 -12437 0
-1 77 -10277 0
1 10277 0
-77 10277 0
-721 797 -10997 0
721 10997 0
-797 10997 0
1 -77 -11717 0
-1 11717 0
77 11717 0
721 -797 -12437 0
-721 12437 0
797 12437 0
8957 -8717 0
9677 -8717 0
-8957 -9677 8717 0
-8957 10397 0
-8957 11837 0
8957 -10397 -11837 0
-9677 11117 0
-9677 12557 0
9677 -11117 -12557 0
-121 197 -10397 0
121 10397 0
-197 10397 0
-841 917 -11117 0
841 11117 0
-917 11117 0
121 -197 -11837 0
-121 11837 0
197 11837 0
841 -917 -12557 0
-841 12557 0
917 12557 0
9077 -8717 0
9797 -8717 0
-9077 -9797 8717 0
-9077 10517 0
-9077 11957 0
9077 -10517 -11957 0
-9797 11237 0
-9797 12677 0
9797 -11237 -12677 0
-241 317 -10517 0
241 10517 0
-317 10517 0
-961 1037 -11237 0
961 11237 0
-1037 11237 0
241 -317 -11957 0
-241 11957 0
317 11957 0
961 -1037 -12677 0
-961 12677 0
1037 12677 0
9197 -8717 0
9917 -8717 0
-9197 -9917 8717 0
-9197 10637 0
-9197 12077 0
9197 -10637 -12077 0
-9917 11357 0
-9917 12797 0
9917 -11357 -12797 0
-361 437 -10637 0
361 10637 0
-437 10637 0
-1081 1157 -11357 0
1081 11357 0
-1157 11357 0
361 -437 -12077 0
-361 12077 0
437 12077 0
1081 -1157 -12797 0
-1081 12797 0
1157 12797 0
9317 -8717 0
10037 -8717 0
-9317 -10037 8717 0
-9317 10757 0
-9317 12197 0
9317 -10757 -12197 0
-10037 11477 0
-10037 12917 0
10037 -11477 -12917 0
-481 557 -10757 0
481 10757 0
-557 10757 0
-1201 1277 -11477 0
1201 11477 0
-1277 11477 0
481 -557 -12197 0
-481 12197 0
557 12197 0
1201 -1277 -12917 0
-1201 12917 0
1277 12917 0
9437 -8717 0
10157 -8717 0
-9437 -10157 8717 0
-9437 10877 0
-9437 12317 0
9437 -10877 -12317 0
-10157 11597 0
-10157 13037 0
10157 -11597 -13037 0
-601 677 -10877 0
601 10877 0
-677 10877 0
-1321 1397 -11597 0
1321 11597 0
-1397 11597 0
601 -677 -12317 0
-601 12317 0
677 12317 0
1321 -1397 -13037 0
-1321 13037 0
1397 13037 0
8838 -8718 0
9558 -8718 0
-8838 -9558 8718 0
-8838 10278 0
-8838 11718 0
8838 -10278 -11718 0
-9558 10998 0
-9558 12438 0
9558 -10998 -12438 0
-1 78 -10278 0
1 10278 0
-78 10278 0
-721 798 -10998 0
721 10998 0
-798 10998 0
1 -78 -11718 0
-1 11718 0
78 11718 0
721 -798 -12438 0
-721 12438 0
798 12438 0
8958 -8718 0
9678 -8718 0
-8958 -9678 8718 0
-8958 10398 0
-8958 11838 0
8958 -10398 -11838 0
-9678 11118 0
-9678 12558 0
9678 -11118 -12558 0
-121 198 -10398 0
121 10398 0
-198 10398 0
-841 918 -11118 0
841 11118 0
-918 11118 0
121 -198 -11838 0
-121 11838 0
198 11838 0
841 -918 -12558 0
-841 12558 0
918 12558 0
9078 -8718 0
9798 -8718 0
-9078 -9798 8718 0
-9078 10518 0
-9078 11958 0
9078 -10518 -11958 0
-9798 11238 0
-9798 12678 0
9798 -11238 -12678 0
-241 318 -10518 0
241 10518 0
-318 10518 0
-961 1038 -11238 0
961 11238 0
-1038 11238 0
241 -318 -11958 0
-241 11958 0
318 11958 0
961 -1038 -12678 0
-961 12678 0
1038 12678 0
9198 -8718 0
9918 -8718 0
-9198 -9918 8718 0
-9198 10638 0
-9198 12078 0
9198 -10638 -12078 0
-9918 11358 0
-9918 12798 0
9918 -11358 -12798 0
-361 438 -10638 0
361 10638 0
-438 10638 0
-1081 1158 -11358 0
1081 11358 0
-1158 11358 0
361 -438 -12078 0
-361 12078 0
438 12078 0
1081 -1158 -12798 0
-1081 12798 0
1158 12798 0
9318 -8718 0
10038 -8718 0
-9318 -10038 8718 0
-9318 10758 0
-9318 12198 0
9318 -10758 -12198 0
-10038 11478 0
-10038 12918 0
10038 -11478 -12918 0
-481 558 -10758 0
481 10758 0
-558 10758 0
-1201 1278 -11478 0
1201 11478 0
-1278 11478 0
481 -558 -12198 0
-481 12198 0
558 12198 0
1201 -1278 -12918 0
-1201 12918 0
1278 12918 0
9438 -8718 0
10158 -8718 0
-9438 -10158 8718 0
-9438 10878 0
-9438 12318 0
9438 -10878 -12318 0
-10158 11598 0
-10158 13038 0
10158 -11598 -13038 0
-601 678 -10878 0
601 10878 0
-678 10878 0
-1321 1398 -11598 0
1321 11598 0
-1398 11598 0
601 -678 -12318 0
-601 12318 0
678 12318 0
1321 -1398 -13038 0
-1321 13038 0
1398 13038 0
8839 -8719 0
9559 -8719 0
-8839 -9559 8719 0
-8839 10279 0
-8839 11719 0
8839 -10279 -11719 0
-9559 10999 0
-9559 12439 0
9559 -10999 -12439 0
-1 79 -10279 0
1 10279 0
-79 10279 0
-721 799 -10999 0
721 10999 0
-799 10999 0
1 -79 -11719 0
-1 11719 0
79 11719 0
721 -799 -12439 0
-721 12439 0
799 12439 0
8959 -8719 0
9679 -8719 0
-8959 -9679 8719 0
-8959 10399 0
-8959 11839 0
8959 -10399 -11839 0
-9679 11119 0
-9679 12559 0
9679 -11119 -12559 0
-121 199 -10399 0
121 10399 0
-199 10399 0
-841 919 -11119 0
841 11119 0
-919 11119 0
121 -199 -11839 0
-121 11839 0
199 11839 0
841 -919 -12559 0
-841 12559 0
919 12559 0
9079 -8719 0
9799 -8719 0
-9079 -9799 8719 0
-9079 10519 0
-9079 11959 0
9079 -10519 -11959 0
-9799 11239 0
-9799 12679 0
9799 -11239 -12679 0
-241 319 -10519 0
241 10519 0
-319 10519 0
-961 1039 -11239 0
961 11239 0
-1039 11239 0
241 -319 -11959 0
-241 11959 0
319 11959 0
961 -1039 -12679 0
-961 12679 0
1039 12679 0
9199 -8719 0
9919 -8719 0
-9199 -9919 8719 0
-9199 10639 0
-9199 12079 0
9199 -10639 -12079 0
-9919 11359 0
-9919 12799 0
9919 -11359 -12799 0
-361 439 -10639 0
361 10639 0
-439 10639 0
-1081 1159 -11359 0
1081 11359 0
-1159 11359 0
361 -439 -12079 0
-361 12079 0
439 12079 0
1081 -1159 -12799 0
-1081 12799 0
1159 12799 0
9319 -8719 0
10039 -8719 0
-9319 -10039 8719 0
-9319 10759 0
-9319 12199 0
9319 -10759 -12199 0
-10039 11479 0
-10039 12919 0
10039 -11479 -12919 0
-481 559 -10759 0
481 10759 0
-559 10759 0
-1201 1279 -11479 0
1201 11479 0
-1279 11479 0
481 -559 -12199 0
-481 12199 0
559 12199 0
1201 -1279 -12919 0
-1201 12919 0
1279 12919 0
9439 -8719 0
10159 -8719 0
-9439 -10159 8719 0
-9439 10879 0
-9439 12319 0
9439 -10879 -12319 0
-10159 11599 0
-10159 13039 0
10159 -11599 -13039 0
-601 679 -10879 0
601 10879 0
-679 10879 0
-1321 1399 -11599 0
1321 11599 0
-1399 11599 0
601 -679 -12319 0
-601 12319 0
679 12319 0
1321 -1399 -13039 0
-1321 13039 0
1399 13039 0
8840 -8720 0
9560 -8720 0
-8840 -9560 8720 0
-8840 10280 0
-8840 11720 0
8840 -10280 -11720 0
-9560 11000 0
-9560 12440 0
9560 -11000 -12440 0
-1 80 -10280 0
1 10280 0
-80 10280 0
-721 800 -11000 0
721 11000 0
-800 11000 0
1 -80 -11720 0
-1 11720 0
80 11720 0
721 -800 -12440 0
-721 12440 0
800 12440 0
8960 -8720 0
9680 -8720 0
-8960 -9680 8720 0
-8960 10400 0
-8960 11840 0
8960 -10400 -11840 0
-9680 11120 0
-9680 12560 0
9680 -11120 -12560 0
-121 200 -10400 0
121 10400 0
-200 10400 0
-841 920 -11120 0
841 11120 0
-920 11120 0
121 -200 -11840 0
-121 11840 0
200 11840 0
841 -920 -12560 0
-841 12560 0
920 12560 0
9080 -8720 0
9800 -8720 0
-9080 -9800 8720 0
-9080 10520 0
-9080 11960 0
9080 -10520 -11960 0
-9800 11240 0
-9800 12680 0
9800 -11240 -12680 0
-241 320 -10520 0
241 10520 0
-320 10520 0
-961 1040 -11240 0
961 11240 0
-1040 11240 0
241 -320 -11960 0
-241 11960 0
320 11960 0
961 -1040 -12680 0
-961 12680 0
1040 12680 0
9200 -8720 0
9920 -8720 0
-9200 -9920 8720 0
-9200 10640 0
-9200 12080 0
9200 -10640 -12080 0
-9920 11360 0
-9920 12800 0
9920 -11360 -12800 0
-361 440 -10640 0
361 10640 0
-440 10640 0
-1081 1160 -11360 0
1081 11360 0
-1160 11360 0
361 -440 -12080 0
-361 12080 0
440 12080 0
1081 -1160 -12800 0
-1081 12800 0
1160 12800 0
9320 -8720 0
10040 -8720 0
-9320 -10040 8720 0
-9320 10760 0
-9320 12200 0
9320 -10760 -12200 0
-10040 11480 0
-10040 12920 0
10040 -11480 -12920 0
-481 560 -10760 0
481 10760 0
-560 10760 0
-1201 1280 -11480 0
1201 11480 0
-1280 11480 0
481 -560 -12200 0
-481 12200 0
560 12200 0
1201 -1280 -12920 0
-1201 12920 0
1280 12920 0
9440 -8720 0
10160 -8720 0
-9440 -10160 8720 0
-9440 10880 0
-9440 12320 0
9440 -10880 -12320 0
-10160 11600 0
-10160 13040 0
10160 -11600 -13040 0
-601 680 -10880 0
601 10880 0
-680 10880 0
-1321 1400 -11600 0
1321 11600 0
-1400 11600 0
601 -680 -12320 0
-601 12320 0
680 12320 0
1321 -1400 -13040 0
-1321 13040 0
1400 13040 0
8841 -8721 0
9561 -8721 0
-8841 -9561 8721 0
-8841 10281 0
-8841 11721 0
8841 -10281 -11721 0
-9561 11001 0
-9561 12441 0
9561 -11001 -12441 0
-1 81 -10281 0
1 10281 0
-81 10281 0
-721 801 -11001 0
721 11001 0
-801 11001 0
1 -81 -11721 0
-1 11721 0
81 11721 0
721 -801 -12441 0
-721 12441 0
801 12441 0
8961 -8721 0
9681 -8721 0
-8961 -9681 8721 0
-8961 10401 0
-8961 11841 0
8961 -10401 -11841 0
-9681 11121 0
-9681 12561 0
9681 -11121 -12561 0
-121 201 -10401 0
121 10401 0
-201 10401 0
-841 921 -11121 0
841 11121 0
-921 11121 0
121 -201 -11841 0
-121 11841 0
201 11841 0
841 -921 -12561 0
-841 12561 0
921 12561 0
9081 -8721 0
9801 -8721 0
-9081 -9801 8721 0
-9081 10521 0
-9081 11961 0
9081 -10521 -11961 0
-9801 11241 0
-9801 12681 0
9801 -11241 -12681 0
-241 321 -10521 0
241 10521 0
-321 10521 0
-961 1041 -11241 0
961 11241 0
-1041 11241 0
241 -321 -11961 0
-241 11961 0
321 11961 0
961 -1041 -12681 0
-961 12681 0
1041 12681 0
9201 -8721 0
9921 -8721 0
-9201 -9921 8721 0
-9201 10641 0
-9201 12081 0
9201 -10641 -12081 0
-9921 11361 0
-9921 12801 0
9921 -11361 -12801 0
-361 441 -10641 0
361 10641 0
-441 10641 0
-1081 1161 -11361 0
1081 11361 0
-1161 11361 0
361 -441 -12081 0
-361 12081 0
441 12081 0
1081 -1161 -12801 0
-1081 12801 0
1161 12801 0
9321 -8721 0
10041 -8721 0
-9321 -10041 8721 0
-9321 10761 0
-9321 12201 0
9321 -10761 -12201 0
-10041 11481 0
-10041 12921 0
10041 -11481 -12921 0
-481 561 -10761 0
481 10761 0
-561 10761 0
-1201 1281 -11481 0
1201 11481 0
-1281 11481 0
481 -561 -12201 0
-481 12201 0
561 12201 0
1201 -1281 -12921 0
-1201 12921 0
1281 12921 0
9441 -8721 0
10161 -8721 0
-9441 -10161 8721 0
-9441 10881 0
-9441 12321 0
9441 -10881 -12321 0
-10161 11601 0
-10161 13041 0
10161 -11601 -13041 0
-601 681 -10881 0
601 10881 0
-681 10881 0
-1321 1401 -11601 0
1321 11601 0
-1401 11601 0
601 -681 -12321 0
-601 12321 0
681 12321 0
1321 -1401 -13041 0
-1321 13041 0
1401 13041 0
8842 -8722 0
9562 -8722 0
-8842 -9562 8722 0
-8842 10282 0
-8842 11722 0
8842 -10282 -11722 0
-9562 11002 0
-9562 12442 0
9562 -11002 -12442 0
-1 82 -10282 0
1 10282 0
-82 10282 0
-721 802 -11002 0
721 11002 0
-802 11002 0
1 -82 -11722 0
-1 11722 0
82 11722 0
721 -802 -12442 0
-721 12442 0
802 12442 0
8962 -8722 0
9682 -8722 0
-8962 -9682 8722 0
-8962 10402 0
-8962 11842 0
8962 -10402 -11842 0
-9682 11122 0
-9682 12562 0
9682 -11122 -12562 0
-121 202 -10402 0
121 10402 0
-202 10402 0
-841 922 -11122 0
841 11122 0
-922 11122 0
121 -202 -11842 0
-121 11842 0
202 11842 0
841 -922 -12562 0
-841 12562 0
922 12562 0
9082 -8722 0
9802 -8722 0
-9082 -9802 8722 0
-9082 10522 0
-9082 11962 0
9082 -10522 -11962 0
-9802 11242 0
-9802 12682 0
9802 -11242 -12682 0
-241 322 -10522 0
241 10522 0
-322 10522 0
-961 1042 -11242 0
961 11242 0
-1042 11242 0
241 -322 -11962 0
-241 11962 0
322 11962 0
961 -1042 -12682 0
-961 12682 0
1042 12682 0
9202 -8722 0
9922 -8722 0
-9202 -9922 8722 0
-9202 10642 0
-9202 12082 0
9202 -10642 -12082 0
-9922 11362 0
-9922 12802 0
9922 -11362 -12802 0
-361 442 -10642 0
361 10642 0
-442 10642 0
-1081 1162 -11362 0
1081 11362 0
-1162 11362 0
361 -442 -12082 0
-361 12082 0
442 12082 0
1081 -1162 -12802 0
-1081 12802 0
1162 12802 0
9322 -8722 0
10042 -8722 0
-9322 -10042 8722 0
-9322 10762 0
-9322 12202 0
9322 -10762 -12202 0
-10042 11482 0
-10042 12922 0
10042 -11482 -12922 0
-481 562 -10762 0
481 10762 0
-562 10762 0
-1201 1282 -11482 0
1201 11482 0
-1282 11482 0
481 -562 -12202 0
-481 12202 0
562 12202 0
1201 -1282 -12922 0
-1201 12922 0
1282 12922 0
9442 -8722 0
10162 -8722 0
-9442 -10162 8722 0
-9442 10882 0
-9442 12322 0
9442 -10882 -12322 0
-10162 11602 0
-10162 13042 0
10162 -11602 -13042 0
-601 682 -10882 0
601 10882 0
-682 10882 0
-1321 1402 -11602 0
1321 11602 0
-1402 11602 0
601 -682 -12322 0
-601 12322 0
682 12322 0
1321 -1402 -13042 0
-1321 13042 0
1402 13042 0
8843 -8723 0
9563 -8723 0
-8843 -9563 8723 0
-8843 10283 0
-8843 11723 0
8843 -10283 -11723 0
-9563 11003 0
-9563 12443 0
9563 -11003 -12443 0
-1 83 -10283 0
1 10283 0
-83 10283 0
-721 803 -11003 0
721 11003 0
-803 11003 0
1 -83 -11723 0
-1 11723 0
83 11723 0
721 -803 -12443 0
-721 12443 0
803 12443 0
8963 -8723 0
9683 -8723 0
-8963 -9683 8723 0
-8963 10403 0
-8963 11843 0
8963 -10403 -11843 0
-9683 11123 0
-9683 12563 0
9683 -11123 -12563 0
-121 203 -10403 0
121 10403 0
-203 10403 0
-841 923 -11123 0
841 11123 0
-923 11123 0
121 -203 -11843 0
-121 11843 0
203 11843 0
841 -923 -12563 0
-841 12563 0
923 12563 0
9083 -8723 0
9803 -8723 0
-9083 -9803 8723 0
-9083 10523 0
-9083 11963 0
9083 -10523 -11963 0
-9803 11243 0
-9803 12683 0
9803 -11243 -12683 0
-241 323 -10523 0
241 10523 0
-323 10523 0
-961 1043 -11243 0
961 11243 0
-1043 11243 0
241 -323 -11963 0
-241 11963 0
323 11963 0
961 -1043 -12683 0
-961 12683 0
1043 12683 0
9203 -8723 0
9923 -8723 0
-9203 -9923 8723 0
-9203 10643 0
-9203 12083 0
9203 -10643 -12083 0
-9923 11363 0
-9923 12803 0
9923 -11363 -12803 0
-361 443 -10643 0
361 10643 0
-443 10643 0
-1081 1163 -11363 0
1081 11363 0
-1163 11363 0
361 -443 -12083 0
-361 12083 0
443 12083 0
1081 -1163 -12803 0
-1081 12803 0
1163 12803 0
9323 -8723 0
10043 -8723 0
-9323 -10043 8723 0
-9323 10763 0
-9323 12203 0
9323 -10763 -12203 0
-10043 11483 0
-10043 12923 0
10043 -11483 -12923 0
-481 563 -10763 0
481 10763 0
-563 10763 0
-1201 1283 -11483 0
1201 11483 0
-1283 11483 0
481 -563 -12203 0
-481 12203 0
563 12203 0
1201 -1283 -12923 0
-1201 12923 0
1283 12923 0
9443 -8723 0
10163 -8723 0
-9443 -10163 8723 0
-9443 10883 0
-9443 12323 0
9443 -10883 -12323 0
-10163 11603 0
-10163 13043 0
10163 -11603 -13043 0
-601 683 -10883 0
601 10883 0
-683 10883 0
-1321 1403 -11603 0
1321 11603 0
-1403 11603 0
601 -683 -12323 0
-601 12323 0
683 12323 0
1321 -1403 -13043 0
-1321 13043 0
1403 13043 0
8844 -8724 0
9564 -8724 0
-8844 -9564 8724 0
-8844 10284 0
-8844 11724 0
8844 -10284 -11724 0
-9564 11004 0
-9564 12444 0
9564 -11004 -12444 0
-1 84 -10284 0
1 10284 0
-84 10284 0
-721 804 -11004 0
721 11004 0
-804 11004 0
1 -84 -11724 0
-1 11724 0
84 11724 0
721 -804 -12444 0
-721 12444 0
804 12444 0
8964 -8724 0
9684 -8724 0
-8964 -9684 8724 0
-8964 10404 0
-8964 11844 0
8964 -10404 -11844 0
-9684 11124 0
-9684 12564 0
9684 -11124 -12564 0
-121 204 -10404 0
121 10404 0
-204 10404 0
-841 924 -11124 0
841 11124 0
-924 11124 0
121 -204 -11844 0
-121 11844 0
204 11844 0
841 -924 -12564 0
-841 12564 0
924 12564 0
9084 -8724 0
9804 -8724 0
-9084 -9804 8724 0
-9084 10524 0
-9084 11964 0
9084 -10524 -11964 0
-9804 11244 0
-9804 12684 0
9804 -11244 -12684 0
-241 324 -10524 0
241 10524 0
-324 10524 0
-961 1044 -11244 0
961 11244 0
-1044 11244 0
241 -324 -11964 0
-241 11964 0
324 11964 0
961 -1044 -12684 0
-961 12684 0
1044 12684 0
9204 -8724 0
9924 -8724 0
-9204 -9924 8724 0
-9204 10644 0
-9204 12084 0
9204 -10644 -12084 0
-9924 11364 0
-9924 12804 0
9924 -11364 -12804 0
-361 444 -10644 0
361 10644 0
-444 10644 0
-1081 1164 -11364 0
1081 11364 0
-1164 11364 0
361 -444 -12084 0
-361 12084 0
444 12084 0
1081 -1164 -12804 0
-1081 12804 0
1164 12804 0
9324 -8724 0
10044 -8724 0
-9324 -10044 8724 0
-9324 10764 0
-9324 12204 0
9324 -10764 -12204 0
-10044 11484 0
-10044 12924 0
10044 -11484 -12924 0
-481 564 -10764 0
481 10764 0
-564 10764 0
-1201 1284 -11484 0
1201 11484 0
-1284 11484 0
481 -564 -12204 0
-481 12204 0
564 12204 0
1201 -1284 -12924 0
-1201 12924 0
1284 12924 0
9444 -8724 0
10164 -8724 0
-9444 -10164 8724 0
-9444 10884 0
-9444 12324 0
9444 -10884 -12324 0
-10164 11604 0
-10164 13044 0
10164 -11604 -13044 0
-601 684 -10884 0
601 10884 0
-684 10884 0
-1321 1404 -11604 0
1321 11604 0
-1404 11604 0
601 -684 -12324 0
-601 12324 0
684 12324 0
1321 -1404 -13044 0
-1321 13044 0
1404 13044 0
8845 -8725 0
9565 -8725 0
-8845 -9565 8725 0
-8845 10285 0
-8845 11725 0
8845 -10285 -11725 0
-9565 11005 0
-9565 12445 0
9565 -11005 -12445 0
-1 85 -10285 0
1 10285 0
-85 10285 0
-721 805 -11005 0
721 11005 0
-805 11005 0
1 -85 -11725 0
-1 11725 0
85 11725 0
721 -805 -12445 0
-721 12445 0
805 12445 0
8965 -8725 0
9685 -8725 0
-8965 -9685 8725 0
-8965 10405 0
-8965 11845 0
8965 -10405 -11845 0
-9685 11125 0
-9685 12565 0
9685 -11125 -12565 0
-121 205 -10405 0
121 10405 0
-205 10405 0
-841 925 -11125 0
841 11125 0
-925 11125 0
121 -205 -11845 0
-121 11845 0
205 11845 0
841 -925 -12565 0
-841 12565 0
925 12565 0
9085 -8725 0
9805 -8725 0
-9085 -9805 8725 0
-9085 10525 0
-9085 11965 0
9085 -10525 -11965 0
-9805 11245 0
-9805 12685 0
9805 -11245 -12685 0
-241 325 -10525 0
241 10525 0
-325 10525 0
-961 1045 -11245 0
961 11245 0
-1045 11245 0
241 -325 -11965 0
-241 11965 0
325 11965 0
961 -1045 -12685 0
-961 12685 0
1045 12685 0
9205 -8725 0
9925 -8725 0
-9205 -9925 8725 0
-9205 10645 0
-9205 12085 0
9205 -10645 -12085 0
-9925 11365 0
-9925 12805 0
9925 -11365 -12805 0
-361 445 -10645 0
361 10645 0
-445 10645 0
-1081 1165 -11365 0
1081 11365 0
-1165 11365 0
361 -445 -12085 0
-361 12085 0
445 12085 0
1081 -1165 -12805 0
-1081 12805 0
1165 12805 0
9325 -8725 0
10045 -8725 0
-9325 -10045 8725 0
-9325 10765 0
-9325 12205 0
9325 -10765 -12205 0
-10045 11485 0
-10045 12925 0
10045 -11485 -12925 0
-481 565 -10765 0
481 10765 0
-565 10765 0
-1201 1285 -11485 0
1201 11485 0
-1285 11485 0
481 -565 -12205 0
-481 12205 0
565 12205 0
1201 -1285 -12925 0
-1201 12925 0
1285 12925 0
9445 -8725 0
10165 -8725 0
-9445 -10165 8725 0
-9445 10885 0
-9445 12325 0
9445 -10885 -12325 0
-10165 11605 0
-10165 13045 0
10165 -11605 -13045 0
-601 685 -10885 0
601 10885 0
-685 10885 0
-1321 1405 -11605 0
1321 11605 0
-1405 11605 0
601 -685 -12325 0
-601 12325 0
685 12325 0
1321 -1405 -13045 0
-1321 13045 0
1405 13045 0
8846 -8726 0
9566 -8726 0
-8846 -9566 8726 0
-8846 10286 0
-8846 11726 0
8846 -10286 -11726 0
-9566 11006 0
-9566 12446 0
9566 -11006 -12446 0
-1 86 -10286 0
1 10286 0
-86 10286 0
-721 806 -11006 0
721 11006 0
-806 11006 0
1 -86 -11726 0
-1 11726 0
86 11726 0
721 -806 -12446 0
-721 12446 0
806 12446 0
8966 -8726 0
9686 -8726 0
-8966 -9686 8726 0
-8966 10406 0
-8966 11846 0
8966 -10406 -11846 0
-9686 11126 0
-9686 12566 0
9686 -11126 -12566 0
-121 206 -10406 0
121 10406 0
-206 10406 0
-841 926 -11126 0
841 11126 0
-926 11126 0
121 -206 -11846 0
-121 11846 0
206 11846 0
841 -926 -12566 0
-841 12566 0
926 12566 0
9086 -8726 0
9806 -8726 0
-9086 -9806 8726 0
-9086 10526 0
-9086 11966 0
9086 -10526 -11966 0
-9806 11246 0
-9806 12686 0
9806 -11246 -12686 0
-241 326 -10526 0
241 10526 0
-326 10526 0
-961 1046 -11246 0
961 11246 0
-1046 11246 0
241 -326 -11966 0
-241 11966 0
326 11966 0
961 -1046 -12686 0
-961 12686 0
1046 12686 0
9206 -8726 0
9926 -8726 0
-9206 -9926 8726 0
-9206 10646 0
-9206 12086 0
9206 -10646 -12086 0
-9926 11366 0
-9926 12806 0
9926 -11366 -12806 0
-361 446 -10646 0
361 10646 0
-446 10646 0
-1081 1166 -11366 0
1081 11366 0
-1166 11366 0
361 -446 -12086 0
-361 12086 0
446 12086 0
1081 -1166 -12806 0
-1081 12806 0
1166 12806 0
9326 -8726 0
10046 -8726 0
-9326 -10046 8726 0
-9326 10766 0
-9326 12206 0
9326 -10766 -12206 0
-10046 11486 0
-10046 12926 0
10046 -11486 -12926 0
-481 566 -10766 0
481 10766 0
-566 10766 0
-1201 1286 -11486 0
1201 11486 0
-1286 11486 0
481 -566 -12206 0
-481 12206 0
566 12206 0
1201 -1286 -12926 0
-1201 12926 0
1286 12926 0
9446 -8726 0
10166 -8726 0
-9446 -10166 8726 0
-9446 10886 0
-9446 12326 0
9446 -10886 -12326 0
-10166 11606 0
-10166 13046 0
10166 -11606 -13046 0
-601 686 -10886 0
601 10886 0
-686 10886 0
-1321 1406 -11606 0
1321 11606 0
-1406 11606 0
601 -686 -12326 0
-601 12326 0
686 12326 0
1321 -1406 -13046 0
-1321 13046 0
1406 13046 0
8847 -8727 0
9567 -8727 0
-8847 -9567 8727 0
-8847 10287 0
-8847 11727 0
8847 -10287 -11727 0
-9567 11007 0
-9567 12447 0
9567 -11007 -12447 0
-1 87 -10287 0
1 10287 0
-87 10287 0
-721 807 -11007 0
721 11007 0
-807 11007 0
1 -87 -11727 0
-1 11727 0
87 11727 0
721 -807 -12447 0
-721 12447 0
807 12447 0
8967 -8727 0
9687 -8727 0
-8967 -9687 8727 0
-8967 10407 0
-8967 11847 0
8967 -10407 -11847 0
-9687 11127 0
-9687 12567 0
9687 -11127 -12567 0
-121 207 -10407 0
121 10407 0
-207 10407 0
-841 927 -11127 0
841 11127 0
-927 11127 0
121 -207 -11847 0
-121 11847 0
207 11847 0
841 -927 -12567 0
-841 12567 0
927 12567 0
9087 -8727 0
9807 -8727 0
-9087 -9807 8727 0
-9087 10527 0
-9087 11967 0
9087 -10527 -11967 0
-9807 11247 0
-9807 12687 0
9807 -11247 -12687 0
-241 327 -10527 0
241 10527 0
-327 10527 0
-961 1047 -11247 0
961 11247 0
-1047 11247 0
241 -327 -11967 0
-241 11967 0
327 11967 0
961 -1047 -12687 0
-961 12687 0
1047 12687 0
9207 -8727 0
9927 -8727 0
-9207 -9927 8727 0
-9207 10647 0
-9207 12087 0
9207 -10647 -12087 0
-9927 11367 0
-9927 12807 0
9927 -11367 -12807 0
-361 447 -10647 0
361 10647 0
-447 10647 0
-1081 1167 -11367 0
1081 11367 0
-1167 11367 0
361 -447 -12087 0
-361 12087 0
447 12087 0
1081 -1167 -12807 0
-1081 12807 0
1167 12807 0
9327 -8727 0
10047 -8727 0
-9327 -10047 8727 0
-9327 10767 0
-9327 12207 0
9327 -10767 -12207 0
-10047 11487 0
-10047 12927 0
10047 -11487 -12927 0
-481 567 -10767 0
481 10767 0
-567 10767 0
-1201 1287 -11487 0
1201 11487 0
-1287 11487 0
481 -567 -12207 0
-481 12207 0
567 12207 0
1201 -1287 -12927 0
-1201 12927 0
1287 12927 0
9447 -8727 0
10167 -8727 0
-9447 -10167 8727 0
-9447 10887 0
-9447 12327 0
9447 -10887 -12327 0
-10167 11607 0
-10167 13047 0
10167 -11607 -13047 0
-601 687 -10887 0
601 10887 0
-687 10887 0
-1321 1407 -11607 0
1321 11607 0
-1407 11607 0
601 -687 -12327 0
-601 12327 0
687 12327 0
1321 -1407 -13047 0
-1321 13047 0
1407 13047 0
8848 -8728 0
9568 -8728 0
-8848 -9568 8728 0
-8848 10288 0
-8848 11728 0
8848 -10288 -11728 0
-9568 11008 0
-9568 12448 0
9568 -11008 -12448 0
-1 88 -10288 0
1 10288 0
-88 10288 0
-721 808 -11008 0
721 11008 0
-808 11008 0
1 -88 -11728 0
-1 11728 0
88 11728 0
721 -808 -12448 0
-721 12448 0
808 12448 0
8968 -8728 0
9688 -8728 0
-8968 -9688 8728 0
-8968 10408 0
-8968 11848 0
8968 -10408 -11848 0
-9688 11128 0
-9688 12568 0
9688 -11128 -12568 0
-121 208 -10408 0
121 10408 0
-208 10408 0
-841 928 -11128 0
841 11128 0
-928 11128 0
121 -208 -11848 0
-121 11848 0
208 11848 0
841 -928 -12568 0
-841 12568 0
928 12568 0
9088 -8728 0
9808 -8728 0
-9088 -9808 8728 0
-9088 10528 0
-9088 11968 0
9088 -10528 -11968 0
-9808 11248 0
-9808 12688 0
9808 -11248 -12688 0
-241 328 -10528 0
241 10528 0
-328 10528 0
-961 1048 -11248 0
961 11248 0
-1048 11248 0
241 -328 -11968 0
-241 11968 0
328 11968 0
961 -1048 -12688 0
-961 12688 0
1048 12688 0
9208 -8728 0
9928 -8728 0
-9208 -9928 8728 0
-9208 10648 0
-9208 12088 0
9208 -10648 -12088 0
-9928 11368 0
-9928 12808 0
9928 -11368 -12808 0
-361 448 -10648 0
361 10648 0
-448 10648 0
-1081 1168 -11368 0
1081 11368 0
-1168 11368 0
361 -448 -12088 0
-361 12088 0
448 12088 0
1081 -1168 -12808 0
-1081 12808 0
1168 12808 0
9328 -8728 0
10048 -8728 0
-9328 -10048 8728 0
-9328 10768 0
-9328 12208 0
9328 -10768 -12208 0
-10048 11488 0
-10048 12928 0
10048 -11488 -12928 0
-481 568 -10768 0
481 10768 0
-568 10768 0
-1201 1288 -11488 0
1201 11488 0
-1288 11488 0
481 -568 -12208 0
-481 12208 0
568 12208 0
1201 -1288 -12928 0
-1201 12928 0
1288 12928 0
9448 -8728 0
10168 -8728 0
-9448 -10168 8728 0
-9448 10888 0
-9448 12328 0
9448 -10888 -12328 0
-10168 11608 0
-10168 13048 0
10168 -11608 -13048 0
-601 688 -10888 0
601 10888 0
-688 10888 0
-1321 1408 -11608 0
1321 11608 0
-1408 11608 0
601 -688 -12328 0
-601 12328 0
688 12328 0
1321 -1408 -13048 0
-1321 13048 0
1408 13048 0
8849 -8729 0
9569 -8729 0
-8849 -9569 8729 0
-8849 10289 0
-8849 11729 0
8849 -10289 -11729 0
-9569 11009 0
-9569 12449 0
9569 -11009 -12449 0
-1 89 -10289 0
1 10289 0
-89 10289 0
-721 809 -11009 0
721 11009 0
-809 11009 0
1 -89 -11729 0
-1 11729 0
89 11729 0
721 -809 -12449 0
-721 12449 0
809 12449 0
8969 -8729 0
9689 -8729 0
-8969 -9689 8729 0
-8969 10409 0
-8969 11849 0
8969 -10409 -11849 0
-9689 11129 0
-9689 12569 0
9689 -11129 -12569 0
-121 209 -10409 0
121 10409 0
-209 10409 0
-841 929 -11129 0
841 11129 0
-929 11129 0
121 -209 -11849 0
-121 11849 0
209 11849 0
841 -929 -12569 0
-841 12569 0
929 12569 0
9089 -8729 0
9809 -8729 0
-9089 -9809 8729 0
-9089 10529 0
-9089 11969 0
9089 -10529 -11969 0
-9809 11249 0
-9809 12689 0
9809 -11249 -12689 0
-241 329 -10529 0
241 10529 0
-329 10529 0
-961 1049 -11249 0
961 11249 0
-1049 11249 0
241 -329 -11969 0
-241 11969 0
329 11969 0
961 -1049 -12689 0
-961 12689 0
1049 12689 0
9209 -8729 0
9929 -8729 0
-9209 -9929 8729 0
-9209 10649 0
-9209 12089 0
9209 -10649 -12089 0
-9929 11369 0
-9929 12809 0
9929 -11369 -12809 0
-361 449 -10649 0
361 10649 0
-449 10649 0
-1081 1169 -11369 0
1081 11369 0
-1169 11369 0
361 -449 -12089 0
-361 12089 0
449 12089 0
1081 -1169 -12809 0
-1081 12809 0
1169 12809 0
9329 -8729 0
10049 -8729 0
-9329 -10049 8729 0
-9329 10769 0
-9329 12209 0
9329 -10769 -12209 0
-10049 11489 0
-10049 12929 0
10049 -11489 -12929 0
-481 569 -10769 0
481 10769 0
-569 10769 0
-1201 1289 -11489 0
1201 11489 0
-1289 11489 0
481 -569 -12209 0
-481 12209 0
569 12209 0
1201 -1289 -12929 0
-1201 12929 0
1289 12929 0
9449 -8729 0
10169 -8729 0
-9449 -10169 8729 0
-9449 10889 0
-9449 12329 0
9449 -10889 -12329 0
-10169 11609 0
-10169 13049 0
10169 -11609 -13049 0
-601 689 -10889 0
601 10889 0
-689 10889 0
-1321 1409 -11609 0
1321 11609 0
-1409 11609 0
601 -689 -12329 0
-601 12329 0
689 12329 0
1321 -1409 -13049 0
-1321 13049 0
1409 13049 0
8850 -8730 0
9570 -8730 0
-8850 -9570 8730 0
-8850 10290 0
-8850 11730 0
8850 -10290 -11730 0
-9570 11010 0
-9570 12450 0
9570 -11010 -12450 0
-1 90 -10290 0
1 10290 0
-90 10290 0
-721 810 -11010 0
721 11010 0
-810 11010 0
1 -90 -11730 0
-1 11730 0
90 11730 0
721 -810 -12450 0
-721 12450 0
810 12450 0
8970 -8730 0
9690 -8730 0
-8970 -9690 8730 0
-8970 10410 0
-8970 11850 0
8970 -10410 -11850 0
-9690 11130 0
-9690 12570 0
9690 -11130 -12570 0
-121 210 -10410 0
121 10410 0
-210 10410 0
-841 930 -11130 0
841 11130 0
-930 11130 0
121 -210 -11850 0
-121 11850 0
210 11850 0
841 -930 -12570 0
-841 12570 0
930 12570 0
9090 -8730 0
9810 -8730 0
-9090 -9810 8730 0
-9090 10530 0
-9090 11970 0
9090 -10530 -11970 0
-9810 11250 0
-9810 12690 0
9810 -11250 -12690 0
-241 330 -10530 0
241 10530 0
-330 10530 0
-961 1050 -11250 0
961 11250 0
-1050 11250 0
241 -330 -11970 0
-241 11970 0
330 11970 0
961 -1050 -12690 0
-961 12690 0
1050 12690 0
9210 -8730 0
9930 -8730 0
-9210 -9930 8730 0
-9210 10650 0
-9210 12090 0
9210 -10650 -12090 0
-9930 11370 0
-9930 12810 0
9930 -11370 -12810 0
-361 450 -10650 0
361 10650 0
-450 10650 0
-1081 1170 -11370 0
1081 11370 0
-1170 11370 0
361 -450 -12090 0
-361 12090 0
450 12090 0
1081 -1170 -12810 0
-1081 12810 0
1170 12810 0
9330 -8730 0
10050 -8730 0
-9330 -10050 8730 0
-9330 10770 0
-9330 12210 0
9330 -10770 -12210 0
-10050 11490 0
-10050 12930 0
10050 -11490 -12930 0
-481 570 -10770 0
481 10770 0
-570 10770 0
-1201 1290 -11490 0
1201 11490 0
-1290 11490 0
481 -570 -12210 0
-481 12210 0
570 12210 0
1201 -1290 -12930 0
-1201 12930 0
1290 12930 0
9450 -8730 0
10170 -8730 0
-9450 -10170 8730 0
-9450 10890 0
-9450 12330 0
9450 -10890 -12330 0
-10170 11610 0
-10170 13050 0
10170 -11610 -13050 0
-601 690 -10890 0
601 10890 0
-690 10890 0
-1321 1410 -11610 0
1321 11610 0
-1410 11610 0
601 -690 -12330 0
-601 12330 0
690 12330 0
1321 -1410 -13050 0
-1321 13050 0
1410 13050 0
8851 -8731 0
9571 -8731 0
-8851 -9571 8731 0
-8851 10291 0
-8851 11731 0
8851 -10291 -11731 0
-9571 11011 0
-9571 12451 0
9571 -11011 -12451 0
-1 91 -10291 0
1 10291 0
-91 10291 0
-721 811 -11011 0
721 11011 0
-811 11011 0
1 -91 -11731 0
-1 11731 0
91 11731 0
721 -811 -12451 0
-721 12451 0
811 12451 0
8971 -8731 0
9691 -8731 0
-8971 -9691 8731 0
-8971 10411 0
-8971 11851 0
8971 -10411 -11851 0
-9691 11131 0
-9691 12571 0
9691 -11131 -12571 0
-121 211 -10411 0
121 10411 0
-211 10411 0
-841 931 -11131 0
841 11131 0
-931 11131 0
121 -211 -11851 0
-121 11851 0
211 11851 0
841 -931 -12571 0
-841 12571 0
931 12571 0
9091 -8731 0
9811 -8731 0
-9091 -9811 8731 0
-9091 10531 0
-9091 11971 0
9091 -10531 -11971 0
-9811 11251 0
-9811 12691 0
9811 -11251 -12691 0
-241 331 -10531 0
241 10531 0
-331 10531 0
-961 1051 -11251 0
961 11251 0
-1051 11251 0
241 -331 -11971 0
-241 11971 0
331 11971 0
961 -1051 -12691 0
-961 12691 0
1051 12691 0
9211 -8731 0
9931 -8731 0
-9211 -9931 8731 0
-9211 10651 0
-9211 12091 0
9211 -10651 -12091 0
-9931 11371 0
-9931 12811 0
9931 -11371 -12811 0
-361 451 -10651 0
361 10651 0
-451 10651 0
-1081 1171 -11371 0
1081 11371 0
-1171 11371 0
361 -451 -12091 0
-361 12091 0
451 12091 0
1081 -1171 -12811 0
-1081 12811 0
1171 12811 0
9331 -8731 0
10051 -8731 0
-9331 -10051 8731 0
-9331 10771 0
-9331 12211 0
9331 -10771 -12211 0
-10051 11491 0
-10051 12931 0
10051 -11491 -12931 0
-481 571 -10771 0
481 10771 0
-571 10771 0
-1201 1291 -11491 0
1201 11491 0
-1291 11491 0
481 -571 -12211 0
-481 12211 0
571 12211 0
1201 -1291 -12931 0
-1201 12931 0
1291 12931 0
9451 -8731 0
10171 -8731 0
-9451 -10171 8731 0
-9451 10891 0
-9451 12331 0
9451 -10891 -12331 0
-10171 11611 0
-10171 13051 0
10171 -11611 -13051 0
-601 691 -10891 0
601 10891 0
-691 10891 0
-1321 1411 -11611 0
1321 11611 0
-1411 11611 0
601 -691 -12331 0
-601 12331 0
691 12331 0
1321 -1411 -13051 0
-1321 13051 0
1411 13051 0
8852 -8732 0
9572 -8732 0
-8852 -9572 8732 0
-8852 10292 0
-8852 11732 0
8852 -10292 -11732 0
-9572 11012 0
-9572 12452 0
9572 -11012 -12452 0
-1 92 -10292 0
1 10292 0
-92 10292 0
-721 812 -11012 0
721 11012 0
-812 11012 0
1 -92 -11732 0
-1 11732 0
92 11732 0
721 -812 -12452 0
-721 12452 0
812 12452 0
8972 -8732 0
9692 -8732 0
-8972 -9692 8732 0
-8972 10412 0
-8972 11852 0
8972 -10412 -11852 0
-9692 11132 0
-9692 12572 0
9692 -11132 -12572 0
-121 212 -10412 0
121 10412 0
-212 10412 0
-841 932 -11132 0
841 11132 0
-932 11132 0
121 -212 -11852 0
-121 11852 0
212 11852 0
841 -932 -12572 0
-841 12572 0
932 12572 0
9092 -8732 0
9812 -8732 0
-9092 -9812 8732 0
-9092 10532 0
-9092 11972 0
9092 -10532 -11972 0
-9812 11252 0
-9812 12692 0
9812 -11252 -12692 0
-241 332 -10532 0
241 10532 0
-332 10532 0
-961 1052 -11252 0
961 11252 0
-1052 11252 0
241 -332 -11972 0
-241 11972 0
332 11972 0
961 -1052 -12692 0
-961 12692 0
1052 12692 0
9212 -8732 0
9932 -8732 0
-9212 -9932 8732 0
-9212 10652 0
-9212 12092 0
9212 -10652 -12092 0
-9932 11372 0
-9932 12812 0
9932 -11372 -12812 0
-361 452 -10652 0
361 10652 0
-452 10652 0
-1081 1172 -11372 0
1081 11372 0
-1172 11372 0
361 -452 -12092 0
-361 12092 0
452 12092 0
1081 -1172 -12812 0
-1081 12812 0
1172 12812 0
9332 -8732 0
10052 -8732 0
-9332 -10052 8732 0
-9332 10772 0
-9332 12212 0
9332 -10772 -12212 0
-10052 11492 0
-10052 12932 0
10052 -11492 -12932 0
-481 572 -10772 0
481 10772 0
-572 10772 0
-1201 1292 -11492 0
1201 11492 0
-1292 11492 0
481 -572 -12212 0
-481 12212 0
572 12212 0
1201 -1292 -12932 0
-1201 12932 0
1292 12932 0
9452 -8732 0
10172 -8732 0
-9452 -10172 8732 0
-9452 10892 0
-9452 12332 0
9452 -10892 -12332 0
-10172 11612 0
-10172 13052 0
10172 -11612 -13052 0
-601 692 -10892 0
601 10892 0
-692 10892 0
-1321 1412 -11612 0
1321 11612 0
-1412 11612 0
601 -692 -12332 0
-601 12332 0
692 12332 0
1321 -1412 -13052 0
-1321 13052 0
1412 13052 0
8853 -8733 0
9573 -8733 0
-8853 -9573 8733 0
-8853 10293 0
-8853 11733 0
8853 -10293 -11733 0
-9573 11013 0
-9573 12453 0
9573 -11013 -12453 0
-1 93 -10293 0
1 10293 0
-93 10293 0
-721 813 -11013 0
721 11013 0
-813 11013 0
1 -93 -11733 0
-1 11733 0
93 11733 0
721 -813 -12453 0
-721 12453 0
813 12453 0
8973 -8733 0
9693 -8733 0
-8973 -9693 8733 0
-8973 10413 0
-8973 11853 0
8973 -10413 -11853 0
-9693 11133 0
-9693 12573 0
9693 -11133 -12573 0
-121 213 -10413 0
121 10413 0
-213 10413 0
-841 933 -11133 0
841 11133 0
-933 11133 0
121 -213 -11853 0
-121 11853 0
213 11853 0
841 -933 -12573 0
-841 12573 0
933 12573 0
9093 -8733 0
9813 -8733 0
-9093 -9813 8733 0
-9093 10533 0
-9093 11973 0
9093 -10533 -11973 0
-9813 11253 0
-9813 12693 0
9813 -11253 -12693 0
-241 333 -10533 0
241 10533 0
-333 10533 0
-961 1053 -11253 0
961 11253 0
-1053 11253 0
241 -333 -11973 0
-241 11973 0
333 11973 0
961 -1053 -12693 0
-961 12693 0
1053 12693 0
9213 -8733 0
9933 -8733 0
-9213 -9933 8733 0
-9213 10653 0
-9213 12093 0
9213 -10653 -12093 0
-9933 11373 0
-9933 12813 0
9933 -11373 -12813 0
-361 453 -10653 0
361 10653 0
-453 10653 0
-1081 1173 -11373 0
1081 11373 0
-1173 11373 0
361 -453 -12093 0
-361 12093 0
453 12093 0
1081 -1173 -12813 0
-1081 12813 0
1173 12813 0
9333 -8733 0
10053 -8733 0
-9333 -10053 8733 0
-9333 10773 0
-9333 12213 0
9333 -10773 -12213 0
-10053 11493 0
-10053 12933 0
10053 -11493 -12933 0
-481 573 -10773 0
481 10773 0
-573 10773 0
-1201 1293 -11493 0
1201 11493 0
-1293 11493 0
481 -573 -12213 0
-481 12213 0
573 12213 0
1201 -1293 -12933 0
-1201 12933 0
1293 12933 0
9453 -8733 0
10173 -8733 0
-9453 -10173 8733 0
-9453 10893 0
-9453 12333 0
9453 -10893 -12333 0
-10173 11613 0
-10173 13053 0
10173 -11613 -13053 0
-601 693 -10893 0
601 10893 0
-693 10893 0
-1321 1413 -11613 0
1321 11613 0
-1413 11613 0
601 -693 -12333 0
-601 12333 0
693 12333 0
1321 -1413 -13053 0
-1321 13053 0
1413 13053 0
8854 -8734 0
9574 -8734 0
-8854 -9574 8734 0
-8854 10294 0
-8854 11734 0
8854 -10294 -11734 0
-9574 11014 0
-9574 12454 0
9574 -11014 -12454 0
-1 94 -10294 0
1 10294 0
-94 10294 0
-721 814 -11014 0
721 11014 0
-814 11014 0
1 -94 -11734 0
-1 11734 0
94 11734 0
721 -814 -12454 0
-721 12454 0
814 12454 0
8974 -8734 0
9694 -8734 0
-8974 -9694 8734 0
-8974 10414 0
-8974 11854 0
8974 -10414 -11854 0
-9694 11134 0
-9694 12574 0
9694 -11134 -12574 0
-121 214 -10414 0
121 10414 0
-214 10414 0
-841 934 -11134 0
841 11134 0
-934 11134 0
121 -214 -11854 0
-121 11854 0
214 11854 0
841 -934 -12574 0
-841 12574 0
934 12574 0
9094 -8734 0
9814 -8734 0
-9094 -9814 8734 0
-9094 10534 0
-9094 11974 0
9094 -10534 -11974 0
-9814 11254 0
-9814 12694 0
9814 -11254 -12694 0
-241 334 -10534 0
241 10534 0
-334 10534 0
-961 1054 -11254 0
961 11254 0
-1054 11254 0
241 -334 -11974 0
-241 11974 0
334 11974 0
961 -1054 -12694 0
-961 12694 0
1054 12694 0
9214 -8734 0
9934 -8734 0
-9214 -9934 8734 0
-9214 10654 0
-9214 12094 0
9214 -10654 -12094 0
-9934 11374 0
-9934 12814 0
9934 -11374 -12814 0
-361 454 -10654 0
361 10654 0
-454 10654 0
-1081 1174 -11374 0
1081 11374 0
-1174 11374 0
361 -454 -12094 0
-361 12094 0
454 12094 0
1081 -1174 -12814 0
-1081 12814 0
1174 12814 0
9334 -8734 0
10054 -8734 0
-9334 -10054 8734 0
-9334 10774 0
-9334 12214 0
9334 -10774 -12214 0
-10054 11494 0
-10054 12934 0
10054 -11494 -12934 0
-481 574 -10774 0
481 10774 0
-574 10774 0
-1201 1294 -11494 0
1201 11494 0
-1294 11494 0
481 -574 -12214 0
-481 12214 0
574 12214 0
1201 -1294 -12934 0
-1201 12934 0
1294 12934 0
9454 -8734 0
10174 -8734 0
-9454 -10174 8734 0
-9454 10894 0
-9454 12334 0
9454 -10894 -12334 0
-10174 11614 0
-10174 13054 0
10174 -11614 -13054 0
-601 694 -10894 0
601 10894 0
-694 10894 0
-1321 1414 -11614 0
1321 11614 0
-1414 11614 0
601 -694 -12334 0
-601 12334 0
694 12334 0
1321 -1414 -13054 0
-1321 13054 0
1414 13054 0
8855 -8735 0
9575 -8735 0
-8855 -9575 8735 0
-8855 10295 0
-8855 11735 0
8855 -10295 -11735 0
-9575 11015 0
-9575 12455 0
9575 -11015 -12455 0
-1 95 -10295 0
1 10295 0
-95 10295 0
-721 815 -11015 0
721 11015 0
-815 11015 0
1 -95 -11735 0
-1 11735 0
95 11735 0
721 -815 -12455 0
-721 12455 0
815 12455 0
8975 -8735 0
9695 -8735 0
-8975 -9695 8735 0
-8975 10415 0
-8975 11855 0
8975 -10415 -11855 0
-9695 11135 0
-9695 12575 0
9695 -11135 -12575 0
-121 215 -10415 0
121 10415 0
-215 10415 0
-841 935 -11135 0
841 11135 0
-935 11135 0
121 -215 -11855 0
-121 11855 0
215 11855 0
841 -935 -12575 0
-841 12575 0
935 12575 0
9095 -8735 0
9815 -8735 0
-9095 -9815 8735 0
-9095 10535 0
-9095 11975 0
9095 -10535 -11975 0
-9815 11255 0
-9815 12695 0
9815 -11255 -12695 0
-241 335 -10535 0
241 10535 0
-335 10535 0
-961 1055 -11255 0
961 11255 0
-1055 11255 0
241 -335 -11975 0
-241 11975 0
335 11975 0
961 -1055 -12695 0
-961 12695 0
1055 12695 0
9215 -8735 0
9935 -8735 0
-9215 -9935 8735 0
-9215 10655 0
-9215 12095 0
9215 -10655 -12095 0
-9935 11375 0
-9935 12815 0
9935 -11375 -12815 0
-361 455 -10655 0
361 10655 0
-455 10655 0
-1081 1175 -11375 0
1081 11375 0
-1175 11375 0
361 -455 -12095 0
-361 12095 0
455 12095 0
1081 -1175 -12815 0
-1081 12815 0
1175 12815 0
9335 -8735 0
10055 -8735 0
-9335 -10055 8735 0
-9335 10775 0
-9335 12215 0
9335 -10775 -12215 0
-10055 11495 0
-10055 12935 0
10055 -11495 -12935 0
-481 575 -10775 0
481 10775 0
-575 10775 0
-1201 1295 -11495 0
1201 11495 0
-1295 11495 0
481 -575 -12215 0
-481 12215 0
575 12215 0
1201 -1295 -12935 0
-1201 12935 0
1295 12935 0
9455 -8735 0
10175 -8735 0
-9455 -10175 8735 0
-9455 10895 0
-9455 12335 0
9455 -10895 -12335 0
-10175 11615 0
-10175 13055 0
10175 -11615 -13055 0
-601 695 -10895 0
601 10895 0
-695 10895 0
-1321 1415 -11615 0
1321 11615 0
-1415 11615 0
601 -695 -12335 0
-601 12335 0
695 12335 0
1321 -1415 -13055 0
-1321 13055 0
1415 13055 0
8856 -8736 0
9576 -8736 0
-8856 -9576 8736 0
-8856 10296 0
-8856 11736 0
8856 -10296 -11736 0
-9576 11016 0
-9576 12456 0
9576 -11016 -12456 0
-1 96 -10296 0
1 10296 0
-96 10296 0
-721 816 -11016 0
721 11016 0
-816 11016 0
1 -96 -11736 0
-1 11736 0
96 11736 0
721 -816 -12456 0
-721 12456 0
816 12456 0
8976 -8736 0
9696 -8736 0
-8976 -9696 8736 0
-8976 10416 0
-8976 11856 0
8976 -10416 -11856 0
-9696 11136 0
-9696 12576 0
9696 -11136 -12576 0
-121 216 -10416 0
121 10416 0
-216 10416 0
-841 936 -11136 0
841 11136 0
-936 11136 0
121 -216 -11856 0
-121 11856 0
216 11856 0
841 -936 -12576 0
-841 12576 0
936 12576 0
9096 -8736 0
9816 -8736 0
-9096 -9816 8736 0
-9096 10536 0
-9096 11976 0
9096 -10536 -11976 0
-9816 11256 0
-9816 12696 0
9816 -11256 -12696 0
-241 336 -10536 0
241 10536 0
-336 10536 0
-961 1056 -11256 0
961 11256 0
-1056 11256 0
241 -336 -11976 0
-241 11976 0
336 11976 0
961 -1056 -12696 0
-961 12696 0
1056 12696 0
9216 -8736 0
9936 -8736 0
-9216 -9936 8736 0
-9216 10656 0
-9216 12096 0
9216 -10656 -12096 0
-9936 11376 0
-9936 12816 0
9936 -11376 -12816 0
-361 456 -10656 0
361 10656 0
-456 10656 0
-1081 1176 -11376 0
1081 11376 0
-1176 11376 0
361 -456 -12096 0
-361 12096 0
456 12096 0
1081 -1176 -12816 0
-1081 12816 0
1176 12816 0
9336 -8736 0
10056 -8736 0
-9336 -10056 8736 0
-9336 10776 0
-9336 12216 0
9336 -10776 -12216 0
-10056 11496 0
-10056 12936 0
10056 -11496 -12936 0
-481 576 -10776 0
481 10776 0
-576 10776 0
-1201 1296 -11496 0
1201 11496 0
-1296 11496 0
481 -576 -12216 0
-481 12216 0
576 12216 0
1201 -1296 -12936 0
-1201 12936 0
1296 12936 0
9456 -8736 0
10176 -8736 0
-9456 -10176 8736 0
-9456 10896 0
-9456 12336 0
9456 -10896 -12336 0
-10176 11616 0
-10176 13056 0
10176 -11616 -13056 0
-601 696 -10896 0
601 10896 0
-696 10896 0
-1321 1416 -11616 0
1321 11616 0
-1416 11616 0
601 -696 -12336 0
-601 12336 0
696 12336 0
1321 -1416 -13056 0
-1321 13056 0
1416 13056 0
8857 -8737 0
9577 -8737 0
-8857 -9577 8737 0
-8857 10297 0
-8857 11737 0
8857 -10297 -11737 0
-9577 11017 0
-9577 12457 0
9577 -11017 -12457 0
-1 97 -10297 0
1 10297 0
-97 10297 0
-721 817 -11017 0
721 11017 0
-817 11017 0
1 -97 -11737 0
-1 11737 0
97 11737 0
721 -817 -12457 0
-721 12457 0
817 12457 0
8977 -8737 0
9697 -8737 0
-8977 -9697 8737 0
-8977 10417 0
-8977 11857 0
8977 -10417 -11857 0
-9697 11137 0
-9697 12577 0
9697 -11137 -12577 0
-121 217 -10417 0
121 10417 0
-217 10417 0
-841 937 -11137 0
841 11137 0
-937 11137 0
121 -217 -11857 0
-121 11857 0
217 11857 0
841 -937 -12577 0
-841 12577 0
937 12577 0
9097 -8737 0
9817 -8737 0
-9097 -9817 8737 0
-9097 10537 0
-9097 11977 0
9097 -10537 -11977 0
-9817 11257 0
-9817 12697 0
9817 -11257 -12697 0
-241 337 -10537 0
241 10537 0
-337 10537 0
-961 1057 -11257 0
961 11257 0
-1057 11257 0
241 -337 -11977 0
-241 11977 0
337 11977 0
961 -1057 -12697 0
-961 12697 0
1057 12697 0
9217 -8737 0
9937 -8737 0
-9217 -9937 8737 0
-9217 10657 0
-9217 12097 0
9217 -10657 -12097 0
-9937 11377 0
-9937 12817 0
9937 -11377 -12817 0
-361 457 -10657 0
361 10657 0
-457 10657 0
-1081 1177 -11377 0
1081 11377 0
-1177 11377 0
361 -457 -12097 0
-361 12097 0
457 12097 0
1081 -1177 -12817 0
-1081 12817 0
1177 12817 0
9337 -8737 0
10057 -8737 0
-9337 -10057 8737 0
-9337 10777 0
-9337 12217 0
9337 -10777 -12217 0
-10057 11497 0
-10057 12937 0
10057 -11497 -12937 0
-481 577 -10777 0
481 10777 0
-577 10777 0
-1201 1297 -11497 0
1201 11497 0
-1297 11497 0
481 -577 -12217 0
-481 12217 0
577 12217 0
1201 -1297 -12937 0
-1201 12937 0
1297 12937 0
9457 -8737 0
10177 -8737 0
-9457 -10177 8737 0
-9457 10897 0
-9457 12337 0
9457 -10897 -12337 0
-10177 11617 0
-10177 13057 0
10177 -11617 -13057 0
-601 697 -10897 0
601 10897 0
-697 10897 0
-1321 1417 -11617 0
1321 11617 0
-1417 11617 0
601 -697 -12337 0
-601 12337 0
697 12337 0
1321 -1417 -13057 0
-1321 13057 0
1417 13057 0
8858 -8738 0
9578 -8738 0
-8858 -9578 8738 0
-8858 10298 0
-8858 11738 0
8858 -10298 -11738 0
-9578 11018 0
-9578 12458 0
9578 -11018 -12458 0
-1 98 -10298 0
1 10298 0
-98 10298 0
-721 818 -11018 0
721 11018 0
-818 11018 0
1 -98 -11738 0
-1 11738 0
98 11738 0
721 -818 -12458 0
-721 12458 0
818 12458 0
8978 -8738 0
9698 -8738 0
-8978 -9698 8738 0
-8978 10418 0
-8978 11858 0
8978 -10418 -11858 0
-9698 11138 0
-9698 12578 0
9698 -11138 -12578 0
-121 218 -10418 0
121 10418 0
-218 10418 0
-841 938 -11138 0
841 11138 0
-938 11138 0
121 -218 -11858 0
-121 11858 0
218 11858 0
841 -938 -12578 0
-841 12578 0
938 12578 0
9098 -8738 0
9818 -8738 0
-9098 -9818 8738 0
-9098 10538 0
-9098 11978 0
9098 -10538 -11978 0
-9818 11258 0
-9818 12698 0
9818 -11258 -12698 0
-241 338 -10538 0
241 10538 0
-338 10538 0
-961 1058 -11258 0
961 11258 0
-1058 11258 0
241 -338 -11978 0
-241 11978 0
338 11978 0
961 -1058 -12698 0
-961 12698 0
1058 12698 0
9218 -8738 0
9938 -8738 0
-9218 -9938 8738 0
-9218 10658 0
-9218 12098 0
9218 -10658 -12098 0
-9938 11378 0
-9938 12818 0
9938 -11378 -12818 0
-361 458 -10658 0
361 10658 0
-458 10658 0
-1081 1178 -11378 0
1081 11378 0
-1178 11378 0
361 -458 -12098 0
-361 12098 0
458 12098 0
1081 -1178 -12818 0
-1081 12818 0
1178 12818 0
9338 -8738 0
10058 -8738 0
-9338 -10058 8738 0
-9338 10778 0
-9338 12218 0
9338 -10778 -12218 0
-10058 11498 0
-10058 12938 0
10058 -11498 -12938 0
-481 578 -10778 0
481 10778 0
-578 10778 0
-1201 1298 -11498 0
1201 11498 0
-1298 11498 0
481 -578 -12218 0
-481 12218 0
578 12218 0
1201 -1298 -12938 0
-1201 12938 0
1298 12938 0
9458 -8738 0
10178 -8738 0
-9458 -10178 8738 0
-9458 10898 0
-9458 12338 0
9458 -10898 -12338 0
-10178 11618 0
-10178 13058 0
10178 -11618 -13058 0
-601 698 -10898 0
601 10898 0
-698 10898 0
-1321 1418 -11618 0
1321 11618 0
-1418 11618 0
601 -698 -12338 0
-601 12338 0
698 12338 0
1321 -1418 -13058 0
-1321 13058 0
1418 13058 0
8859 -8739 0
9579 -8739 0
-8859 -9579 8739 0
-8859 10299 0
-8859 11739 0
8859 -10299 -11739 0
-9579 11019 0
-9579 12459 0
9579 -11019 -12459 0
-1 99 -10299 0
1 10299 0
-99 10299 0
-721 819 -11019 0
721 11019 0
-819 11019 0
1 -99 -11739 0
-1 11739 0
99 11739 0
721 -819 -12459 0
-721 12459 0
819 12459 0
8979 -8739 0
9699 -8739 0
-8979 -9699 8739 0
-8979 10419 0
-8979 11859 0
8979 -10419 -11859 0
-9699 11139 0
-9699 12579 0
9699 -11139 -12579 0
-121 219 -10419 0
121 10419 0
-219 10419 0
-841 939 -11139 0
841 11139 0
-939 11139 0
121 -219 -11859 0
-121 11859 0
219 11859 0
841 -939 -12579 0
-841 12579 0
939 12579 0
9099 -8739 0
9819 -8739 0
-9099 -9819 8739 0
-9099 10539 0
-9099 11979 0
9099 -10539 -11979 0
-9819 11259 0
-9819 12699 0
9819 -11259 -12699 0
-241 339 -10539 0
241 10539 0
-339 10539 0
-961 1059 -11259 0
961 11259 0
-1059 11259 0
241 -339 -11979 0
-241 11979 0
339 11979 0
961 -1059 -12699 0
-961 12699 0
1059 12699 0
9219 -8739 0
9939 -8739 0
-9219 -9939 8739 0
-9219 10659 0
-9219 12099 0
9219 -10659 -12099 0
-9939 11379 0
-9939 12819 0
9939 -11379 -12819 0
-361 459 -10659 0
361 10659 0
-459 10659 0
-1081 1179 -11379 0
1081 11379 0
-1179 11379 0
361 -459 -12099 0
-361 12099 0
459 12099 0
1081 -1179 -12819 0
-1081 12819 0
1179 12819 0
9339 -8739 0
10059 -8739 0
-9339 -10059 8739 0
-9339 10779 0
-9339 12219 0
9339 -10779 -12219 0
-10059 11499 0
-10059 12939 0
10059 -11499 -12939 0
-481 579 -10779 0
481 10779 0
-579 10779 0
-1201 1299 -11499 0
1201 11499 0
-1299 11499 0
481 -579 -12219 0
-481 12219 0
579 12219 0
1201 -1299 -12939 0
-1201 12939 0
1299 12939 0
9459 -8739 0
10179 -8739 0
-9459 -10179 8739 0
-9459 10899 0
-9459 12339 0
9459 -10899 -12339 0
-10179 11619 0
-10179 13059 0
10179 -11619 -13059 0
-601 699 -10899 0
601 10899 0
-699 10899 0
-1321 1419 -11619 0
1321 11619 0
-1419 11619 0
601 -699 -12339 0
-601 12339 0
699 12339 0
1321 -1419 -13059 0
-1321 13059 0
1419 13059 0
8860 -8740 0
9580 -8740 0
-8860 -9580 8740 0
-8860 10300 0
-8860 11740 0
8860 -10300 -11740 0
-9580 11020 0
-9580 12460 0
9580 -11020 -12460 0
-1 100 -10300 0
1 10300 0
-100 10300 0
-721 820 -11020 0
721 11020 0
-820 11020 0
1 -100 -11740 0
-1 11740 0
100 11740 0
721 -820 -12460 0
-721 12460 0
820 12460 0
8980 -8740 0
9700 -8740 0
-8980 -9700 8740 0
-8980 10420 0
-8980 11860 0
8980 -10420 -11860 0
-9700 11140 0
-9700 12580 0
9700 -11140 -12580 0
-121 220 -10420 0
121 10420 0
-220 10420 0
-841 940 -11140 0
841 11140 0
-940 11140 0
121 -220 -11860 0
-121 11860 0
220 11860 0
841 -940 -12580 0
-841 12580 0
940 12580 0
9100 -8740 0
9820 -8740 0
-9100 -9820 8740 0
-9100 10540 0
-9100 11980 0
9100 -10540 -11980 0
-9820 11260 0
-9820 12700 0
9820 -11260 -12700 0
-241 340 -10540 0
241 10540 0
-340 10540 0
-961 1060 -11260 0
961 11260 0
-1060 11260 0
241 -340 -11980 0
-241 11980 0
340 11980 0
961 -1060 -12700 0
-961 12700 0
1060 12700 0
9220 -8740 0
9940 -8740 0
-9220 -9940 8740 0
-9220 10660 0
-9220 12100 0
9220 -10660 -12100 0
-9940 11380 0
-9940 12820 0
9940 -11380 -12820 0
-361 460 -10660 0
361 10660 0
-460 10660 0
-1081 1180 -11380 0
1081 11380 0
-1180 11380 0
361 -460 -12100 0
-361 12100 0
460 12100 0
1081 -1180 -12820 0
-1081 12820 0
1180 12820 0
9340 -8740 0
10060 -8740 0
-9340 -10060 8740 0
-9340 10780 0
-9340 12220 0
9340 -10780 -12220 0
-10060 11500 0
-10060 12940 0
10060 -11500 -12940 0
-481 580 -10780 0
481 10780 0
-580 10780 0
-1201 1300 -11500 0
1201 11500 0
-1300 11500 0
481 -580 -12220 0
-481 12220 0
580 12220 0
1201 -1300 -12940 0
-1201 12940 0
1300 12940 0
9460 -8740 0
10180 -8740 0
-9460 -10180 8740 0
-9460 10900 0
-9460 12340 0
9460 -10900 -12340 0
-10180 11620 0
-10180 13060 0
10180 -11620 -13060 0
-601 700 -10900 0
601 10900 0
-700 10900 0
-1321 1420 -11620 0
1321 11620 0
-1420 11620 0
601 -700 -12340 0
-601 12340 0
700 12340 0
1321 -1420 -13060 0
-1321 13060 0
1420 13060 0
8861 -8741 0
9581 -8741 0
-8861 -9581 8741 0
-8861 10301 0
-8861 11741 0
8861 -10301 -11741 0
-9581 11021 0
-9581 12461 0
9581 -11021 -12461 0
-1 101 -10301 0
1 10301 0
-101 10301 0
-721 821 -11021 0
721 11021 0
-821 11021 0
1 -101 -11741 0
-1 11741 0
101 11741 0
721 -821 -12461 0
-721 12461 0
821 12461 0
8981 -8741 0
9701 -8741 0
-8981 -9701 8741 0
-8981 10421 0
-8981 11861 0
8981 -10421 -11861 0
-9701 11141 0
-9701 12581 0
9701 -11141 -12581 0
-121 221 -10421 0
121 10421 0
-221 10421 0
-841 941 -11141 0
841 11141 0
-941 11141 0
121 -221 -11861 0
-121 11861 0
221 11861 0
841 -941 -12581 0
-841 12581 0
941 12581 0
9101 -8741 0
9821 -8741 0
-9101 -9821 8741 0
-9101 10541 0
-9101 11981 0
9101 -10541 -11981 0
-9821 11261 0
-9821 12701 0
9821 -11261 -12701 0
-241 341 -10541 0
241 10541 0
-341 10541 0
-961 1061 -11261 0
961 11261 0
-1061 11261 0
241 -341 -11981 0
-241 11981 0
341 11981 0
961 -1061 -12701 0
-961 12701 0
1061 12701 0
9221 -8741 0
9941 -8741 0
-9221 -9941 8741 0
-9221 10661 0
-9221 12101 0
9221 -10661 -12101 0
-9941 11381 0
-9941 12821 0
9941 -11381 -12821 0
-361 461 -10661 0
361 10661 0
-461 10661 0
-1081 1181 -11381 0
1081 11381 0
-1181 11381 0
361 -461 -12101 0
-361 12101 0
461 12101 0
1081 -1181 -12821 0
-1081 12821 0
1181 12821 0
9341 -8741 0
10061 -8741 0
-9341 -10061 8741 0
-9341 10781 0
-9341 12221 0
9341 -10781 -12221 0
-10061 11501 0
-10061 12941 0
10061 -11501 -12941 0
-481 581 -10781 0
481 10781 0
-581 10781 0
-1201 1301 -11501 0
1201 11501 0
-1301 11501 0
481 -581 -12221 0
-481 12221 0
581 12221 0
1201 -1301 -12941 0
-1201 12941 0
1301 12941 0
9461 -8741 0
10181 -8741 0
-9461 -10181 8741 0
-9461 10901 0
-9461 12341 0
9461 -10901 -12341 0
-10181 11621 0
-10181 13061 0
10181 -11621 -13061 0
-601 701 -10901 0
601 10901 0
-701 10901 0
-1321 1421 -11621 0
1321 11621 0
-1421 11621 0
601 -701 -12341 0
-601 12341 0
701 12341 0
1321 -1421 -13061 0
-1321 13061 0
1421 13061 0
8862 -8742 0
9582 -8742 0
-8862 -9582 8742 0
-8862 10302 0
-8862 11742 0
8862 -10302 -11742 0
-9582 11022 0
-9582 12462 0
9582 -11022 -12462 0
-1 102 -10302 0
1 10302 0
-102 10302 0
-721 822 -11022 0
721 11022 0
-822 11022 0
1 -102 -11742 0
-1 11742 0
102 11742 0
721 -822 -12462 0
-721 12462 0
822 12462 0
8982 -8742 0
9702 -8742 0
-8982 -9702 8742 0
-8982 10422 0
-8982 11862 0
8982 -10422 -11862 0
-9702 11142 0
-9702 12582 0
9702 -11142 -12582 0
-121 222 -10422 0
121 10422 0
-222 10422 0
-841 942 -11142 0
841 11142 0
-942 11142 0
121 -222 -11862 0
-121 11862 0
222 11862 0
841 -942 -12582 0
-841 12582 0
942 12582 0
9102 -8742 0
9822 -8742 0
-9102 -9822 8742 0
-9102 10542 0
-9102 11982 0
9102 -10542 -11982 0
-9822 11262 0
-9822 12702 0
9822 -11262 -12702 0
-241 342 -10542 0
241 10542 0
-342 10542 0
-961 1062 -11262 0
961 11262 0
-1062 11262 0
241 -342 -11982 0
-241 11982 0
342 11982 0
961 -1062 -12702 0
-961 12702 0
1062 12702 0
9222 -8742 0
9942 -8742 0
-9222 -9942 8742 0
-9222 10662 0
-9222 12102 0
9222 -10662 -12102 0
-9942 11382 0
-9942 12822 0
9942 -11382 -12822 0
-361 462 -10662 0
361 10662 0
-462 10662 0
-1081 1182 -11382 0
1081 11382 0
-1182 11382 0
361 -462 -12102 0
-361 12102 0
462 12102 0
1081 -1182 -12822 0
-1081 12822 0
1182 12822 0
9342 -8742 0
10062 -8742 0
-9342 -10062 8742 0
-9342 10782 0
-9342 12222 0
9342 -10782 -12222 0
-10062 11502 0
-10062 12942 0
10062 -11502 -12942 0
-481 582 -10782 0
481 10782 0
-582 10782 0
-1201 1302 -11502 0
1201 11502 0
-1302 11502 0
481 -582 -12222 0
-481 12222 0
582 12222 0
1201 -1302 -12942 0
-1201 12942 0
1302 12942 0
9462 -8742 0
10182 -8742 0
-9462 -10182 8742 0
-9462 10902 0
-9462 12342 0
9462 -10902 -12342 0
-10182 11622 0
-10182 13062 0
10182 -11622 -13062 0
-601 702 -10902 0
601 10902 0
-702 10902 0
-1321 1422 -11622 0
1321 11622 0
-1422 11622 0
601 -702 -12342 0
-601 12342 0
702 12342 0
1321 -1422 -13062 0
-1321 13062 0
1422 13062 0
8863 -8743 0
9583 -8743 0
-8863 -9583 8743 0
-8863 10303 0
-8863 11743 0
8863 -10303 -11743 0
-9583 11023 0
-9583 12463 0
9583 -11023 -12463 0
-1 103 -10303 0
1 10303 0
-103 10303 0
-721 823 -11023 0
721 11023 0
-823 11023 0
1 -103 -11743 0
-1 11743 0
103 11743 0
721 -823 -12463 0
-721 12463 0
823 12463 0
8983 -8743 0
9703 -8743 0
-8983 -9703 8743 0
-8983 10423 0
-8983 11863 0
8983 -10423 -11863 0
-9703 11143 0
-9703 12583 0
9703 -11143 -12583 0
-121 223 -10423 0
121 10423 0
-223 10423 0
-841 943 -11143 0
841 11143 0
-943 11143 0
121 -223 -11863 0
-121 11863 0
223 11863 0
841 -943 -12583 0
-841 12583 0
943 12583 0
9103 -8743 0
9823 -8743 0
-9103 -9823 8743 0
-9103 10543 0
-9103 11983 0
9103 -10543 -11983 0
-9823 11263 0
-9823 12703 0
9823 -11263 -12703 0
-241 343 -10543 0
241 10543 0
-343 10543 0
-961 1063 -11263 0
961 11263 0
-1063 11263 0
241 -343 -11983 0
-241 11983 0
343 11983 0
961 -1063 -12703 0
-961 12703 0
1063 12703 0
9223 -8743 0
9943 -8743 0
-9223 -9943 8743 0
-9223 10663 0
-9223 12103 0
9223 -10663 -12103 0
-9943 11383 0
-9943 12823 0
9943 -11383 -12823 0
-361 463 -10663 0
361 10663 0
-463 10663 0
-1081 1183 -11383 0
1081 11383 0
-1183 11383 0
361 -463 -12103 0
-361 12103 0
463 12103 0
1081 -1183 -12823 0
-1081 12823 0
1183 12823 0
9343 -8743 0
10063 -8743 0
-9343 -10063 8743 0
-9343 10783 0
-9343 12223 0
9343 -10783 -12223 0
-10063 11503 0
-10063 12943 0
10063 -11503 -12943 0
-481 583 -10783 0
481 10783 0
-583 10783 0
-1201 1303 -11503 0
1201 11503 0
-1303 11503 0
481 -583 -12223 0
-481 12223 0
583 12223 0
1201 -1303 -12943 0
-1201 12943 0
1303 12943 0
9463 -8743 0
10183 -8743 0
-9463 -10183 8743 0
-9463 10903 0
-9463 12343 0
9463 -10903 -12343 0
-10183 11623 0
-10183 13063 0
10183 -11623 -13063 0
-601 703 -10903 0
601 10903 0
-703 10903 0
-1321 1423 -11623 0
1321 11623 0
-1423 11623 0
601 -703 -12343 0
-601 12343 0
703 12343 0
1321 -1423 -13063 0
-1321 13063 0
1423 13063 0
8864 -8744 0
9584 -8744 0
-8864 -9584 8744 0
-8864 10304 0
-8864 11744 0
8864 -10304 -11744 0
-9584 11024 0
-9584 12464 0
9584 -11024 -12464 0
-1 104 -10304 0
1 10304 0
-104 10304 0
-721 824 -11024 0
721 11024 0
-824 11024 0
1 -104 -11744 0
-1 11744 0
104 11744 0
721 -824 -12464 0
-721 12464 0
824 12464 0
8984 -8744 0
9704 -8744 0
-8984 -9704 8744 0
-8984 10424 0
-8984 11864 0
8984 -10424 -11864 0
-9704 11144 0
-9704 12584 0
9704 -11144 -12584 0
-121 224 -10424 0
121 10424 0
-224 10424 0
-841 944 -11144 0
841 11144 0
-944 11144 0
121 -224 -11864 0
-121 11864 0
224 11864 0
841 -944 -12584 0
-841 12584 0
944 12584 0
9104 -8744 0
9824 -8744 0
-9104 -9824 8744 0
-9104 10544 0
-9104 11984 0
9104 -10544 -11984 0
-9824 11264 0
-9824 12704 0
9824 -11264 -12704 0
-241 344 -10544 0
241 10544 0
-344 10544 0
-961 1064 -11264 0
961 11264 0
-1064 11264 0
241 -344 -11984 0
-241 11984 0
344 11984 0
961 -1064 -12704 0
-961 12704 0
1064 12704 0
9224 -8744 0
9944 -8744 0
-9224 -9944 8744 0
-9224 10664 0
-9224 12104 0
9224 -10664 -12104 0
-9944 11384 0
-9944 12824 0
9944 -11384 -12824 0
-361 464 -10664 0
361 10664 0
-464 10664 0
-1081 1184 -11384 0
1081 11384 0
-1184 11384 0
361 -464 -12104 0
-361 12104 0
464 12104 0
1081 -1184 -12824 0
-1081 12824 0
1184 12824 0
9344 -8744 0
10064 -8744 0
-9344 -10064 8744 0
-9344 10784 0
-9344 12224 0
9344 -10784 -12224 0
-10064 11504 0
-10064 12944 0
10064 -11504 -12944 0
-481 584 -10784 0
481 10784 0
-584 10784 0
-1201 1304 -11504 0
1201 11504 0
-1304 11504 0
481 -584 -12224 0
-481 12224 0
584 12224 0
1201 -1304 -12944 0
-1201 12944 0
1304 12944 0
9464 -8744 0
10184 -8744 0
-9464 -10184 8744 0
-9464 10904 0
-9464 12344 0
9464 -10904 -12344 0
-10184 11624 0
-10184 13064 0
10184 -11624 -13064 0
-601 704 -10904 0
601 10904 0
-704 10904 0
-1321 1424 -11624 0
1321 11624 0
-1424 11624 0
601 -704 -12344 0
-601 12344 0
704 12344 0
1321 -1424 -13064 0
-1321 13064 0
1424 13064 0
8865 -8745 0
9585 -8745 0
-8865 -9585 8745 0
-8865 10305 0
-8865 11745 0
8865 -10305 -11745 0
-9585 11025 0
-9585 12465 0
9585 -11025 -12465 0
-1 105 -10305 0
1 10305 0
-105 10305 0
-721 825 -11025 0
721 11025 0
-825 11025 0
1 -105 -11745 0
-1 11745 0
105 11745 0
721 -825 -12465 0
-721 12465 0
825 12465 0
8985 -8745 0
9705 -8745 0
-8985 -9705 8745 0
-8985 10425 0
-8985 11865 0
8985 -10425 -11865 0
-9705 11145 0
-9705 12585 0
9705 -11145 -12585 0
-121 225 -10425 0
121 10425 0
-225 10425 0
-841 945 -11145 0
841 11145 0
-945 11145 0
121 -225 -11865 0
-121 11865 0
225 11865 0
841 -945 -12585 0
-841 12585 0
945 12585 0
9105 -8745 0
9825 -8745 0
-9105 -9825 8745 0
-9105 10545 0
-9105 11985 0
9105 -10545 -11985 0
-9825 11265 0
-9825 12705 0
9825 -11265 -12705 0
-241 345 -10545 0
241 10545 0
-345 10545 0
-961 1065 -11265 0
961 11265 0
-1065 11265 0
241 -345 -11985 0
-241 11985 0
345 11985 0
961 -1065 -12705 0
-961 12705 0
1065 12705 0
9225 -8745 0
9945 -8745 0
-9225 -9945 8745 0
-9225 10665 0
-9225 12105 0
9225 -10665 -12105 0
-9945 11385 0
-9945 12825 0
9945 -11385 -12825 0
-361 465 -10665 0
361 10665 0
-465 10665 0
-1081 1185 -11385 0
1081 11385 0
-1185 11385 0
361 -465 -12105 0
-361 12105 0
465 12105 0
1081 -1185 -12825 0
-1081 12825 0
1185 12825 0
9345 -8745 0
10065 -8745 0
-9345 -10065 8745 0
-9345 10785 0
-9345 12225 0
9345 -10785 -12225 0
-10065 11505 0
-10065 12945 0
10065 -11505 -12945 0
-481 585 -10785 0
481 10785 0
-585 10785 0
-1201 1305 -11505 0
1201 11505 0
-1305 11505 0
481 -585 -12225 0
-481 12225 0
585 12225 0
1201 -1305 -12945 0
-1201 12945 0
1305 12945 0
9465 -8745 0
10185 -8745 0
-9465 -10185 8745 0
-9465 10905 0
-9465 12345 0
9465 -10905 -12345 0
-10185 11625 0
-10185 13065 0
10185 -11625 -13065 0
-601 705 -10905 0
601 10905 0
-705 10905 0
-1321 1425 -11625 0
1321 11625 0
-1425 11625 0
601 -705 -12345 0
-601 12345 0
705 12345 0
1321 -1425 -13065 0
-1321 13065 0
1425 13065 0
8866 -8746 0
9586 -8746 0
-8866 -9586 8746 0
-8866 10306 0
-8866 11746 0
8866 -10306 -11746 0
-9586 11026 0
-9586 12466 0
9586 -11026 -12466 0
-1 106 -10306 0
1 10306 0
-106 10306 0
-721 826 -11026 0
721 11026 0
-826 11026 0
1 -106 -11746 0
-1 11746 0
106 11746 0
721 -826 -12466 0
-721 12466 0
826 12466 0
8986 -8746 0
9706 -8746 0
-8986 -9706 8746 0
-8986 10426 0
-8986 11866 0
8986 -10426 -11866 0
-9706 11146 0
-9706 12586 0
9706 -11146 -12586 0
-121 226 -10426 0
121 10426 0
-226 10426 0
-841 946 -11146 0
841 11146 0
-946 11146 0
121 -226 -11866 0
-121 11866 0
226 11866 0
841 -946 -12586 0
-841 12586 0
946 12586 0
9106 -8746 0
9826 -8746 0
-9106 -9826 8746 0
-9106 10546 0
-9106 11986 0
9106 -10546 -11986 0
-9826 11266 0
-9826 12706 0
9826 -11266 -12706 0
-241 346 -10546 0
241 10546 0
-346 10546 0
-961 1066 -11266 0
961 11266 0
-1066 11266 0
241 -346 -11986 0
-241 11986 0
346 11986 0
961 -1066 -12706 0
-961 12706 0
1066 12706 0
9226 -8746 0
9946 -8746 0
-9226 -9946 8746 0
-9226 10666 0
-9226 12106 0
9226 -10666 -12106 0
-9946 11386 0
-9946 12826 0
9946 -11386 -12826 0
-361 466 -10666 0
361 10666 0
-466 10666 0
-1081 1186 -11386 0
1081 11386 0
-1186 11386 0
361 -466 -12106 0
-361 12106 0
466 12106 0
1081 -1186 -12826 0
-1081 12826 0
1186 12826 0
9346 -8746 0
10066 -8746 0
-9346 -10066 8746 0
-9346 10786 0
-9346 12226 0
9346 -10786 -12226 0
-10066 11506 0
-10066 12946 0
10066 -11506 -12946 0
-481 586 -10786 0
481 10786 0
-586 10786 0
-1201 1306 -11506 0
1201 11506 0
-1306 11506 0
481 -586 -12226 0
-481 12226 0
586 12226 0
1201 -1306 -12946 0
-1201 12946 0
1306 12946 0
9466 -8746 0
10186 -8746 0
-9466 -10186 8746 0
-9466 10906 0
-9466 12346 0
9466 -10906 -12346 0
-10186 11626 0
-10186 13066 0
10186 -11626 -13066 0
-601 706 -10906 0
601 10906 0
-706 10906 0
-1321 1426 -11626 0
1321 11626 0
-1426 11626 0
601 -706 -12346 0
-601 12346 0
706 12346 0
1321 -1426 -13066 0
-1321 13066 0
1426 13066 0
8867 -8747 0
9587 -8747 0
-8867 -9587 8747 0
-8867 10307 0
-8867 11747 0
8867 -10307 -11747 0
-9587 11027 0
-9587 12467 0
9587 -11027 -12467 0
-1 107 -10307 0
1 10307 0
-107 10307 0
-721 827 -11027 0
721 11027 0
-827 11027 0
1 -107 -11747 0
-1 11747 0
107 11747 0
721 -827 -12467 0
-721 12467 0
827 12467 0
8987 -8747 0
9707 -8747 0
-8987 -9707 8747 0
-8987 10427 0
-8987 11867 0
8987 -10427 -11867 0
-9707 11147 0
-9707 12587 0
9707 -11147 -12587 0
-121 227 -10427 0
121 10427 0
-227 10427 0
-841 947 -11147 0
841 11147 0
-947 11147 0
121 -227 -11867 0
-121 11867 0
227 11867 0
841 -947 -12587 0
-841 12587 0
947 12587 0
9107 -8747 0
9827 -8747 0
-9107 -9827 8747 0
-9107 10547 0
-9107 11987 0
9107 -10547 -11987 0
-9827 11267 0
-9827 12707 0
9827 -11267 -12707 0
-241 347 -10547 0
241 10547 0
-347 10547 0
-961 1067 -11267 0
961 11267 0
-1067 11267 0
241 -347 -11987 0
-241 11987 0
347 11987 0
961 -1067 -12707 0
-961 12707 0
1067 12707 0
9227 -8747 0
9947 -8747 0
-9227 -9947 8747 0
-9227 10667 0
-9227 12107 0
9227 -10667 -12107 0
-9947 11387 0
-9947 12827 0
9947 -11387 -12827 0
-361 467 -10667 0
361 10667 0
-467 10667 0
-1081 1187 -11387 0
1081 11387 0
-1187 11387 0
361 -467 -12107 0
-361 12107 0
467 12107 0
1081 -1187 -12827 0
-1081 12827 0
1187 12827 0
9347 -8747 0
10067 -8747 0
-9347 -10067 8747 0
-9347 10787 0
-9347 12227 0
9347 -10787 -12227 0
-10067 11507 0
-10067 12947 0
10067 -11507 -12947 0
-481 587 -10787 0
481 10787 0
-587 10787 0
-1201 1307 -11507 0
1201 11507 0
-1307 11507 0
481 -587 -12227 0
-481 12227 0
587 12227 0
1201 -1307 -12947 0
-1201 12947 0
1307 12947 0
9467 -8747 0
10187 -8747 0
-9467 -10187 8747 0
-9467 10907 0
-9467 12347 0
9467 -10907 -12347 0
-10187 11627 0
-10187 13067 0
10187 -11627 -13067 0
-601 707 -10907 0
601 10907 0
-707 10907 0
-1321 1427 -11627 0
1321 11627 0
-1427 11627 0
601 -707 -12347 0
-601 12347 0
707 12347 0
1321 -1427 -13067 0
-1321 13067 0
1427 13067 0
8868 -8748 0
9588 -8748 0
-8868 -9588 8748 0
-8868 10308 0
-8868 11748 0
8868 -10308 -11748 0
-9588 11028 0
-9588 12468 0
9588 -11028 -12468 0
-1 108 -10308 0
1 10308 0
-108 10308 0
-721 828 -11028 0
721 11028 0
-828 11028 0
1 -108 -11748 0
-1 11748 0
108 11748 0
721 -828 -12468 0
-721 12468 0
828 12468 0
8988 -8748 0
9708 -8748 0
-8988 -9708 8748 0
-8988 10428 0
-8988 11868 0
8988 -10428 -11868 0
-9708 11148 0
-9708 12588 0
9708 -11148 -12588 0
-121 228 -10428 0
121 10428 0
-228 10428 0
-841 948 -11148 0
841 11148 0
-948 11148 0
121 -228 -11868 0
-121 11868 0
228 11868 0
841 -948 -12588 0
-841 12588 0
948 12588 0
9108 -8748 0
9828 -8748 0
-9108 -9828 8748 0
-9108 10548 0
-9108 11988 0
9108 -10548 -11988 0
-9828 11268 0
-9828 12708 0
9828 -11268 -12708 0
-241 348 -10548 0
241 10548 0
-348 10548 0
-961 1068 -11268 0
961 11268 0
-1068 11268 0
241 -348 -11988 0
-241 11988 0
348 11988 0
961 -1068 -12708 0
-961 12708 0
1068 12708 0
9228 -8748 0
9948 -8748 0
-9228 -9948 8748 0
-9228 10668 0
-9228 12108 0
9228 -10668 -12108 0
-9948 11388 0
-9948 12828 0
9948 -11388 -12828 0
-361 468 -10668 0
361 10668 0
-468 10668 0
-1081 1188 -11388 0
1081 11388 0
-1188 11388 0
361 -468 -12108 0
-361 12108 0
468 12108 0
1081 -1188 -12828 0
-1081 12828 0
1188 12828 0
9348 -8748 0
10068 -8748 0
-9348 -10068 8748 0
-9348 10788 0
-9348 12228 0
9348 -10788 -12228 0
-10068 11508 0
-10068 12948 0
10068 -11508 -12948 0
-481 588 -10788 0
481 10788 0
-588 10788 0
-1201 1308 -11508 0
1201 11508 0
-1308 11508 0
481 -588 -12228 0
-481 12228 0
588 12228 0
1201 -1308 -12948 0
-1201 12948 0
1308 12948 0
9468 -8748 0
10188 -8748 0
-9468 -10188 8748 0
-9468 10908 0
-9468 12348 0
9468 -10908 -12348 0
-10188 11628 0
-10188 13068 0
10188 -11628 -13068 0
-601 708 -10908 0
601 10908 0
-708 10908 0
-1321 1428 -11628 0
1321 11628 0
-1428 11628 0
601 -708 -12348 0
-601 12348 0
708 12348 0
1321 -1428 -13068 0
-1321 13068 0
1428 13068 0
8869 -8749 0
9589 -8749 0
-8869 -9589 8749 0
-8869 10309 0
-8869 11749 0
8869 -10309 -11749 0
-9589 11029 0
-9589 12469 0
9589 -11029 -12469 0
-1 109 -10309 0
1 10309 0
-109 10309 0
-721 829 -11029 0
721 11029 0
-829 11029 0
1 -109 -11749 0
-1 11749 0
109 11749 0
721 -829 -12469 0
-721 12469 0
829 12469 0
8989 -8749 0
9709 -8749 0
-8989 -9709 8749 0
-8989 10429 0
-8989 11869 0
8989 -10429 -11869 0
-9709 11149 0
-9709 12589 0
9709 -11149 -12589 0
-121 229 -10429 0
121 10429 0
-229 10429 0
-841 949 -11149 0
841 11149 0
-949 11149 0
121 -229 -11869 0
-121 11869 0
229 11869 0
841 -949 -12589 0
-841 12589 0
949 12589 0
9109 -8749 0
9829 -8749 0
-9109 -9829 8749 0
-9109 10549 0
-9109 11989 0
9109 -10549 -11989 0
-9829 11269 0
-9829 12709 0
9829 -11269 -12709 0
-241 349 -10549 0
241 10549 0
-349 10549 0
-961 1069 -11269 0
961 11269 0
-1069 11269 0
241 -349 -11989 0
-241 11989 0
349 11989 0
961 -1069 -12709 0
-961 12709 0
1069 12709 0
9229 -8749 0
9949 -8749 0
-9229 -9949 8749 0
-9229 10669 0
-9229 12109 0
9229 -10669 -12109 0
-9949 11389 0
-9949 12829 0
9949 -11389 -12829 0
-361 469 -10669 0
361 10669 0
-469 10669 0
-1081 1189 -11389 0
1081 11389 0
-1189 11389 0
361 -469 -12109 0
-361 12109 0
469 12109 0
1081 -1189 -12829 0
-1081 12829 0
1189 12829 0
9349 -8749 0
10069 -8749 0
-9349 -10069 8749 0
-9349 10789 0
-9349 12229 0
9349 -10789 -12229 0
-10069 11509 0
-10069 12949 0
10069 -11509 -12949 0
-481 589 -10789 0
481 10789 0
-589 10789 0
-1201 1309 -11509 0
1201 11509 0
-1309 11509 0
481 -589 -12229 0
-481 12229 0
589 12229 0
1201 -1309 -12949 0
-1201 12949 0
1309 12949 0
9469 -8749 0
10189 -8749 0
-9469 -10189 8749 0
-9469 10909 0
-9469 12349 0
9469 -10909 -12349 0
-10189 11629 0
-10189 13069 0
10189 -11629 -13069 0
-601 709 -10909 0
601 10909 0
-709 10909 0
-1321 1429 -11629 0
1321 11629 0
-1429 11629 0
601 -709 -12349 0
-601 12349 0
709 12349 0
1321 -1429 -13069 0
-1321 13069 0
1429 13069 0
8870 -8750 0
9590 -8750 0
-8870 -9590 8750 0
-8870 10310 0
-8870 11750 0
8870 -10310 -11750 0
-9590 11030 0
-9590 12470 0
9590 -11030 -12470 0
-1 110 -10310 0
1 10310 0
-110 10310 0
-721 830 -11030 0
721 11030 0
-830 11030 0
1 -110 -11750 0
-1 11750 0
110 11750 0
721 -830 -12470 0
-721 12470 0
830 12470 0
8990 -8750 0
9710 -8750 0
-8990 -9710 8750 0
-8990 10430 0
-8990 11870 0
8990 -10430 -11870 0
-9710 11150 0
-9710 12590 0
9710 -11150 -12590 0
-121 230 -10430 0
121 10430 0
-230 10430 0
-841 950 -11150 0
841 11150 0
-950 11150 0
121 -230 -11870 0
-121 11870 0
230 11870 0
841 -950 -12590 0
-841 12590 0
950 12590 0
9110 -8750 0
9830 -8750 0
-9110 -9830 8750 0
-9110 10550 0
-9110 11990 0
9110 -10550 -11990 0
-9830 11270 0
-9830 12710 0
9830 -11270 -12710 0
-241 350 -10550 0
241 10550 0
-350 10550 0
-961 1070 -11270 0
961 11270 0
-1070 11270 0
241 -350 -11990 0
-241 11990 0
350 11990 0
961 -1070 -12710 0
-961 12710 0
1070 12710 0
9230 -8750 0
9950 -8750 0
-9230 -9950 8750 0
-9230 10670 0
-9230 12110 0
9230 -10670 -12110 0
-9950 11390 0
-9950 12830 0
9950 -11390 -12830 0
-361 470 -10670 0
361 10670 0
-470 10670 0
-1081 1190 -11390 0
1081 11390 0
-1190 11390 0
361 -470 -12110 0
-361 12110 0
470 12110 0
1081 -1190 -12830 0
-1081 12830 0
1190 12830 0
9350 -8750 0
10070 -8750 0
-9350 -10070 8750 0
-9350 10790 0
-9350 12230 0
9350 -10790 -12230 0
-10070 11510 0
-10070 12950 0
10070 -11510 -12950 0
-481 590 -10790 0
481 10790 0
-590 10790 0
-1201 1310 -11510 0
1201 11510 0
-1310 11510 0
481 -590 -12230 0
-481 12230 0
590 12230 0
1201 -1310 -12950 0
-1201 12950 0
1310 12950 0
9470 -8750 0
10190 -8750 0
-9470 -10190 8750 0
-9470 10910 0
-9470 12350 0
9470 -10910 -12350 0
-10190 11630 0
-10190 13070 0
10190 -11630 -13070 0
-601 710 -10910 0
601 10910 0
-710 10910 0
-1321 1430 -11630 0
1321 11630 0
-1430 11630 0
601 -710 -12350 0
-601 12350 0
710 12350 0
1321 -1430 -13070 0
-1321 13070 0
1430 13070 0
8871 -8751 0
9591 -8751 0
-8871 -9591 8751 0
-8871 10311 0
-8871 11751 0
8871 -10311 -11751 0
-9591 11031 0
-9591 12471 0
9591 -11031 -12471 0
-1 111 -10311 0
1 10311 0
-111 10311 0
-721 831 -11031 0
721 11031 0
-831 11031 0
1 -111 -11751 0
-1 11751 0
111 11751 0
721 -831 -12471 0
-721 12471 0
831 12471 0
8991 -8751 0
9711 -8751 0
-8991 -9711 8751 0
-8991 10431 0
-8991 11871 0
8991 -10431 -11871 0
-9711 11151 0
-9711 12591 0
9711 -11151 -12591 0
-121 231 -10431 0
121 10431 0
-231 10431 0
-841 951 -11151 0
841 11151 0
-951 11151 0
121 -231 -11871 0
-121 11871 0
231 11871 0
841 -951 -12591 0
-841 12591 0
951 12591 0
9111 -8751 0
9831 -8751 0
-9111 -9831 8751 0
-9111 10551 0
-9111 11991 0
9111 -10551 -11991 0
-9831 11271 0
-9831 12711 0
9831 -11271 -12711 0
-241 351 -10551 0
241 10551 0
-351 10551 0
-961 1071 -11271 0
961 11271 0
-1071 11271 0
241 -351 -11991 0
-241 11991 0
351 11991 0
961 -1071 -12711 0
-961 12711 0
1071 12711 0
9231 -8751 0
9951 -8751 0
-9231 -9951 8751 0
-9231 10671 0
-9231 12111 0
9231 -10671 -12111 0
-9951 11391 0
-9951 12831 0
9951 -11391 -12831 0
-361 471 -10671 0
361 10671 0
-471 10671 0
-1081 1191 -11391 0
1081 11391 0
-1191 11391 0
361 -471 -12111 0
-361 12111 0
471 12111 0
1081 -1191 -12831 0
-1081 12831 0
1191 12831 0
9351 -8751 0
10071 -8751 0
-9351 -10071 8751 0
-9351 10791 0
-9351 12231 0
9351 -10791 -12231 0
-10071 11511 0
-10071 12951 0
10071 -11511 -12951 0
-481 591 -10791 0
481 10791 0
-591 10791 0
-1201 1311 -11511 0
1201 11511 0
-1311 11511 0
481 -591 -12231 0
-481 12231 0
591 12231 0
1201 -1311 -12951 0
-1201 12951 0
1311 12951 0
9471 -8751 0
10191 -8751 0
-9471 -10191 8751 0
-9471 10911 0
-9471 12351 0
9471 -10911 -12351 0
-10191 11631 0
-10191 13071 0
10191 -11631 -13071 0
-601 711 -10911 0
601 10911 0
-711 10911 0
-1321 1431 -11631 0
1321 11631 0
-1431 11631 0
601 -711 -12351 0
-601 12351 0
711 12351 0
1321 -1431 -13071 0
-1321 13071 0
1431 13071 0
8872 -8752 0
9592 -8752 0
-8872 -9592 8752 0
-8872 10312 0
-8872 11752 0
8872 -10312 -11752 0
-9592 11032 0
-9592 12472 0
9592 -11032 -12472 0
-1 112 -10312 0
1 10312 0
-112 10312 0
-721 832 -11032 0
721 11032 0
-832 11032 0
1 -112 -11752 0
-1 11752 0
112 11752 0
721 -832 -12472 0
-721 12472 0
832 12472 0
8992 -8752 0
9712 -8752 0
-8992 -9712 8752 0
-8992 10432 0
-8992 11872 0
8992 -10432 -11872 0
-9712 11152 0
-9712 12592 0
9712 -11152 -12592 0
-121 232 -10432 0
121 10432 0
-232 10432 0
-841 952 -11152 0
841 11152 0
-952 11152 0
121 -232 -11872 0
-121 11872 0
232 11872 0
841 -952 -12592 0
-841 12592 0
952 12592 0
9112 -8752 0
9832 -8752 0
-9112 -9832 8752 0
-9112 10552 0
-9112 11992 0
9112 -10552 -11992 0
-9832 11272 0
-9832 12712 0
9832 -11272 -12712 0
-241 352 -10552 0
241 10552 0
-352 10552 0
-961 1072 -11272 0
961 11272 0
-1072 11272 0
241 -352 -11992 0
-241 11992 0
352 11992 0
961 -1072 -12712 0
-961 12712 0
1072 12712 0
9232 -8752 0
9952 -8752 0
-9232 -9952 8752 0
-9232 10672 0
-9232 12112 0
9232 -10672 -12112 0
-9952 11392 0
-9952 12832 0
9952 -11392 -12832 0
-361 472 -10672 0
361 10672 0
-472 10672 0
-1081 1192 -11392 0
1081 11392 0
-1192 11392 0
361 -472 -12112 0
-361 12112 0
472 12112 0
1081 -1192 -12832 0
-1081 12832 0
1192 12832 0
9352 -8752 0
10072 -8752 0
-9352 -10072 8752 0
-9352 10792 0
-9352 12232 0
9352 -10792 -12232 0
-10072 11512 0
-10072 12952 0
10072 -11512 -12952 0
-481 592 -10792 0
481 10792 0
-592 10792 0
-1201 1312 -11512 0
1201 11512 0
-1312 11512 0
481 -592 -12232 0
-481 12232 0
592 12232 0
1201 -1312 -12952 0
-1201 12952 0
1312 12952 0
9472 -8752 0
10192 -8752 0
-9472 -10192 8752 0
-9472 10912 0
-9472 12352 0
9472 -10912 -12352 0
-10192 11632 0
-10192 13072 0
10192 -11632 -13072 0
-601 712 -10912 0
601 10912 0
-712 10912 0
-1321 1432 -11632 0
1321 11632 0
-1432 11632 0
601 -712 -12352 0
-601 12352 0
712 12352 0
1321 -1432 -13072 0
-1321 13072 0
1432 13072 0
8873 -8753 0
9593 -8753 0
-8873 -9593 8753 0
-8873 10313 0
-8873 11753 0
8873 -10313 -11753 0
-9593 11033 0
-9593 12473 0
9593 -11033 -12473 0
-1 113 -10313 0
1 10313 0
-113 10313 0
-721 833 -11033 0
721 11033 0
-833 11033 0
1 -113 -11753 0
-1 11753 0
113 11753 0
721 -833 -12473 0
-721 12473 0
833 12473 0
8993 -8753 0
9713 -8753 0
-8993 -9713 8753 0
-8993 10433 0
-8993 11873 0
8993 -10433 -11873 0
-9713 11153 0
-9713 12593 0
9713 -11153 -12593 0
-121 233 -10433 0
121 10433 0
-233 10433 0
-841 953 -11153 0
841 11153 0
-953 11153 0
121 -233 -11873 0
-121 11873 0
233 11873 0
841 -953 -12593 0
-841 12593 0
953 12593 0
9113 -8753 0
9833 -8753 0
-9113 -9833 8753 0
-9113 10553 0
-9113 11993 0
9113 -10553 -11993 0
-9833 11273 0
-9833 12713 0
9833 -11273 -12713 0
-241 353 -10553 0
241 10553 0
-353 10553 0
-961 1073 -11273 0
961 11273 0
-1073 11273 0
241 -353 -11993 0
-241 11993 0
353 11993 0
961 -1073 -12713 0
-961 12713 0
1073 12713 0
9233 -8753 0
9953 -8753 0
-9233 -9953 8753 0
-9233 10673 0
-9233 12113 0
9233 -10673 -12113 0
-9953 11393 0
-9953 12833 0
9953 -11393 -12833 0
-361 473 -10673 0
361 10673 0
-473 10673 0
-1081 1193 -11393 0
1081 11393 0
-1193 11393 0
361 -473 -12113 0
-361 12113 0
473 12113 0
1081 -1193 -12833 0
-1081 12833 0
1193 12833 0
9353 -8753 0
10073 -8753 0
-9353 -10073 8753 0
-9353 10793 0
-9353 12233 0
9353 -10793 -12233 0
-10073 11513 0
-10073 12953 0
10073 -11513 -12953 0
-481 593 -10793 0
481 10793 0
-593 10793 0
-1201 1313 -11513 0
1201 11513 0
-1313 11513 0
481 -593 -12233 0
-481 12233 0
593 12233 0
1201 -1313 -12953 0
-1201 12953 0
1313 12953 0
9473 -8753 0
10193 -8753 0
-9473 -10193 8753 0
-9473 10913 0
-9473 12353 0
9473 -10913 -12353 0
-10193 11633 0
-10193 13073 0
10193 -11633 -13073 0
-601 713 -10913 0
601 10913 0
-713 10913 0
-1321 1433 -11633 0
1321 11633 0
-1433 11633 0
601 -713 -12353 0
-601 12353 0
713 12353 0
1321 -1433 -13073 0
-1321 13073 0
1433 13073 0
8874 -8754 0
9594 -8754 0
-8874 -9594 8754 0
-8874 10314 0
-8874 11754 0
8874 -10314 -11754 0
-9594 11034 0
-9594 12474 0
9594 -11034 -12474 0
-1 114 -10314 0
1 10314 0
-114 10314 0
-721 834 -11034 0
721 11034 0
-834 11034 0
1 -114 -11754 0
-1 11754 0
114 11754 0
721 -834 -12474 0
-721 12474 0
834 12474 0
8994 -8754 0
9714 -8754 0
-8994 -9714 8754 0
-8994 10434 0
-8994 11874 0
8994 -10434 -11874 0
-9714 11154 0
-9714 12594 0
9714 -11154 -12594 0
-121 234 -10434 0
121 10434 0
-234 10434 0
-841 954 -11154 0
841 11154 0
-954 11154 0
121 -234 -11874 0
-121 11874 0
234 11874 0
841 -954 -12594 0
-841 12594 0
954 12594 0
9114 -8754 0
9834 -8754 0
-9114 -9834 8754 0
-9114 10554 0
-9114 11994 0
9114 -10554 -11994 0
-9834 11274 0
-9834 12714 0
9834 -11274 -12714 0
-241 354 -10554 0
241 10554 0
-354 10554 0
-961 1074 -11274 0
961 11274 0
-1074 11274 0
241 -354 -11994 0
-241 11994 0
354 11994 0
961 -1074 -12714 0
-961 12714 0
1074 12714 0
9234 -8754 0
9954 -8754 0
-9234 -9954 8754 0
-9234 10674 0
-9234 12114 0
9234 -10674 -12114 0
-9954 11394 0
-9954 12834 0
9954 -11394 -12834 0
-361 474 -10674 0
361 10674 0
-474 10674 0
-1081 1194 -11394 0
1081 11394 0
-1194 11394 0
361 -474 -12114 0
-361 12114 0
474 12114 0
1081 -1194 -12834 0
-1081 12834 0
1194 12834 0
9354 -8754 0
10074 -8754 0
-9354 -10074 8754 0
-9354 10794 0
-9354 12234 0
9354 -10794 -12234 0
-10074 11514 0
-10074 12954 0
10074 -11514 -12954 0
-481 594 -10794 0
481 10794 0
-594 10794 0
-1201 1314 -11514 0
1201 11514 0
-1314 11514 0
481 -594 -12234 0
-481 12234 0
594 12234 0
1201 -1314 -12954 0
-1201 12954 0
1314 12954 0
9474 -8754 0
10194 -8754 0
-9474 -10194 8754 0
-9474 10914 0
-9474 12354 0
9474 -10914 -12354 0
-10194 11634 0
-10194 13074 0
10194 -11634 -13074 0
-601 714 -10914 0
601 10914 0
-714 10914 0
-1321 1434 -11634 0
1321 11634 0
-1434 11634 0
601 -714 -12354 0
-601 12354 0
714 12354 0
1321 -1434 -13074 0
-1321 13074 0
1434 13074 0
8875 -8755 0
9595 -8755 0
-8875 -9595 8755 0
-8875 10315 0
-8875 11755 0
8875 -10315 -11755 0
-9595 11035 0
-9595 12475 0
9595 -11035 -12475 0
-1 115 -10315 0
1 10315 0
-115 10315 0
-721 835 -11035 0
721 11035 0
-835 11035 0
1 -115 -11755 0
-1 11755 0
115 11755 0
721 -835 -12475 0
-721 12475 0
835 12475 0
8995 -8755 0
9715 -8755 0
-8995 -9715 8755 0
-8995 10435 0
-8995 11875 0
8995 -10435 -11875 0
-9715 11155 0
-9715 12595 0
9715 -11155 -12595 0
-121 235 -10435 0
121 10435 0
-235 10435 0
-841 955 -11155 0
841 11155 0
-955 11155 0
121 -235 -11875 0
-121 11875 0
235 11875 0
841 -955 -12595 0
-841 12595 0
955 12595 0
9115 -8755 0
9835 -8755 0
-9115 -9835 8755 0
-9115 10555 0
-9115 11995 0
9115 -10555 -11995 0
-9835 11275 0
-9835 12715 0
9835 -11275 -12715 0
-241 355 -10555 0
241 10555 0
-355 10555 0
-961 1075 -11275 0
961 11275 0
-1075 11275 0
241 -355 -11995 0
-241 11995 0
355 11995 0
961 -1075 -12715 0
-961 12715 0
1075 12715 0
9235 -8755 0
9955 -8755 0
-9235 -9955 8755 0
-9235 10675 0
-9235 12115 0
9235 -10675 -12115 0
-9955 11395 0
-9955 12835 0
9955 -11395 -12835 0
-361 475 -10675 0
361 10675 0
-475 10675 0
-1081 1195 -11395 0
1081 11395 0
-1195 11395 0
361 -475 -12115 0
-361 12115 0
475 12115 0
1081 -1195 -12835 0
-1081 12835 0
1195 12835 0
9355 -8755 0
10075 -8755 0
-9355 -10075 8755 0
-9355 10795 0
-9355 12235 0
9355 -10795 -12235 0
-10075 11515 0
-10075 12955 0
10075 -11515 -12955 0
-481 595 -10795 0
481 10795 0
-595 10795 0
-1201 1315 -11515 0
1201 11515 0
-1315 11515 0
481 -595 -12235 0
-481 12235 0
595 12235 0
1201 -1315 -12955 0
-1201 12955 0
1315 12955 0
9475 -8755 0
10195 -8755 0
-9475 -10195 8755 0
-9475 10915 0
-9475 12355 0
9475 -10915 -12355 0
-10195 11635 0
-10195 13075 0
10195 -11635 -13075 0
-601 715 -10915 0
601 10915 0
-715 10915 0
-1321 1435 -11635 0
1321 11635 0
-1435 11635 0
601 -715 -12355 0
-601 12355 0
715 12355 0
1321 -1435 -13075 0
-1321 13075 0
1435 13075 0
8876 -8756 0
9596 -8756 0
-8876 -9596 8756 0
-8876 10316 0
-8876 11756 0
8876 -10316 -11756 0
-9596 11036 0
-9596 12476 0
9596 -11036 -12476 0
-1 116 -10316 0
1 10316 0
-116 10316 0
-721 836 -11036 0
721 11036 0
-836 11036 0
1 -116 -11756 0
-1 11756 0
116 11756 0
721 -836 -12476 0
-721 12476 0
836 12476 0
8996 -8756 0
9716 -8756 0
-8996 -9716 8756 0
-8996 10436 0
-8996 11876 0
8996 -10436 -11876 0
-9716 11156 0
-9716 12596 0
9716 -11156 -12596 0
-121 236 -10436 0
121 10436 0
-236 10436 0
-841 956 -11156 0
841 11156 0
-956 11156 0
121 -236 -11876 0
-121 11876 0
236 11876 0
841 -956 -12596 0
-841 12596 0
956 12596 0
9116 -8756 0
9836 -8756 0
-9116 -9836 8756 0
-9116 10556 0
-9116 11996 0
9116 -10556 -11996 0
-9836 11276 0
-9836 12716 0
9836 -11276 -12716 0
-241 356 -10556 0
241 10556 0
-356 10556 0
-961 1076 -11276 0
961 11276 0
-1076 11276 0
241 -356 -11996 0
-241 11996 0
356 11996 0
961 -1076 -12716 0
-961 12716 0
1076 12716 0
9236 -8756 0
9956 -8756 0
-9236 -9956 8756 0
-9236 10676 0
-9236 12116 0
9236 -10676 -12116 0
-9956 11396 0
-9956 12836 0
9956 -11396 -12836 0
-361 476 -10676 0
361 10676 0
-476 10676 0
-1081 1196 -11396 0
1081 11396 0
-1196 11396 0
361 -476 -12116 0
-361 12116 0
476 12116 0
1081 -1196 -12836 0
-1081 12836 0
1196 12836 0
9356 -8756 0
10076 -8756 0
-9356 -10076 8756 0
-9356 10796 0
-9356 12236 0
9356 -10796 -12236 0
-10076 11516 0
-10076 12956 0
10076 -11516 -12956 0
-481 596 -10796 0
481 10796 0
-596 10796 0
-1201 1316 -11516 0
1201 11516 0
-1316 11516 0
481 -596 -12236 0
-481 12236 0
596 12236 0
1201 -1316 -12956 0
-1201 12956 0
1316 12956 0
9476 -8756 0
10196 -8756 0
-9476 -10196 8756 0
-9476 10916 0
-9476 12356 0
9476 -10916 -12356 0
-10196 11636 0
-10196 13076 0
10196 -11636 -13076 0
-601 716 -10916 0
601 10916 0
-716 10916 0
-1321 1436 -11636 0
1321 11636 0
-1436 11636 0
601 -716 -12356 0
-601 12356 0
716 12356 0
1321 -1436 -13076 0
-1321 13076 0
1436 13076 0
8877 -8757 0
9597 -8757 0
-8877 -9597 8757 0
-8877 10317 0
-8877 11757 0
8877 -10317 -11757 0
-9597 11037 0
-9597 12477 0
9597 -11037 -12477 0
-1 117 -10317 0
1 10317 0
-117 10317 0
-721 837 -11037 0
721 11037 0
-837 11037 0
1 -117 -11757 0
-1 11757 0
117 11757 0
721 -837 -12477 0
-721 12477 0
837 12477 0
8997 -8757 0
9717 -8757 0
-8997 -9717 8757 0
-8997 10437 0
-8997 11877 0
8997 -10437 -11877 0
-9717 11157 0
-9717 12597 0
9717 -11157 -12597 0
-121 237 -10437 0
121 10437 0
-237 10437 0
-841 957 -11157 0
841 11157 0
-957 11157 0
121 -237 -11877 0
-121 11877 0
237 11877 0
841 -957 -12597 0
-841 12597 0
957 12597 0
9117 -8757 0
9837 -8757 0
-9117 -9837 8757 0
-9117 10557 0
-9117 11997 0
9117 -10557 -11997 0
-9837 11277 0
-9837 12717 0
9837 -11277 -12717 0
-241 357 -10557 0
241 10557 0
-357 10557 0
-961 1077 -11277 0
961 11277 0
-1077 11277 0
241 -357 -11997 0
-241 11997 0
357 11997 0
961 -1077 -12717 0
-961 12717 0
1077 12717 0
9237 -8757 0
9957 -8757 0
-9237 -9957 8757 0
-9237 10677 0
-9237 12117 0
9237 -10677 -12117 0
-9957 11397 0
-9957 12837 0
9957 -11397 -12837 0
-361 477 -10677 0
361 10677 0
-477 10677 0
-1081 1197 -11397 0
1081 11397 0
-1197 11397 0
361 -477 -12117 0
-361 12117 0
477 12117 0
1081 -1197 -12837 0
-1081 12837 0
1197 12837 0
9357 -8757 0
10077 -8757 0
-9357 -10077 8757 0
-9357 10797 0
-9357 12237 0
9357 -10797 -12237 0
-10077 11517 0
-10077 12957 0
10077 -11517 -12957 0
-481 597 -10797 0
481 10797 0
-597 10797 0
-1201 1317 -11517 0
1201 11517 0
-1317 11517 0
481 -597 -12237 0
-481 12237 0
597 12237 0
1201 -1317 -12957 0
-1201 12957 0
1317 12957 0
9477 -8757 0
10197 -8757 0
-9477 -10197 8757 0
-9477 10917 0
-9477 12357 0
9477 -10917 -12357 0
-10197 11637 0
-10197 13077 0
10197 -11637 -13077 0
-601 717 -10917 0
601 10917 0
-717 10917 0
-1321 1437 -11637 0
1321 11637 0
-1437 11637 0
601 -717 -12357 0
-601 12357 0
717 12357 0
1321 -1437 -13077 0
-1321 13077 0
1437 13077 0
8878 -8758 0
9598 -8758 0
-8878 -9598 8758 0
-8878 10318 0
-8878 11758 0
8878 -10318 -11758 0
-9598 11038 0
-9598 12478 0
9598 -11038 -12478 0
-1 118 -10318 0
1 10318 0
-118 10318 0
-721 838 -11038 0
721 11038 0
-838 11038 0
1 -118 -11758 0
-1 11758 0
118 11758 0
721 -838 -12478 0
-721 12478 0
838 12478 0
8998 -8758 0
9718 -8758 0
-8998 -9718 8758 0
-8998 10438 0
-8998 11878 0
8998 -10438 -11878 0
-9718 11158 0
-9718 12598 0
9718 -11158 -12598 0
-121 238 -10438 0
121 10438 0
-238 10438 0
-841 958 -11158 0
841 11158 0
-958 11158 0
121 -238 -11878 0
-121 11878 0
238 11878 0
841 -958 -12598 0
-841 12598 0
958 12598 0
9118 -8758 0
9838 -8758 0
-9118 -9838 8758 0
-9118 10558 0
-9118 11998 0
9118 -10558 -11998 0
-9838 11278 0
-9838 12718 0
9838 -11278 -12718 0
-241 358 -10558 0
241 10558 0
-358 10558 0
-961 1078 -11278 0
961 11278 0
-1078 11278 0
241 -358 -11998 0
-241 11998 0
358 11998 0
961 -1078 -12718 0
-961 12718 0
1078 12718 0
9238 -8758 0
9958 -8758 0
-9238 -9958 8758 0
-9238 10678 0
-9238 12118 0
9238 -10678 -12118 0
-9958 11398 0
-9958 12838 0
9958 -11398 -12838 0
-361 478 -10678 0
361 10678 0
-478 10678 0
-1081 1198 -11398 0
1081 11398 0
-1198 11398 0
361 -478 -12118 0
-361 12118 0
478 12118 0
1081 -1198 -12838 0
-1081 12838 0
1198 12838 0
9358 -8758 0
10078 -8758 0
-9358 -10078 8758 0
-9358 10798 0
-9358 12238 0
9358 -10798 -12238 0
-10078 11518 0
-10078 12958 0
10078 -11518 -12958 0
-481 598 -10798 0
481 10798 0
-598 10798 0
-1201 1318 -11518 0
1201 11518 0
-1318 11518 0
481 -598 -12238 0
-481 12238 0
598 12238 0
1201 -1318 -12958 0
-1201 12958 0
1318 12958 0
9478 -8758 0
10198 -8758 0
-9478 -10198 8758 0
-9478 10918 0
-9478 12358 0
9478 -10918 -12358 0
-10198 11638 0
-10198 13078 0
10198 -11638 -13078 0
-601 718 -10918 0
601 10918 0
-718 10918 0
-1321 1438 -11638 0
1321 11638 0
-1438 11638 0
601 -718 -12358 0
-601 12358 0
718 12358 0
1321 -1438 -13078 0
-1321 13078 0
1438 13078 0
8879 -8759 0
9599 -8759 0
-8879 -9599 8759 0
-8879 10319 0
-8879 11759 0
8879 -10319 -11759 0
-9599 11039 0
-9599 12479 0
9599 -11039 -12479 0
-1 119 -10319 0
1 10319 0
-119 10319 0
-721 839 -11039 0
721 11039 0
-839 11039 0
1 -119 -11759 0
-1 11759 0
119 11759 0
721 -839 -12479 0
-721 12479 0
839 12479 0
8999 -8759 0
9719 -8759 0
-8999 -9719 8759 0
-8999 10439 0
-8999 11879 0
8999 -10439 -11879 0
-9719 11159 0
-9719 12599 0
9719 -11159 -12599 0
-121 239 -10439 0
121 10439 0
-239 10439 0
-841 959 -11159 0
841 11159 0
-959 11159 0
121 -239 -11879 0
-121 11879 0
239 11879 0
841 -959 -12599 0
-841 12599 0
959 12599 0
9119 -8759 0
9839 -8759 0
-9119 -9839 8759 0
-9119 10559 0
-9119 11999 0
9119 -10559 -11999 0
-9839 11279 0
-9839 12719 0
9839 -11279 -12719 0
-241 359 -10559 0
241 10559 0
-359 10559 0
-961 1079 -11279 0
961 11279 0
-1079 11279 0
241 -359 -11999 0
-241 11999 0
359 11999 0
961 -1079 -12719 0
-961 12719 0
1079 12719 0
9239 -8759 0
9959 -8759 0
-9239 -9959 8759 0
-9239 10679 0
-9239 12119 0
9239 -10679 -12119 0
-9959 11399 0
-9959 12839 0
9959 -11399 -12839 0
-361 479 -10679 0
361 10679 0
-479 10679 0
-1081 1199 -11399 0
1081 11399 0
-1199 11399 0
361 -479 -12119 0
-361 12119 0
479 12119 0
1081 -1199 -12839 0
-1081 12839 0
1199 12839 0
9359 -8759 0
10079 -8759 0
-9359 -10079 8759 0
-9359 10799 0
-9359 12239 0
9359 -10799 -12239 0
-10079 11519 0
-10079 12959 0
10079 -11519 -12959 0
-481 599 -10799 0
481 10799 0
-599 10799 0
-1201 1319 -11519 0
1201 11519 0
-1319 11519 0
481 -599 -12239 0
-481 12239 0
599 12239 0
1201 -1319 -12959 0
-1201 12959 0
1319 12959 0
9479 -8759 0
10199 -8759 0
-9479 -10199 8759 0
-9479 10919 0
-9479 12359 0
9479 -10919 -12359 0
-10199 11639 0
-10199 13079 0
10199 -11639 -13079 0
-601 719 -10919 0
601 10919 0
-719 10919 0
-1321 1439 -11639 0
1321 11639 0
-1439 11639 0
601 -719 -12359 0
-601 12359 0
719 12359 0
1321 -1439 -13079 0
-1321 13079 0
1439 13079 0
8880 -8760 0
9600 -8760 0
-8880 -9600 8760 0
-8880 10320 0
-8880 11760 0
8880 -10320 -11760 0
-9600 11040 0
-9600 12480 0
9600 -11040 -12480 0
-1 120 -10320 0
1 10320 0
-120 10320 0
-721 840 -11040 0
721 11040 0
-840 11040 0
1 -120 -11760 0
-1 11760 0
120 11760 0
721 -840 -12480 0
-721 12480 0
840 12480 0
9000 -8760 0
9720 -8760 0
-9000 -9720 8760 0
-9000 10440 0
-9000 11880 0
9000 -10440 -11880 0
-9720 11160 0
-9720 12600 0
9720 -11160 -12600 0
-121 240 -10440 0
121 10440 0
-240 10440 0
-841 960 -11160 0
841 11160 0
-960 11160 0
121 -240 -11880 0
-121 11880 0
240 11880 0
841 -960 -12600 0
-841 12600 0
960 12600 0
9120 -8760 0
9840 -8760 0
-9120 -9840 8760 0
-9120 10560 0
-9120 12000 0
9120 -10560 -12000 0
-9840 11280 0
-9840 12720 0
9840 -11280 -12720 0
-241 360 -10560 0
241 10560 0
-360 10560 0
-961 1080 -11280 0
961 11280 0
-1080 11280 0
241 -360 -12000 0
-241 12000 0
360 12000 0
961 -1080 -12720 0
-961 12720 0
1080 12720 0
9240 -8760 0
9960 -8760 0
-9240 -9960 8760 0
-9240 10680 0
-9240 12120 0
9240 -10680 -12120 0
-9960 11400 0
-9960 12840 0
9960 -11400 -12840 0
-361 480 -10680 0
361 10680 0
-480 10680 0
-1081 1200 -11400 0
1081 11400 0
-1200 11400 0
361 -480 -12120 0
-361 12120 0
480 12120 0
1081 -1200 -12840 0
-1081 12840 0
1200 12840 0
9360 -8760 0
10080 -8760 0
-9360 -10080 8760 0
-9360 10800 0
-9360 12240 0
9360 -10800 -12240 0
-10080 11520 0
-10080 12960 0
10080 -11520 -12960 0
-481 600 -10800 0
481 10800 0
-600 10800 0
-1201 1320 -11520 0
1201 11520 0
-1320 11520 0
481 -600 -12240 0
-481 12240 0
600 12240 0
1201 -1320 -12960 0
-1201 12960 0
1320 12960 0
9480 -8760 0
10200 -8760 0
-9480 -10200 8760 0
-9480 10920 0
-9480 12360 0
9480 -10920 -12360 0
-10200 11640 0
-10200 13080 0
10200 -11640 -13080 0
-601 720 -10920 0
601 10920 0
-720 10920 0
-1321 1440 -11640 0
1321 11640 0
-1440 11640 0
601 -720 -12360 0
-601 12360 0
720 12360 0
1321 -1440 -13080 0
-1321 13080 0
1440 13080 0
-7921 -8521 0
-7921 -8041 0
-8041 -7921 0
-8041 -8161 0
-8161 -8041 0
-8161 -8281 0
-8281 -8161 0
-8281 -8401 0
-8401 -8281 0
-8401 -8521 0
-8521 -8401 0
-8521 -7921 0
-7922 -8522 0
-7922 -8042 0
-8042 -7922 0
-8042 -8162 0
-8162 -8042 0
-8162 -8282 0
-8282 -8162 0
-8282 -8402 0
-8402 -8282 0
-8402 -8522 0
-8522 -8402 0
-8522 -7922 0
-7923 -8523 0
-7923 -8043 0
-8043 -7923 0
-8043 -8163 0
-8163 -8043 0
-8163 -8283 0
-8283 -8163 0
-8283 -8403 0
-8403 -8283 0
-8403 -8523 0
-8523 -8403 0
-8523 -7923 0
-7924 -8524 0
-7924 -8044 0
-8044 -7924 0
-8044 -8164 0
-8164 -8044 0
-8164 -8284 0
-8284 -8164 0
-8284 -8404 0
-8404 -8284 0
-8404 -8524 0
-8524 -8404 0
-8524 -7924 0
-7925 -8525 0
-7925 -8045 0
-8045 -7925 0
-8045 -8165 0
-8165 -8045 0
-8165 -8285 0
-8285 -8165 0
-8285 -8405 0
-8405 -8285 0
-8405 -8525 0
-8525 -8405 0
-8525 -7925 0
-7926 -8526 0
-7926 -8046 0
-8046 -7926 0
-8046 -8166 0
-8166 -8046 0
-8166 -8286 0
-8286 -8166 0
-8286 -8406 0
-8406 -8286 0
-8406 -8526 0
-8526 -8406 0
-8526 -7926 0
-7927 -8527 0
-7927 -8047 0
-8047 -7927 0
-8047 -8167 0
-8167 -8047 0
-8167 -8287 0
-8287 -8167 0
-8287 -8407 0
-8407 -8287 0
-8407 -8527 0
-8527 -8407 0
-8527 -7927 0
-7928 -8528 0
-7928 -8048 0
-8048 -7928 0
-8048 -8168 0
-8168 -8048 0
-8168 -8288 0
-8288 -8168 0
-8288 -8408 0
-8408 -8288 0
-8408 -8528 0
-8528 -8408 0
-8528 -7928 0
-7929 -8529 0
-7929 -8049 0
-8049 -7929 0
-8049 -8169 0
-8169 -8049 0
-8169 -8289 0
-8289 -8169 0
-8289 -8409 0
-8409 -8289 0
-8409 -8529 0
-8529 -8409 0
-8529 -7929 0
-7930 -8530 0
-7930 -8050 0
-8050 -7930 0
-8050 -8170 0
-8170 -8050 0
-8170 -8290 0
-8290 -8170 0
-8290 -8410 0
-8410 -8290 0
-8410 -8530 0
-8530 -8410 0
-8530 -7930 0
-7931 -8531 0
-7931 -8051 0
-8051 -7931 0
-8051 -8171 0
-8171 -8051 0
-8171 -8291 0
-8291 -8171 0
-8291 -8411 0
-8411 -8291 0
-8411 -8531 0
-8531 -8411 0
-8531 -7931 0
-7932 -8532 0
-7932 -8052 0
-8052 -7932 0
-8052 -8172 0
-8172 -8052 0
-8172 -8292 0
-8292 -8172 0
-8292 -8412 0
-8412 -8292 0
-8412 -8532 0
-8532 -8412 0
-8532 -7932 0
-7933 -8533 0
-7933 -8053 0
-8053 -7933 0
-8053 -8173 0
-8173 -8053 0
-8173 -8293 0
-8293 -8173 0
-8293 -8413 0
-8413 -8293 0
-8413 -8533 0
-8533 -8413 0
-8533 -7933 0
-7934 -8534 0
-7934 -8054 0
-8054 -7934 0
-8054 -8174 0
-8174 -8054 0
-8174 -8294 0
-8294 -8174 0
-8294 -8414 0
-8414 -8294 0
-8414 -8534 0
-8534 -8414 0
-8534 -7934 0
-7935 -8535 0
-7935 -8055 0
-8055 -7935 0
-8055 -8175 0
-8175 -8055 0
-8175 -8295 0
-8295 -8175 0
-8295 -8415 0
-8415 -8295 0
-8415 -8535 0
-8535 -8415 0
-8535 -7935 0
-7936 -8536 0
-7936 -8056 0
-8056 -7936 0
-8056 -8176 0
-8176 -8056 0
-8176 -8296 0
-8296 -8176 0
-8296 -8416 0
-8416 -8296 0
-8416 -8536 0
-8536 -8416 0
-8536 -7936 0
-7937 -8537 0
-7937 -8057 0
-8057 -7937 0
-8057 -8177 0
-8177 -8057 0
-8177 -8297 0
-8297 -8177 0
-8297 -8417 0
-8417 -8297 0
-8417 -8537 0
-8537 -8417 0
-8537 -7937 0
-7938 -8538 0
-7938 -8058 0
-8058 -7938 0
-8058 -8178 0
-8178 -8058 0
-8178 -8298 0
-8298 -8178 0
-8298 -8418 0
-8418 -8298 0
-8418 -8538 0
-8538 -8418 0
-8538 -7938 0
-7939 -8539 0
-7939 -8059 0
-8059 -7939 0
-8059 -8179 0
-8179 -8059 0
-8179 -8299 0
-8299 -8179 0
-8299 -8419 0
-8419 -8299 0
-8419 -8539 0
-8539 -8419 0
-8539 -7939 0
-7940 -8540 0
-7940 -8060 0
-8060 -7940 0
-8060 -8180 0
-8180 -8060 0
-8180 -8300 0
-8300 -8180 0
-8300 -8420 0
-8420 -8300 0
-8420 -8540 0
-8540 -8420 0
-8540 -7940 0
-7941 -8541 0
-7941 -8061 0
-8061 -7941 0
-8061 -8181 0
-8181 -8061 0
-8181 -8301 0
-8301 -8181 0
-8301 -8421 0
-8421 -8301 0
-8421 -8541 0
-8541 -8421 0
-8541 -7941 0
-7942 -8542 0
-7942 -8062 0
-8062 -7942 0
-8062 -8182 0
-8182 -8062 0
-8182 -8302 0
-8302 -8182 0
-8302 -8422 0
-8422 -8302 0
-8422 -8542 0
-8542 -8422 0
-8542 -7942 0
-7943 -8543 0
-7943 -8063 0
-8063 -7943 0
-8063 -8183 0
-8183 -8063 0
-8183 -8303 0
-8303 -8183 0
-8303 -8423 0
-8423 -8303 0
-8423 -8543 0
-8543 -8423 0
-8543 -7943 0
-7944 -8544 0
-7944 -8064 0
-8064 -7944 0
-8064 -8184 0
-8184 -8064 0
-8184 -8304 0
-8304 -8184 0
-8304 -8424 0
-8424 -8304 0
-8424 -8544 0
-8544 -8424 0
-8544 -7944 0
-7945 -8545 0
-7945 -8065 0
-8065 -7945 0
-8065 -8185 0
-8185 -8065 0
-8185 -8305 0
-8305 -8185 0
-8305 -8425 0
-8425 -8305 0
-8425 -8545 0
-8545 -8425 0
-8545 -7945 0
-7946 -8546 0
-7946 -8066 0
-8066 -7946 0
-8066 -8186 0
-8186 -8066 0
-8186 -8306 0
-8306 -8186 0
-8306 -8426 0
-8426 -8306 0
-8426 -8546 0
-8546 -8426 0
-8546 -7946 0
-7947 -8547 0
-7947 -8067 0
-8067 -7947 0
-8067 -8187 0
-8187 -8067 0
-8187 -8307 0
-8307 -8187 0
-8307 -8427 0
-8427 -8307 0
-8427 -8547 0
-8547 -8427 0
-8547 -7947 0
-7948 -8548 0
-7948 -8068 0
-8068 -7948 0
-8068 -8188 0
-8188 -8068 0
-8188 -8308 0
-8308 -8188 0
-8308 -8428 0
-8428 -8308 0
-8428 -8548 0
-8548 -8428 0
-8548 -7948 0
-7949 -8549 0
-7949 -8069 0
-8069 -7949 0
-8069 -8189 0
-8189 -8069 0
-8189 -8309 0
-8309 -8189 0
-8309 -8429 0
-8429 -8309 0
-8429 -8549 0
-8549 -8429 0
-8549 -7949 0
-7950 -8550 0
-7950 -8070 0
-8070 -7950 0
-8070 -8190 0
-8190 -8070 0
-8190 -8310 0
-8310 -8190 0
-8310 -8430 0
-8430 -8310 0
-8430 -8550 0
-8550 -8430 0
-8550 -7950 0
-7951 -8551 0
-7951 -8071 0
-8071 -7951 0
-8071 -8191 0
-8191 -8071 0
-8191 -8311 0
-8311 -8191 0
-8311 -8431 0
-8431 -8311 0
-8431 -8551 0
-8551 -8431 0
-8551 -7951 0
-7952 -8552 0
-7952 -8072 0
-8072 -7952 0
-8072 -8192 0
-8192 -8072 0
-8192 -8312 0
-8312 -8192 0
-8312 -8432 0
-8432 -8312 0
-8432 -8552 0
-8552 -8432 0
-8552 -7952 0
-7953 -8553 0
-7953 -8073 0
-8073 -7953 0
-8073 -8193 0
-8193 -8073 0
-8193 -8313 0
-8313 -8193 0
-8313 -8433 0
-8433 -8313 0
-8433 -8553 0
-8553 -8433 0
-8553 -7953 0
-7954 -8554 0
-7954 -8074 0
-8074 -7954 0
-8074 -8194 0
-8194 -8074 0
-8194 -8314 0
-8314 -8194 0
-8314 -8434 0
-8434 -8314 0
-8434 -8554 0
-8554 -8434 0
-8554 -7954 0
-7955 -8555 0
-7955 -8075 0
-8075 -7955 0
-8075 -8195 0
-8195 -8075 0
-8195 -8315 0
-8315 -8195 0
-8315 -8435 0
-8435 -8315 0
-8435 -8555 0
-8555 -8435 0
-8555 -7955 0
-7956 -8556 0
-7956 -8076 0
-8076 -7956 0
-8076 -8196 0
-8196 -8076 0
-8196 -8316 0
-8316 -8196 0
-8316 -8436 0
-8436 -8316 0
-8436 -8556 0
-8556 -8436 0
-8556 -7956 0
-7957 -8557 0
-7957 -8077 0
-8077 -7957 0
-8077 -8197 0
-8197 -8077 0
-8197 -8317 0
-8317 -8197 0
-8317 -8437 0
-8437 -8317 0
-8437 -8557 0
-8557 -8437 0
-8557 -7957 0
-7958 -8558 0
-7958 -8078 0
-8078 -7958 0
-8078 -8198 0
-8198 -8078 0
-8198 -8318 0
-8318 -8198 0
-8318 -8438 0
-8438 -8318 0
-8438 -8558 0
-8558 -8438 0
-8558 -7958 0
-7959 -8559 0
-7959 -8079 0
-8079 -7959 0
-8079 -8199 0
-8199 -8079 0
-8199 -8319 0
-8319 -8199 0
-8319 -8439 0
-8439 -8319 0
-8439 -8559 0
-8559 -8439 0
-8559 -7959 0
-7960 -8560 0
-7960 -8080 0
-8080 -7960 0
-8080 -8200 0
-8200 -8080 0
-8200 -8320 0
-8320 -8200 0
-8320 -8440 0
-8440 -8320 0
-8440 -8560 0
-8560 -8440 0
-8560 -7960 0
-7961 -8561 0
-7961 -8081 0
-8081 -7961 0
-8081 -8201 0
-8201 -8081 0
-8201 -8321 0
-8321 -8201 0
-8321 -8441 0
-8441 -8321 0
-8441 -8561 0
-8561 -8441 0
-8561 -7961 0
-7962 -8562 0
-7962 -8082 0
-8082 -7962 0
-8082 -8202 0
-8202 -8082 0
-8202 -8322 0
-8322 -8202 0
-8322 -8442 0
-8442 -8322 0
-8442 -8562 0
-8562 -8442 0
-8562 -7962 0
-7963 -8563 0
-7963 -8083 0
-8083 -7963 0
-8083 -8203 0
-8203 -8083 0
-8203 -8323 0
-8323 -8203 0
-8323 -8443 0
-8443 -8323 0
-8443 -8563 0
-8563 -8443 0
-8563 -7963 0
-7964 -8564 0
-7964 -8084 0
-8084 -7964 0
-8084 -8204 0
-8204 -8084 0
-8204 -8324 0
-8324 -8204 0
-8324 -8444 0
-8444 -8324 0
-8444 -8564 0
-8564 -8444 0
-8564 -7964 0
-7965 -8565 0
-7965 -8085 0
-8085 -7965 0
-8085 -8205 0
-8205 -8085 0
-8205 -8325 0
-8325 -8205 0
-8325 -8445 0
-8445 -8325 0
-8445 -8565 0
-8565 -8445 0
-8565 -7965 0
-7966 -8566 0
-7966 -8086 0
-8086 -7966 0
-8086 -8206 0
-8206 -8086 0
-8206 -8326 0
-8326 -8206 0
-8326 -8446 0
-8446 -8326 0
-8446 -8566 0
-8566 -8446 0
-8566 -7966 0
-7967 -8567 0
-7967 -8087 0
-8087 -7967 0
-8087 -8207 0
-8207 -8087 0
-8207 -8327 0
-8327 -8207 0
-8327 -8447 0
-8447 -8327 0
-8447 -8567 0
-8567 -8447 0
-8567 -7967 0
-7968 -8568 0
-7968 -8088 0
-8088 -7968 0
-8088 -8208 0
-8208 -8088 0
-8208 -8328 0
-8328 -8208 0
-8328 -8448 0
-8448 -8328 0
-8448 -8568 0
-8568 -8448 0
-8568 -7968 0
-7969 -8569 0
-7969 -8089 0
-8089 -7969 0
-8089 -8209 0
-8209 -8089 0
-8209 -8329 0
-8329 -8209 0
-8329 -8449 0
-8449 -8329 0
-8449 -8569 0
-8569 -8449 0
-8569 -7969 0
-7970 -8570 0
-7970 -8090 0
-8090 -7970 0
-8090 -8210 0
-8210 -8090 0
-8210 -8330 0
-8330 -8210 0
-8330 -8450 0
-8450 -8330 0
-8450 -8570 0
-8570 -8450 0
-8570 -7970 0
-7971 -8571 0
-7971 -8091 0
-8091 -7971 0
-8091 -8211 0
-8211 -8091 0
-8211 -8331 0
-8331 -8211 0
-8331 -8451 0
-8451 -8331 0
-8451 -8571 0
-8571 -8451 0
-8571 -7971 0
-7972 -8572 0
-7972 -8092 0
-8092 -7972 0
-8092 -8212 0
-8212 -8092 0
-8212 -8332 0
-8332 -8212 0
-8332 -8452 0
-8452 -8332 0
-8452 -8572 0
-8572 -8452 0
-8572 -7972 0
-7973 -8573 0
-7973 -8093 0
-8093 -7973 0
-8093 -8213 0
-8213 -8093 0
-8213 -8333 0
-8333 -8213 0
-8333 -8453 0
-8453 -8333 0
-8453 -8573 0
-8573 -8453 0
-8573 -7973 0
-7974 -8574 0
-7974 -8094 0
-8094 -7974 0
-8094 -8214 0
-8214 -8094 0
-8214 -8334 0
-8334 -8214 0
-8334 -8454 0
-8454 -8334 0
-8454 -8574 0
-8574 -8454 0
-8574 -7974 0
-7975 -8575 0
-7975 -8095 0
-8095 -7975 0
-8095 -8215 0
-8215 -8095 0
-8215 -8335 0
-8335 -8215 0
-8335 -8455 0
-8455 -8335 0
-8455 -8575 0
-8575 -8455 0
-8575 -7975 0
-7976 -8576 0
-7976 -8096 0
-8096 -7976 0
-8096 -8216 0
-8216 -8096 0
-8216 -8336 0
-8336 -8216 0
-8336 -8456 0
-8456 -8336 0
-8456 -8576 0
-8576 -8456 0
-8576 -7976 0
-7977 -8577 0
-7977 -8097 0
-8097 -7977 0
-8097 -8217 0
-8217 -8097 0
-8217 -8337 0
-8337 -8217 0
-8337 -8457 0
-8457 -8337 0
-8457 -8577 0
-8577 -8457 0
-8577 -7977 0
-7978 -8578 0
-7978 -8098 0
-8098 -7978 0
-8098 -8218 0
-8218 -8098 0
-8218 -8338 0
-8338 -8218 0
-8338 -8458 0
-8458 -8338 0
-8458 -8578 0
-8578 -8458 0
-8578 -7978 0
-7979 -8579 0
-7979 -8099 0
-8099 -7979 0
-8099 -8219 0
-8219 -8099 0
-8219 -8339 0
-8339 -8219 0
-8339 -8459 0
-8459 -8339 0
-8459 -8579 0
-8579 -8459 0
-8579 -7979 0
-7980 -8580 0
-7980 -8100 0
-8100 -7980 0
-8100 -8220 0
-8220 -8100 0
-8220 -8340 0
-8340 -8220 0
-8340 -8460 0
-8460 -8340 0
-8460 -8580 0
-8580 -8460 0
-8580 -7980 0
-7981 -8581 0
-7981 -8101 0
-8101 -7981 0
-8101 -8221 0
-8221 -8101 0
-8221 -8341 0
-8341 -8221 0
-8341 -8461 0
-8461 -8341 0
-8461 -8581 0
-8581 -8461 0
-8581 -7981 0
-7982 -8582 0
-7982 -8102 0
-8102 -7982 0
-8102 -8222 0
-8222 -8102 0
-8222 -8342 0
-8342 -8222 0
-8342 -8462 0
-8462 -8342 0
-8462 -8582 0
-8582 -8462 0
-8582 -7982 0
-7983 -8583 0
-7983 -8103 0
-8103 -7983 0
-8103 -8223 0
-8223 -8103 0
-8223 -8343 0
-8343 -8223 0
-8343 -8463 0
-8463 -8343 0
-8463 -8583 0
-8583 -8463 0
-8583 -7983 0
-7984 -8584 0
-7984 -8104 0
-8104 -7984 0
-8104 -8224 0
-8224 -8104 0
-8224 -8344 0
-8344 -8224 0
-8344 -8464 0
-8464 -8344 0
-8464 -8584 0
-8584 -8464 0
-8584 -7984 0
-7985 -8585 0
-7985 -8105 0
-8105 -7985 0
-8105 -8225 0
-8225 -8105 0
-8225 -8345 0
-8345 -8225 0
-8345 -8465 0
-8465 -8345 0
-8465 -8585 0
-8585 -8465 0
-8585 -7985 0
-7986 -8586 0
-7986 -8106 0
-8106 -7986 0
-8106 -8226 0
-8226 -8106 0
-8226 -8346 0
-8346 -8226 0
-8346 -8466 0
-8466 -8346 0
-8466 -8586 0
-8586 -8466 0
-8586 -7986 0
-7987 -8587 0
-7987 -8107 0
-8107 -7987 0
-8107 -8227 0
-8227 -8107 0
-8227 -8347 0
-8347 -8227 0
-8347 -8467 0
-8467 -8347 0
-8467 -8587 0
-8587 -8467 0
-8587 -7987 0
-7988 -8588 0
-7988 -8108 0
-8108 -7988 0
-8108 -8228 0
-8228 -8108 0
-8228 -8348 0
-8348 -8228 0
-8348 -8468 0
-8468 -8348 0
-8468 -8588 0
-8588 -8468 0
-8588 -7988 0
-7989 -8589 0
-7989 -8109 0
-8109 -7989 0
-8109 -8229 0
-8229 -8109 0
-8229 -8349 0
-8349 -8229 0
-8349 -8469 0
-8469 -8349 0
-8469 -8589 0
-8589 -8469 0
-8589 -7989 0
-7990 -8590 0
-7990 -8110 0
-8110 -7990 0
-8110 -8230 0
-8230 -8110 0
-8230 -8350 0
-8350 -8230 0
-8350 -8470 0
-8470 -8350 0
-8470 -8590 0
-8590 -8470 0
-8590 -7990 0
-7991 -8591 0
-7991 -8111 0
-8111 -7991 0
-8111 -8231 0
-8231 -8111 0
-8231 -8351 0
-8351 -8231 0
-8351 -8471 0
-8471 -8351 0
-8471 -8591 0
-8591 -8471 0
-8591 -7991 0
-7992 -8592 0
-7992 -8112 0
-8112 -7992 0
-8112 -8232 0
-8232 -8112 0
-8232 -8352 0
-8352 -8232 0
-8352 -8472 0
-8472 -8352 0
-8472 -8592 0
-8592 -8472 0
-8592 -7992 0
-7993 -8593 0
-7993 -8113 0
-8113 -7993 0
-8113 -8233 0
-8233 -8113 0
-8233 -8353 0
-8353 -8233 0
-8353 -8473 0
-8473 -8353 0
-8473 -8593 0
-8593 -8473 0
-8593 -7993 0
-7994 -8594 0
-7994 -8114 0
-8114 -7994 0
-8114 -8234 0
-8234 -8114 0
-8234 -8354 0
-8354 -8234 0
-8354 -8474 0
-8474 -8354 0
-8474 -8594 0
-8594 -8474 0
-8594 -7994 0
-7995 -8595 0
-7995 -8115 0
-8115 -7995 0
-8115 -8235 0
-8235 -8115 0
-8235 -8355 0
-8355 -8235 0
-8355 -8475 0
-8475 -8355 0
-8475 -8595 0
-8595 -8475 0
-8595 -7995 0
-7996 -8596 0
-7996 -8116 0
-8116 -7996 0
-8116 -8236 0
-8236 -8116 0
-8236 -8356 0
-8356 -8236 0
-8356 -8476 0
-8476 -8356 0
-8476 -8596 0
-8596 -8476 0
-8596 -7996 0
-7997 -8597 0
-7997 -8117 0
-8117 -7997 0
-8117 -8237 0
-8237 -8117 0
-8237 -8357 0
-8357 -8237 0
-8357 -8477 0
-8477 -8357 0
-8477 -8597 0
-8597 -8477 0
-8597 -7997 0
-7998 -8598 0
-7998 -8118 0
-8118 -7998 0
-8118 -8238 0
-8238 -8118 0
-8238 -8358 0
-8358 -8238 0
-8358 -8478 0
-8478 -8358 0
-8478 -8598 0
-8598 -8478 0
-8598 -7998 0
-7999 -8599 0
-7999 -8119 0
-8119 -7999 0
-8119 -8239 0
-8239 -8119 0
-8239 -8359 0
-8359 -8239 0
-8359 -8479 0
-8479 -8359 0
-8479 -8599 0
-8599 -8479 0
-8599 -7999 0
-8000 -8600 0
-8000 -8120 0
-8120 -8000 0
-8120 -8240 0
-8240 -8120 0
-8240 -8360 0
-8360 -8240 0
-8360 -8480 0
-8480 -8360 0
-8480 -8600 0
-8600 -8480 0
-8600 -8000 0
-8001 -8601 0
-8001 -8121 0
-8121 -8001 0
-8121 -8241 0
-8241 -8121 0
-8241 -8361 0
-8361 -8241 0
-8361 -8481 0
-8481 -8361 0
-8481 -8601 0
-8601 -8481 0
-8601 -8001 0
-8002 -8602 0
-8002 -8122 0
-8122 -8002 0
-8122 -8242 0
-8242 -8122 0
-8242 -8362 0
-8362 -8242 0
-8362 -8482 0
-8482 -8362 0
-8482 -8602 0
-8602 -8482 0
-8602 -8002 0
-8003 -8603 0
-8003 -8123 0
-8123 -8003 0
-8123 -8243 0
-8243 -8123 0
-8243 -8363 0
-8363 -8243 0
-8363 -8483 0
-8483 -8363 0
-8483 -8603 0
-8603 -8483 0
-8603 -8003 0
-8004 -8604 0
-8004 -8124 0
-8124 -8004 0
-8124 -8244 0
-8244 -8124 0
-8244 -8364 0
-8364 -8244 0
-8364 -8484 0
-8484 -8364 0
-8484 -8604 0
-8604 -8484 0
-8604 -8004 0
-8005 -8605 0
-8005 -8125 0
-8125 -8005 0
-8125 -8245 0
-8245 -8125 0
-8245 -8365 0
-8365 -8245 0
-8365 -8485 0
-8485 -8365 0
-8485 -8605 0
-8605 -8485 0
-8605 -8005 0
-8006 -8606 0
-8006 -8126 0
-8126 -8006 0
-8126 -8246 0
-8246 -8126 0
-8246 -8366 0
-8366 -8246 0
-8366 -8486 0
-8486 -8366 0
-8486 -8606 0
-8606 -8486 0
-8606 -8006 0
-8007 -8607 0
-8007 -8127 0
-8127 -8007 0
-8127 -8247 0
-8247 -8127 0
-8247 -8367 0
-8367 -8247 0
-8367 -8487 0
-8487 -8367 0
-8487 -8607 0
-8607 -8487 0
-8607 -8007 0
-8008 -8608 0
-8008 -8128 0
-8128 -8008 0
-8128 -8248 0
-8248 -8128 0
-8248 -8368 0
-8368 -8248 0
-8368 -8488 0
-8488 -8368 0
-8488 -8608 0
-8608 -8488 0
-8608 -8008 0
-8009 -8609 0
-8009 -8129 0
-8129 -8009 0
-8129 -8249 0
-8249 -8129 0
-8249 -8369 0
-8369 -8249 0
-8369 -8489 0
-8489 -8369 0
-8489 -8609 0
-8609 -8489 0
-8609 -8009 0
-8010 -8610 0
-8010 -8130 0
-8130 -8010 0
-8130 -8250 0
-8250 -8130 0
-8250 -8370 0
-8370 -8250 0
-8370 -8490 0
-8490 -8370 0
-8490 -8610 0
-8610 -8490 0
-8610 -8010 0
-8011 -8611 0
-8011 -8131 0
-8131 -8011 0
-8131 -8251 0
-8251 -8131 0
-8251 -8371 0
-8371 -8251 0
-8371 -8491 0
-8491 -8371 0
-8491 -8611 0
-8611 -8491 0
-8611 -8011 0
-8012 -8612 0
-8012 -8132 0
-8132 -8012 0
-8132 -8252 0
-8252 -8132 0
-8252 -8372 0
-8372 -8252 0
-8372 -8492 0
-8492 -8372 0
-8492 -8612 0
-8612 -8492 0
-8612 -8012 0
-8013 -8613 0
-8013 -8133 0
-8133 -8013 0
-8133 -8253 0
-8253 -8133 0
-8253 -8373 0
-8373 -8253 0
-8373 -8493 0
-8493 -8373 0
-8493 -8613 0
-8613 -8493 0
-8613 -8013 0
-8014 -8614 0
-8014 -8134 0
-8134 -8014 0
-8134 -8254 0
-8254 -8134 0
-8254 -8374 0
-8374 -8254 0
-8374 -8494 0
-8494 -8374 0
-8494 -8614 0
-8614 -8494 0
-8614 -8014 0
-8015 -8615 0
-8015 -8135 0
-8135 -8015 0
-8135 -8255 0
-8255 -8135 0
-8255 -8375 0
-8375 -8255 0
-8375 -8495 0
-8495 -8375 0
-8495 -8615 0
-8615 -8495 0
-8615 -8015 0
-8016 -8616 0
-8016 -8136 0
-8136 -8016 0
-8136 -8256 0
-8256 -8136 0
-8256 -8376 0
-8376 -8256 0
-8376 -8496 0
-8496 -8376 0
-8496 -8616 0
-8616 -8496 0
-8616 -8016 0
-8017 -8617 0
-8017 -8137 0
-8137 -8017 0
-8137 -8257 0
-8257 -8137 0
-8257 -8377 0
-8377 -8257 0
-8377 -8497 0
-8497 -8377 0
-8497 -8617 0
-8617 -8497 0
-8617 -8017 0
-8018 -8618 0
-8018 -8138 0
-8138 -8018 0
-8138 -8258 0
-8258 -8138 0
-8258 -8378 0
-8378 -8258 0
-8378 -8498 0
-8498 -8378 0
-8498 -8618 0
-8618 -8498 0
-8618 -8018 0
-8019 -8619 0
-8019 -8139 0
-8139 -8019 0
-8139 -8259 0
-8259 -8139 0
-8259 -8379 0
-8379 -8259 0
-8379 -8499 0
-8499 -8379 0
-8499 -8619 0
-8619 -8499 0
-8619 -8019 0
-8020 -8620 0
-8020 -8140 0
-8140 -8020 0
-8140 -8260 0
-8260 -8140 0
-8260 -8380 0
-8380 -8260 0
-8380 -8500 0
-8500 -8380 0
-8500 -8620 0
-8620 -8500 0
-8620 -8020 0
-8021 -8621 0
-8021 -8141 0
-8141 -8021 0
-8141 -8261 0
-8261 -8141 0
-8261 -8381 0
-8381 -8261 0
-8381 -8501 0
-8501 -8381 0
-8501 -8621 0
-8621 -8501 0
-8621 -8021 0
-8022 -8622 0
-8022 -8142 0
-8142 -8022 0
-8142 -8262 0
-8262 -8142 0
-8262 -8382 0
-8382 -8262 0
-8382 -8502 0
-8502 -8382 0
-8502 -8622 0
-8622 -8502 0
-8622 -8022 0
-8023 -8623 0
-8023 -8143 0
-8143 -8023 0
-8143 -8263 0
-8263 -8143 0
-8263 -8383 0
-8383 -8263 0
-8383 -8503 0
-8503 -8383 0
-8503 -8623 0
-8623 -8503 0
-8623 -8023 0
-8024 -8624 0
-8024 -8144 0
-8144 -8024 0
-8144 -8264 0
-8264 -8144 0
-8264 -8384 0
-8384 -8264 0
-8384 -8504 0
-8504 -8384 0
-8504 -8624 0
-8624 -8504 0
-8624 -8024 0
-8025 -8625 0
-8025 -8145 0
-8145 -8025 0
-8145 -8265 0
-8265 -8145 0
-8265 -8385 0
-8385 -8265 0
-8385 -8505 0
-8505 -8385 0
-8505 -8625 0
-8625 -8505 0
-8625 -8025 0
-8026 -8626 0
-8026 -8146 0
-8146 -8026 0
-8146 -8266 0
-8266 -8146 0
-8266 -8386 0
-8386 -8266 0
-8386 -8506 0
-8506 -8386 0
-8506 -8626 0
-8626 -8506 0
-8626 -8026 0
-8027 -8627 0
-8027 -8147 0
-8147 -8027 0
-8147 -8267 0
-8267 -8147 0
-8267 -8387 0
-8387 -8267 0
-8387 -8507 0
-8507 -8387 0
-8507 -8627 0
-8627 -8507 0
-8627 -8027 0
-8028 -8628 0
-8028 -8148 0
-8148 -8028 0
-8148 -8268 0
-8268 -8148 0
-8268 -8388 0
-8388 -8268 0
-8388 -8508 0
-8508 -8388 0
-8508 -8628 0
-8628 -8508 0
-8628 -8028 0
-8029 -8629 0
-8029 -8149 0
-8149 -8029 0
-8149 -8269 0
-8269 -8149 0
-8269 -8389 0
-8389 -8269 0
-8389 -8509 0
-8509 -8389 0
-8509 -8629 0
-8629 -8509 0
-8629 -8029 0
-8030 -8630 0
-8030 -8150 0
-8150 -8030 0
-8150 -8270 0
-8270 -8150 0
-8270 -8390 0
-8390 -8270 0
-8390 -8510 0
-8510 -8390 0
-8510 -8630 0
-8630 -8510 0
-8630 -8030 0
-8031 -8631 0
-8031 -8151 0
-8151 -8031 0
-8151 -8271 0
-8271 -8151 0
-8271 -8391 0
-8391 -8271 0
-8391 -8511 0
-8511 -8391 0
-8511 -8631 0
-8631 -8511 0
-8631 -8031 0
-8032 -8632 0
-8032 -8152 0
-8152 -8032 0
-8152 -8272 0
-8272 -8152 0
-8272 -8392 0
-8392 -8272 0
-8392 -8512 0
-8512 -8392 0
-8512 -8632 0
-8632 -8512 0
-8632 -8032 0
-8033 -8633 0
-8033 -8153 0
-8153 -8033 0
-8153 -8273 0
-8273 -8153 0
-8273 -8393 0
-8393 -8273 0
-8393 -8513 0
-8513 -8393 0
-8513 -8633 0
-8633 -8513 0
-8633 -8033 0
-8034 -8634 0
-8034 -8154 0
-8154 -8034 0
-8154 -8274 0
-8274 -8154 0
-8274 -8394 0
-8394 -8274 0
-8394 -8514 0
-8514 -8394 0
-8514 -8634 0
-8634 -8514 0
-8634 -8034 0
-8035 -8635 0
-8035 -8155 0
-8155 -8035 0
-8155 -8275 0
-8275 -8155 0
-8275 -8395 0
-8395 -8275 0
-8395 -8515 0
-8515 -8395 0
-8515 -8635 0
-8635 -8515 0
-8635 -8035 0
-8036 -8636 0
-8036 -8156 0
-8156 -8036 0
-8156 -8276 0
-8276 -8156 0
-8276 -8396 0
-8396 -8276 0
-8396 -8516 0
-8516 -8396 0
-8516 -8636 0
-8636 -8516 0
-8636 -8036 0
-8037 -8637 0
-8037 -8157 0
-8157 -8037 0
-8157 -8277 0
-8277 -8157 0
-8277 -8397 0
-8397 -8277 0
-8397 -8517 0
-8517 -8397 0
-8517 -8637 0
-8637 -8517 0
-8637 -8037 0
-8038 -8638 0
-8038 -8158 0
-8158 -8038 0
-8158 -8278 0
-8278 -8158 0
-8278 -8398 0
-8398 -8278 0
-8398 -8518 0
-8518 -8398 0
-8518 -8638 0
-8638 -8518 0
-8638 -8038 0
-8039 -8639 0
-8039 -8159 0
-8159 -8039 0
-8159 -8279 0
-8279 -8159 0
-8279 -8399 0
-8399 -8279 0
-8399 -8519 0
-8519 -8399 0
-8519 -8639 0
-8639 -8519 0
-8639 -8039 0
