p cnf 3300 8917
1981 -1 2 0
1981 1 -2 0
1981 -181 182 0
1981 181 -182 0
2041 -61 62 0
2041 61 -62 0
2041 -241 242 0
2041 241 -242 0
2101 -121 122 0
2101 121 -122 0
2101 -301 302 0
2101 301 -302 0
-1 -1441 -2 0
1 -1441 2 0
-1501 -242 0
-61 -1501 62 0
61 -1501 -62 0
-1681 242 0
-61 -1681 -62 0
61 -1681 62 0
-121 -1741 -122 0
121 -1741 122 0
1982 -2 3 0
1982 2 -3 0
1982 -182 183 0
1982 182 -183 0
2042 -62 63 0
2042 62 -63 0
2042 -242 243 0
2042 242 -243 0
2102 -122 123 0
2102 122 -123 0
2102 -302 303 0
2102 302 -303 0
-2 -1442 -3 0
2 -1442 3 0
-1502 -243 0
-62 -1502 63 0
62 -1502 -63 0
-1682 243 0
-62 -1682 -63 0
62 -1682 63 0
-122 -1742 -123 0
122 -1742 123 0
1983 -3 4 0
1983 3 -4 0
1983 -183 184 0
1983 183 -184 0
2043 -63 64 0
2043 63 -64 0
2043 -243 244 0
2043 243 -244 0
2103 -123 124 0
2103 123 -124 0
2103 -303 304 0
2103 303 -304 0
-3 -1443 -4 0
3 -1443 4 0
-1503 -244 0
-63 -1503 64 0
63 -1503 -64 0
-1683 244 0
-63 -1683 -64 0
63 -1683 64 0
-123 -1743 -124 0
123 -1743 124 0
1984 -4 5 0
1984 4 -5 0
1984 -184 185 0
1984 184 -185 0
2044 -64 65 0
2044 64 -65 0
2044 -244 245 0
2044 244 -245 0
2104 -124 125 0
2104 124 -125 0
2104 -304 305 0
2104 304 -305 0
-4 -1444 -5 0
4 -1444 5 0
-1504 -245 0
-64 -1504 65 0
64 -1504 -65 0
-1684 245 0
-64 -1684 -65 0
64 -1684 65 0
-124 -1744 -125 0
124 -1744 125 0
1985 -5 6 0
1985 5 -6 0
1985 -185 186 0
1985 185 -186 0
2045 -65 66 0
2045 65 -66 0
2045 -245 246 0
2045 245 -246 0
2105 -125 126 0
2105 125 -126 0
2105 -305 306 0
2105 305 -306 0
-5 -1445 -6 0
5 -1445 6 0
-1505 -246 0
-65 -1505 66 0
65 -1505 -66 0
-1685 246 0
-65 -1685 -66 0
65 -1685 66 0
-125 -1745 -126 0
125 -1745 126 0
1986 -6 7 0
1986 6 -7 0
1986 -186 187 0
1986 186 -187 0
2046 -66 67 0
2046 66 -67 0
2046 -246 247 0
2046 246 -247 0
2106 -126 127 0
2106 126 -127 0
2106 -306 307 0
2106 306 -307 0
-6 -1446 -7 0
6 -1446 7 0
-1506 -247 0
-66 -1506 67 0
66 -1506 -67 0
-1686 247 0
-66 -1686 -67 0
66 -1686 67 0
-126 -1746 -127 0
126 -1746 127 0
1987 -7 8 0
1987 7 -8 0
1987 -187 188 0
1987 187 -188 0
2047 -67 68 0
2047 67 -68 0
2047 -247 248 0
2047 247 -248 0
2107 -127 128 0
2107 127 -128 0
2107 -307 308 0
2107 307 -308 0
-7 -1447 -8 0
7 -1447 8 0
-1507 -248 0
-67 -1507 68 0
67 -1507 -68 0
-1687 248 0
-67 -1687 -68 0
67 -1687 68 0
-127 -1747 -128 0
127 -1747 128 0
1988 -8 9 0
1988 8 -9 0
1988 -188 189 0
1988 188 -189 0
2048 -68 69 0
2048 68 -69 0
2048 -248 249 0
2048 248 -249 0
2108 -128 129 0
2108 128 -129 0
2108 -308 309 0
2108 308 -309 0
-8 -1448 -9 0
8 -1448 9 0
-1508 -249 0
-68 -1508 69 0
68 -1508 -69 0
-1688 249 0
-68 -1688 -69 0
68 -1688 69 0
-128 -1748 -129 0
128 -1748 129 0
1989 -9 10 0
1989 9 -10 0
1989 -189 190 0
1989 189 -190 0
2049 -69 70 0
2049 69 -70 0
2049 -249 250 0
2049 249 -250 0
2109 -129 130 0
2109 129 -130 0
2109 -309 310 0
2109 309 -310 0
-9 -1449 -10 0
9 -1449 10 0
-1509 -250 0
-69 -1509 70 0
69 -1509 -70 0
-1689 250 0
-69 -1689 -70 0
69 -1689 70 0
-129 -1749 -130 0
129 -1749 130 0
1990 -10 11 0
1990 10 -11 0
1990 -190 191 0
1990 190 -191 0
2050 -70 71 0
2050 70 -71 0
2050 -250 251 0
2050 250 -251 0
2110 -130 131 0
2110 130 -131 0
2110 -310 311 0
2110 310 -311 0
-10 -1450 -11 0
10 -1450 11 0
-1510 -251 0
-70 -1510 71 0
70 -1510 -71 0
-1690 251 0
-70 -1690 -71 0
70 -1690 71 0
-130 -1750 -131 0
130 -1750 131 0
1991 -11 12 0
1991 11 -12 0
1991 -191 192 0
1991 191 -192 0
2051 -71 72 0
2051 71 -72 0
2051 -251 252 0
2051 251 -252 0
2111 -131 132 0
2111 131 -132 0
2111 -311 312 0
2111 311 -312 0
-11 -1451 -12 0
11 -1451 12 0
-1511 -252 0
-71 -1511 72 0
71 -1511 -72 0
-1691 252 0
-71 -1691 -72 0
71 -1691 72 0
-131 -1751 -132 0
131 -1751 132 0
1992 -12 13 0
1992 12 -13 0
1992 -192 193 0
1992 192 -193 0
2052 -72 73 0
2052 72 -73 0
2052 -252 253 0
2052 252 -253 0
2112 -132 133 0
2112 132 -133 0
2112 -312 313 0
2112 312 -313 0
-12 -1452 -13 0
12 -1452 13 0
-1512 -253 0
-72 -1512 73 0
72 -1512 -73 0
-1692 253 0
-72 -1692 -73 0
72 -1692 73 0
-132 -1752 -133 0
132 -1752 133 0
1993 -13 14 0
1993 13 -14 0
1993 -193 194 0
1993 193 -194 0
2053 -73 74 0
2053 73 -74 0
2053 -253 254 0
2053 253 -254 0
2113 -133 134 0
2113 133 -134 0
2113 -313 314 0
2113 313 -314 0
-13 -1453 -14 0
13 -1453 14 0
-1513 -254 0
-73 -1513 74 0
73 -1513 -74 0
-1693 254 0
-73 -1693 -74 0
73 -1693 74 0
-133 -1753 -134 0
133 -1753 134 0
1994 -14 15 0
1994 14 -15 0
1994 -194 195 0
1994 194 -195 0
2054 -74 75 0
2054 74 -75 0
2054 -254 255 0
2054 254 -255 0
2114 -134 135 0
2114 134 -135 0
2114 -314 315 0
2114 314 -315 0
-14 -1454 -15 0
14 -1454 15 0
-1514 -255 0
-74 -1514 75 0
74 -1514 -75 0
-1694 255 0
-74 -1694 -75 0
74 -1694 75 0
-134 -1754 -135 0
134 -1754 135 0
1995 -15 16 0
1995 15 -16 0
1995 -195 196 0
1995 195 -196 0
2055 -75 76 0
2055 75 -76 0
2055 -255 256 0
2055 255 -256 0
2115 -135 136 0
2115 135 -136 0
2115 -315 316 0
2115 315 -316 0
-15 -1455 -16 0
15 -1455 16 0
-1515 -256 0
-75 -1515 76 0
75 -1515 -76 0
-1695 256 0
-75 -1695 -76 0
75 -1695 76 0
-135 -1755 -136 0
135 -1755 136 0
1996 -16 17 0
1996 16 -17 0
1996 -196 197 0
1996 196 -197 0
2056 -76 77 0
2056 76 -77 0
2056 -256 257 0
2056 256 -257 0
2116 -136 137 0
2116 136 -137 0
2116 -316 317 0
2116 316 -317 0
-16 -1456 -17 0
16 -1456 17 0
-1516 -257 0
-76 -1516 77 0
76 -1516 -77 0
-1696 257 0
-76 -1696 -77 0
76 -1696 77 0
-136 -1756 -137 0
136 -1756 137 0
1997 -17 18 0
1997 17 -18 0
1997 -197 198 0
1997 197 -198 0
2057 -77 78 0
2057 77 -78 0
2057 -257 258 0
2057 257 -258 0
2117 -137 138 0
2117 137 -138 0
2117 -317 318 0
2117 317 -318 0
-17 -1457 -18 0
17 -1457 18 0
-1517 -258 0
-77 -1517 78 0
77 -1517 -78 0
-1697 258 0
-77 -1697 -78 0
77 -1697 78 0
-137 -1757 -138 0
137 -1757 138 0
1998 -18 19 0
1998 18 -19 0
1998 -198 199 0
1998 198 -199 0
2058 -78 79 0
2058 78 -79 0
2058 -258 259 0
2058 258 -259 0
2118 -138 139 0
2118 138 -139 0
2118 -318 319 0
2118 318 -319 0
-18 -1458 -19 0
18 -1458 19 0
-1518 -259 0
-78 -1518 79 0
78 -1518 -79 0
-1698 259 0
-78 -1698 -79 0
78 -1698 79 0
-138 -1758 -139 0
138 -1758 139 0
1999 -19 20 0
1999 19 -20 0
1999 -199 200 0
1999 199 -200 0
2059 -79 80 0
2059 79 -80 0
2059 -259 260 0
2059 259 -260 0
2119 -139 140 0
2119 139 -140 0
2119 -319 320 0
2119 319 -320 0
-19 -1459 -20 0
19 -1459 20 0
-1519 -260 0
-79 -1519 80 0
79 -1519 -80 0
-1699 260 0
-79 -1699 -80 0
79 -1699 80 0
-139 -1759 -140 0
139 -1759 140 0
2000 -20 21 0
2000 20 -21 0
2000 -200 201 0
2000 200 -201 0
2060 -80 81 0
2060 80 -81 0
2060 -260 261 0
2060 260 -261 0
2120 -140 141 0
2120 140 -141 0
2120 -320 321 0
2120 320 -321 0
-20 -1460 -21 0
20 -1460 21 0
-1520 -261 0
-80 -1520 81 0
80 -1520 -81 0
-1700 261 0
-80 -1700 -81 0
80 -1700 81 0
-140 -1760 -141 0
140 -1760 141 0
2001 -21 22 0
2001 21 -22 0
2001 -201 202 0
2001 201 -202 0
2061 -81 82 0
2061 81 -82 0
2061 -261 262 0
2061 261 -262 0
2121 -141 142 0
2121 141 -142 0
2121 -321 322 0
2121 321 -322 0
-21 -1461 -22 0
21 -1461 22 0
-1521 -262 0
-81 -1521 82 0
81 -1521 -82 0
-1701 262 0
-81 -1701 -82 0
81 -1701 82 0
-141 -1761 -142 0
141 -1761 142 0
2002 -22 23 0
2002 22 -23 0
2002 -202 203 0
2002 202 -203 0
2062 -82 83 0
2062 82 -83 0
2062 -262 263 0
2062 262 -263 0
2122 -142 143 0
2122 142 -143 0
2122 -322 323 0
2122 322 -323 0
-22 -1462 -23 0
22 -1462 23 0
-1522 -263 0
-82 -1522 83 0
82 -1522 -83 0
-1702 263 0
-82 -1702 -83 0
82 -1702 83 0
-142 -1762 -143 0
142 -1762 143 0
2003 -23 24 0
2003 23 -24 0
2003 -203 204 0
2003 203 -204 0
2063 -83 84 0
2063 83 -84 0
2063 -263 264 0
2063 263 -264 0
2123 -143 144 0
2123 143 -144 0
2123 -323 324 0
2123 323 -324 0
-23 -1463 -24 0
23 -1463 24 0
-1523 -264 0
-83 -1523 84 0
83 -1523 -84 0
-1703 264 0
-83 -1703 -84 0
83 -1703 84 0
-143 -1763 -144 0
143 -1763 144 0
2004 -24 25 0
2004 24 -25 0
2004 -204 205 0
2004 204 -205 0
2064 -84 85 0
2064 84 -85 0
2064 -264 265 0
2064 264 -265 0
2124 -144 145 0
2124 144 -145 0
2124 -324 325 0
2124 324 -325 0
-24 -1464 -25 0
24 -1464 25 0
-1524 -265 0
-84 -1524 85 0
84 -1524 -85 0
-1704 265 0
-84 -1704 -85 0
84 -1704 85 0
-144 -1764 -145 0
144 -1764 145 0
2005 -25 26 0
2005 25 -26 0
2005 -205 206 0
2005 205 -206 0
2065 -85 86 0
2065 85 -86 0
2065 -265 266 0
2065 265 -266 0
2125 -145 146 0
2125 145 -146 0
2125 -325 326 0
2125 325 -326 0
-25 -1465 -26 0
25 -1465 26 0
-1525 -266 0
-85 -1525 86 0
85 -1525 -86 0
-1705 266 0
-85 -1705 -86 0
85 -1705 86 0
-145 -1765 -146 0
145 -1765 146 0
2006 -26 27 0
2006 26 -27 0
2006 -206 207 0
2006 206 -207 0
2066 -86 87 0
2066 86 -87 0
2066 -266 267 0
2066 266 -267 0
2126 -146 147 0
2126 146 -147 0
2126 -326 327 0
2126 326 -327 0
-26 -1466 -27 0
26 -1466 27 0
-1526 -267 0
-86 -1526 87 0
86 -1526 -87 0
-1706 267 0
-86 -1706 -87 0
86 -1706 87 0
-146 -1766 -147 0
146 -1766 147 0
2007 -27 28 0
2007 27 -28 0
2007 -207 208 0
2007 207 -208 0
2067 -87 88 0
2067 87 -88 0
2067 -267 268 0
2067 267 -268 0
2127 -147 148 0
2127 147 -148 0
2127 -327 328 0
2127 327 -328 0
-27 -1467 -28 0
27 -1467 28 0
-1527 -268 0
-87 -1527 88 0
87 -1527 -88 0
-1707 268 0
-87 -1707 -88 0
87 -1707 88 0
-147 -1767 -148 0
147 -1767 148 0
2008 -28 29 0
2008 28 -29 0
2008 -208 209 0
2008 208 -209 0
2068 -88 89 0
2068 88 -89 0
2068 -268 269 0
2068 268 -269 0
2128 -148 149 0
2128 148 -149 0
2128 -328 329 0
2128 328 -329 0
-28 -1468 -29 0
28 -1468 29 0
-1528 -269 0
-88 -1528 89 0
88 -1528 -89 0
-1708 269 0
-88 -1708 -89 0
88 -1708 89 0
-148 -1768 -149 0
148 -1768 149 0
2009 -29 30 0
2009 29 -30 0
2009 -209 210 0
2009 209 -210 0
2069 -89 90 0
2069 89 -90 0
2069 -269 270 0
2069 269 -270 0
2129 -149 150 0
2129 149 -150 0
2129 -329 330 0
2129 329 -330 0
-29 -1469 -30 0
29 -1469 30 0
-1529 -270 0
-89 -1529 90 0
89 -1529 -90 0
-1709 270 0
-89 -1709 -90 0
89 -1709 90 0
-149 -1769 -150 0
149 -1769 150 0
2010 -30 31 0
2010 30 -31 0
2010 -210 211 0
2010 210 -211 0
2070 -90 91 0
2070 90 -91 0
2070 -270 271 0
2070 270 -271 0
2130 -150 151 0
2130 150 -151 0
2130 -330 331 0
2130 330 -331 0
-30 -1470 -31 0
30 -1470 31 0
-1530 -271 0
-90 -1530 91 0
90 -1530 -91 0
-1710 271 0
-90 -1710 -91 0
90 -1710 91 0
-150 -1770 -151 0
150 -1770 151 0
2011 -31 32 0
2011 31 -32 0
2011 -211 212 0
2011 211 -212 0
2071 -91 92 0
2071 91 -92 0
2071 -271 272 0
2071 271 -272 0
2131 -151 152 0
2131 151 -152 0
2131 -331 332 0
2131 331 -332 0
-31 -1471 -32 0
31 -1471 32 0
-1531 -272 0
-91 -1531 92 0
91 -1531 -92 0
-1711 272 0
-91 -1711 -92 0
91 -1711 92 0
-151 -1771 -152 0
151 -1771 152 0
2012 -32 33 0
2012 32 -33 0
2012 -212 213 0
2012 212 -213 0
2072 -92 93 0
2072 92 -93 0
2072 -272 273 0
2072 272 -273 0
2132 -152 153 0
2132 152 -153 0
2132 -332 333 0
2132 332 -333 0
-32 -1472 -33 0
32 -1472 33 0
-1532 -273 0
-92 -1532 93 0
92 -1532 -93 0
-1712 273 0
-92 -1712 -93 0
92 -1712 93 0
-152 -1772 -153 0
152 -1772 153 0
2013 -33 34 0
2013 33 -34 0
2013 -213 214 0
2013 213 -214 0
2073 -93 94 0
2073 93 -94 0
2073 -273 274 0
2073 273 -274 0
2133 -153 154 0
2133 153 -154 0
2133 -333 334 0
2133 333 -334 0
-33 -1473 -34 0
33 -1473 34 0
-1533 -274 0
-93 -1533 94 0
93 -1533 -94 0
-1713 274 0
-93 -1713 -94 0
93 -1713 94 0
-153 -1773 -154 0
153 -1773 154 0
2014 -34 35 0
2014 34 -35 0
2014 -214 215 0
2014 214 -215 0
2074 -94 95 0
2074 94 -95 0
2074 -274 275 0
2074 274 -275 0
2134 -154 155 0
2134 154 -155 0
2134 -334 335 0
2134 334 -335 0
-34 -1474 -35 0
34 -1474 35 0
-1534 -275 0
-94 -1534 95 0
94 -1534 -95 0
-1714 275 0
-94 -1714 -95 0
94 -1714 95 0
-154 -1774 -155 0
154 -1774 155 0
2015 -35 36 0
2015 35 -36 0
2015 -215 216 0
2015 215 -216 0
2075 -95 96 0
2075 95 -96 0
2075 -275 276 0
2075 275 -276 0
2135 -155 156 0
2135 155 -156 0
2135 -335 336 0
2135 335 -336 0
-35 -1475 -36 0
35 -1475 36 0
-1535 -276 0
-95 -1535 96 0
95 -1535 -96 0
-1715 276 0
-95 -1715 -96 0
95 -1715 96 0
-155 -1775 -156 0
155 -1775 156 0
2016 -36 37 0
2016 36 -37 0
2016 -216 217 0
2016 216 -217 0
2076 -96 97 0
2076 96 -97 0
2076 -276 277 0
2076 276 -277 0
2136 -156 157 0
2136 156 -157 0
2136 -336 337 0
2136 336 -337 0
-36 -1476 -37 0
36 -1476 37 0
-1536 -277 0
-96 -1536 97 0
96 -1536 -97 0
-1716 277 0
-96 -1716 -97 0
96 -1716 97 0
-156 -1776 -157 0
156 -1776 157 0
2017 -37 38 0
2017 37 -38 0
2017 -217 218 0
2017 217 -218 0
2077 -97 98 0
2077 97 -98 0
2077 -277 278 0
2077 277 -278 0
2137 -157 158 0
2137 157 -158 0
2137 -337 338 0
2137 337 -338 0
-37 -1477 -38 0
37 -1477 38 0
-1537 -278 0
-97 -1537 98 0
97 -1537 -98 0
-1717 278 0
-97 -1717 -98 0
97 -1717 98 0
-157 -1777 -158 0
157 -1777 158 0
2018 -38 39 0
2018 38 -39 0
2018 -218 219 0
2018 218 -219 0
2078 -98 99 0
2078 98 -99 0
2078 -278 279 0
2078 278 -279 0
2138 -158 159 0
2138 158 -159 0
2138 -338 339 0
2138 338 -339 0
-38 -1478 -39 0
38 -1478 39 0
-1538 -279 0
-98 -1538 99 0
98 -1538 -99 0
-1718 279 0
-98 -1718 -99 0
98 -1718 99 0
-158 -1778 -159 0
158 -1778 159 0
2019 -39 40 0
2019 39 -40 0
2019 -219 220 0
2019 219 -220 0
2079 -99 100 0
2079 99 -100 0
2079 -279 280 0
2079 279 -280 0
2139 -159 160 0
2139 159 -160 0
2139 -339 340 0
2139 339 -340 0
-39 -1479 -40 0
39 -1479 40 0
-1539 -280 0
-99 -1539 100 0
99 -1539 -100 0
-1719 280 0
-99 -1719 -100 0
99 -1719 100 0
-159 -1779 -160 0
159 -1779 160 0
2020 -40 41 0
2020 40 -41 0
2020 -220 221 0
2020 220 -221 0
2080 -100 101 0
2080 100 -101 0
2080 -280 281 0
2080 280 -281 0
2140 -160 161 0
2140 160 -161 0
2140 -340 341 0
2140 340 -341 0
-40 -1480 -41 0
40 -1480 41 0
-1540 -281 0
-100 -1540 101 0
100 -1540 -101 0
-1720 281 0
-100 -1720 -101 0
100 -1720 101 0
-160 -1780 -161 0
160 -1780 161 0
2021 -41 42 0
2021 41 -42 0
2021 -221 222 0
2021 221 -222 0
2081 -101 102 0
2081 101 -102 0
2081 -281 282 0
2081 281 -282 0
2141 -161 162 0
2141 161 -162 0
2141 -341 342 0
2141 341 -342 0
-41 -1481 -42 0
41 -1481 42 0
-1541 -282 0
-101 -1541 102 0
101 -1541 -102 0
-1721 282 0
-101 -1721 -102 0
101 -1721 102 0
-161 -1781 -162 0
161 -1781 162 0
2022 -42 43 0
2022 42 -43 0
2022 -222 223 0
2022 222 -223 0
2082 -102 103 0
2082 102 -103 0
2082 -282 283 0
2082 282 -283 0
2142 -162 163 0
2142 162 -163 0
2142 -342 343 0
2142 342 -343 0
-42 -1482 -43 0
42 -1482 43 0
-1542 -283 0
-102 -1542 103 0
102 -1542 -103 0
-1722 283 0
-102 -1722 -103 0
102 -1722 103 0
-162 -1782 -163 0
162 -1782 163 0
2023 -43 44 0
2023 43 -44 0
2023 -223 224 0
2023 223 -224 0
2083 -103 104 0
2083 103 -104 0
2083 -283 284 0
2083 283 -284 0
2143 -163 164 0
2143 163 -164 0
2143 -343 344 0
2143 343 -344 0
-43 -1483 -44 0
43 -1483 44 0
-1543 -284 0
-103 -1543 104 0
103 -1543 -104 0
-1723 284 0
-103 -1723 -104 0
103 -1723 104 0
-163 -1783 -164 0
163 -1783 164 0
2024 -44 45 0
2024 44 -45 0
2024 -224 225 0
2024 224 -225 0
2084 -104 105 0
2084 104 -105 0
2084 -284 285 0
2084 284 -285 0
2144 -164 165 0
2144 164 -165 0
2144 -344 345 0
2144 344 -345 0
-44 -1484 -45 0
44 -1484 45 0
-1544 -285 0
-104 -1544 105 0
104 -1544 -105 0
-1724 285 0
-104 -1724 -105 0
104 -1724 105 0
-164 -1784 -165 0
164 -1784 165 0
2025 -45 46 0
2025 45 -46 0
2025 -225 226 0
2025 225 -226 0
2085 -105 106 0
2085 105 -106 0
2085 -285 286 0
2085 285 -286 0
2145 -165 166 0
2145 165 -166 0
2145 -345 346 0
2145 345 -346 0
-45 -1485 -46 0
45 -1485 46 0
-1545 -286 0
-105 -1545 106 0
105 -1545 -106 0
-1725 286 0
-105 -1725 -106 0
105 -1725 106 0
-165 -1785 -166 0
165 -1785 166 0
2026 -46 47 0
2026 46 -47 0
2026 -226 227 0
2026 226 -227 0
2086 -106 107 0
2086 106 -107 0
2086 -286 287 0
2086 286 -287 0
2146 -166 167 0
2146 166 -167 0
2146 -346 347 0
2146 346 -347 0
-46 -1486 -47 0
46 -1486 47 0
-1546 -287 0
-106 -1546 107 0
106 -1546 -107 0
-1726 287 0
-106 -1726 -107 0
106 -1726 107 0
-166 -1786 -167 0
166 -1786 167 0
2027 -47 48 0
2027 47 -48 0
2027 -227 228 0
2027 227 -228 0
2087 -107 108 0
2087 107 -108 0
2087 -287 288 0
2087 287 -288 0
2147 -167 168 0
2147 167 -168 0
2147 -347 348 0
2147 347 -348 0
-47 -1487 -48 0
47 -1487 48 0
-1547 -288 0
-107 -1547 108 0
107 -1547 -108 0
-1727 288 0
-107 -1727 -108 0
107 -1727 108 0
-167 -1787 -168 0
167 -1787 168 0
2028 -48 49 0
2028 48 -49 0
2028 -228 229 0
2028 228 -229 0
2088 -108 109 0
2088 108 -109 0
2088 -288 289 0
2088 288 -289 0
2148 -168 169 0
2148 168 -169 0
2148 -348 349 0
2148 348 -349 0
-48 -1488 -49 0
48 -1488 49 0
-1548 -289 0
-108 -1548 109 0
108 -1548 -109 0
-1728 289 0
-108 -1728 -109 0
108 -1728 109 0
-168 -1788 -169 0
168 -1788 169 0
2029 -49 50 0
2029 49 -50 0
2029 -229 230 0
2029 229 -230 0
2089 -109 110 0
2089 109 -110 0
2089 -289 290 0
2089 289 -290 0
2149 -169 170 0
2149 169 -170 0
2149 -349 350 0
2149 349 -350 0
-49 -1489 -50 0
49 -1489 50 0
-1549 -290 0
-109 -1549 110 0
109 -1549 -110 0
-1729 290 0
-109 -1729 -110 0
109 -1729 110 0
-169 -1789 -170 0
169 -1789 170 0
2030 -50 51 0
2030 50 -51 0
2030 -230 231 0
2030 230 -231 0
2090 -110 111 0
2090 110 -111 0
2090 -290 291 0
2090 290 -291 0
2150 -170 171 0
2150 170 -171 0
2150 -350 351 0
2150 350 -351 0
-50 -1490 -51 0
50 -1490 51 0
-1550 -291 0
-110 -1550 111 0
110 -1550 -111 0
-1730 291 0
-110 -1730 -111 0
110 -1730 111 0
-170 -1790 -171 0
170 -1790 171 0
2031 -51 52 0
2031 51 -52 0
2031 -231 232 0
2031 231 -232 0
2091 -111 112 0
2091 111 -112 0
2091 -291 292 0
2091 291 -292 0
2151 -171 172 0
2151 171 -172 0
2151 -351 352 0
2151 351 -352 0
-51 -1491 -52 0
51 -1491 52 0
-1551 -292 0
-111 -1551 112 0
111 -1551 -112 0
-1731 292 0
-111 -1731 -112 0
111 -1731 112 0
-171 -1791 -172 0
171 -1791 172 0
2032 -52 53 0
2032 52 -53 0
2032 -232 233 0
2032 232 -233 0
2092 -112 113 0
2092 112 -113 0
2092 -292 293 0
2092 292 -293 0
2152 -172 173 0
2152 172 -173 0
2152 -352 353 0
2152 352 -353 0
-52 -1492 -53 0
52 -1492 53 0
-1552 -293 0
-112 -1552 113 0
112 -1552 -113 0
-1732 293 0
-112 -1732 -113 0
112 -1732 113 0
-172 -1792 -173 0
172 -1792 173 0
2033 -53 54 0
2033 53 -54 0
2033 -233 234 0
2033 233 -234 0
2093 -113 114 0
2093 113 -114 0
2093 -293 294 0
2093 293 -294 0
2153 -173 174 0
2153 173 -174 0
2153 -353 354 0
2153 353 -354 0
-53 -1493 -54 0
53 -1493 54 0
-1553 -294 0
-113 -1553 114 0
113 -1553 -114 0
-1733 294 0
-113 -1733 -114 0
113 -1733 114 0
-173 -1793 -174 0
173 -1793 174 0
2034 -54 55 0
2034 54 -55 0
2034 -234 235 0
2034 234 -235 0
2094 -114 115 0
2094 114 -115 0
2094 -294 295 0
2094 294 -295 0
2154 -174 175 0
2154 174 -175 0
2154 -354 355 0
2154 354 -355 0
-54 -1494 -55 0
54 -1494 55 0
-1554 -295 0
-114 -1554 115 0
114 -1554 -115 0
-1734 295 0
-114 -1734 -115 0
114 -1734 115 0
-174 -1794 -175 0
174 -1794 175 0
2035 -55 56 0
2035 55 -56 0
2035 -235 236 0
2035 235 -236 0
2095 -115 116 0
2095 115 -116 0
2095 -295 296 0
2095 295 -296 0
2155 -175 176 0
2155 175 -176 0
2155 -355 356 0
2155 355 -356 0
-55 -1495 -56 0
55 -1495 56 0
-1555 -296 0
-115 -1555 116 0
115 -1555 -116 0
-1735 296 0
-115 -1735 -116 0
115 -1735 116 0
-175 -1795 -176 0
175 -1795 176 0
2036 -56 57 0
2036 56 -57 0
2036 -236 237 0
2036 236 -237 0
2096 -116 117 0
2096 116 -117 0
2096 -296 297 0
2096 296 -297 0
2156 -176 177 0
2156 176 -177 0
2156 -356 357 0
2156 356 -357 0
-56 -1496 -57 0
56 -1496 57 0
-1556 -297 0
-116 -1556 117 0
116 -1556 -117 0
-1736 297 0
-116 -1736 -117 0
116 -1736 117 0
-176 -1796 -177 0
176 -1796 177 0
2037 -57 58 0
2037 57 -58 0
2037 -237 238 0
2037 237 -238 0
2097 -117 118 0
2097 117 -118 0
2097 -297 298 0
2097 297 -298 0
2157 -177 178 0
2157 177 -178 0
2157 -357 358 0
2157 357 -358 0
-57 -1497 -58 0
57 -1497 58 0
-1557 -298 0
-117 -1557 118 0
117 -1557 -118 0
-1737 298 0
-117 -1737 -118 0
117 -1737 118 0
-177 -1797 -178 0
177 -1797 178 0
2038 -58 59 0
2038 58 -59 0
2038 -238 239 0
2038 238 -239 0
2098 -118 119 0
2098 118 -119 0
2098 -298 299 0
2098 298 -299 0
2158 -178 179 0
2158 178 -179 0
2158 -358 359 0
2158 358 -359 0
-58 -1498 -59 0
58 -1498 59 0
-1558 -299 0
-118 -1558 119 0
118 -1558 -119 0
-1738 299 0
-118 -1738 -119 0
118 -1738 119 0
-178 -1798 -179 0
178 -1798 179 0
2039 -59 60 0
2039 59 -60 0
2039 -239 240 0
2039 239 -240 0
2099 -119 120 0
2099 119 -120 0
2099 -299 300 0
2099 299 -300 0
2159 -179 180 0
2159 179 -180 0
2159 -359 360 0
2159 359 -360 0
-59 -1499 -60 0
59 -1499 60 0
-1559 -300 0
-119 -1559 120 0
119 -1559 -120 0
-1739 300 0
-119 -1739 -120 0
119 -1739 120 0
-179 -1799 -180 0
179 -1799 180 0
181 0
-301 0
-361 541 0
-361 721 0
-361 181 0
-361 -241 0
361 -541 -721 -181 241 0
-1 61 -541 0
1 541 0
-61 541 0
1 -61 -721 0
-1 721 0
61 721 0
-421 601 0
-421 781 0
-421 241 0
-421 -301 0
421 -601 -781 -241 301 0
-61 121 -601 0
61 601 0
-121 601 0
61 -121 -781 0
-61 781 0
121 781 0
961 1141 0
961 1321 0
-961 -1141 -1321 0
-61 1 -1141 0
61 1141 0
-1 1141 0
61 -1 -1321 0
-61 1321 0
1 1321 0
1021 1201 0
1021 1381 0
-1021 -1201 -1381 0
-121 61 -1201 0
121 1201 0
-61 1201 0
121 -61 -1381 0
-121 1381 0
61 1381 0
182 0
-302 0
-362 542 0
-362 722 0
-362 182 0
-362 -242 0
362 -542 -722 -182 242 0
-2 62 -542 0
2 542 0
-62 542 0
2 -62 -722 0
-2 722 0
62 722 0
-422 602 0
-422 782 0
-422 242 0
-422 -302 0
422 -602 -782 -242 302 0
-62 122 -602 0
62 602 0
-122 602 0
62 -122 -782 0
-62 782 0
122 782 0
962 1142 0
962 1322 0
-962 -1142 -1322 0
-62 2 -1142 0
62 1142 0
-2 1142 0
62 -2 -1322 0
-62 1322 0
2 1322 0
1022 1202 0
1022 1382 0
-1022 -1202 -1382 0
-122 62 -1202 0
122 1202 0
-62 1202 0
122 -62 -1382 0
-122 1382 0
62 1382 0
183 0
-303 0
-363 543 0
-363 723 0
-363 183 0
-363 -243 0
363 -543 -723 -183 243 0
-3 63 -543 0
3 543 0
-63 543 0
3 -63 -723 0
-3 723 0
63 723 0
-423 603 0
-423 783 0
-423 243 0
-423 -303 0
423 -603 -783 -243 303 0
-63 123 -603 0
63 603 0
-123 603 0
63 -123 -783 0
-63 783 0
123 783 0
963 1143 0
963 1323 0
-963 -1143 -1323 0
-63 3 -1143 0
63 1143 0
-3 1143 0
63 -3 -1323 0
-63 1323 0
3 1323 0
1023 1203 0
1023 1383 0
-1023 -1203 -1383 0
-123 63 -1203 0
123 1203 0
-63 1203 0
123 -63 -1383 0
-123 1383 0
63 1383 0
184 0
-304 0
-364 544 0
-364 724 0
-364 184 0
-364 -244 0
364 -544 -724 -184 244 0
-4 64 -544 0
4 544 0
-64 544 0
4 -64 -724 0
-4 724 0
64 724 0
-424 604 0
-424 784 0
-424 244 0
-424 -304 0
424 -604 -784 -244 304 0
-64 124 -604 0
64 604 0
-124 604 0
64 -124 -784 0
-64 784 0
124 784 0
964 1144 0
964 1324 0
-964 -1144 -1324 0
-64 4 -1144 0
64 1144 0
-4 1144 0
64 -4 -1324 0
-64 1324 0
4 1324 0
1024 1204 0
1024 1384 0
-1024 -1204 -1384 0
-124 64 -1204 0
124 1204 0
-64 1204 0
124 -64 -1384 0
-124 1384 0
64 1384 0
185 0
-305 0
-365 545 0
-365 725 0
-365 185 0
-365 -245 0
365 -545 -725 -185 245 0
-5 65 -545 0
5 545 0
-65 545 0
5 -65 -725 0
-5 725 0
65 725 0
-425 605 0
-425 785 0
-425 245 0
-425 -305 0
425 -605 -785 -245 305 0
-65 125 -605 0
65 605 0
-125 605 0
65 -125 -785 0
-65 785 0
125 785 0
965 1145 0
965 1325 0
-965 -1145 -1325 0
-65 5 -1145 0
65 1145 0
-5 1145 0
65 -5 -1325 0
-65 1325 0
5 1325 0
1025 1205 0
1025 1385 0
-1025 -1205 -1385 0
-125 65 -1205 0
125 1205 0
-65 1205 0
125 -65 -1385 0
-125 1385 0
65 1385 0
186 0
-306 0
-366 546 0
-366 726 0
-366 186 0
-366 -246 0
366 -546 -726 -186 246 0
-6 66 -546 0
6 546 0
-66 546 0
6 -66 -726 0
-6 726 0
66 726 0
-426 606 0
-426 786 0
-426 246 0
-426 -306 0
426 -606 -786 -246 306 0
-66 126 -606 0
66 606 0
-126 606 0
66 -126 -786 0
-66 786 0
126 786 0
966 1146 0
966 1326 0
-966 -1146 -1326 0
-66 6 -1146 0
66 1146 0
-6 1146 0
66 -6 -1326 0
-66 1326 0
6 1326 0
1026 1206 0
1026 1386 0
-1026 -1206 -1386 0
-126 66 -1206 0
126 1206 0
-66 1206 0
126 -66 -1386 0
-126 1386 0
66 1386 0
187 0
-307 0
-367 547 0
-367 727 0
-367 187 0
-367 -247 0
367 -547 -727 -187 247 0
-7 67 -547 0
7 547 0
-67 547 0
7 -67 -727 0
-7 727 0
67 727 0
-427 607 0
-427 787 0
-427 247 0
-427 -307 0
427 -607 -787 -247 307 0
-67 127 -607 0
67 607 0
-127 607 0
67 -127 -787 0
-67 787 0
127 787 0
967 1147 0
967 1327 0
-967 -1147 -1327 0
-67 7 -1147 0
67 1147 0
-7 1147 0
67 -7 -1327 0
-67 1327 0
7 1327 0
1027 1207 0
1027 1387 0
-1027 -1207 -1387 0
-127 67 -1207 0
127 1207 0
-67 1207 0
127 -67 -1387 0
-127 1387 0
67 1387 0
188 0
-308 0
-368 548 0
-368 728 0
-368 188 0
-368 -248 0
368 -548 -728 -188 248 0
-8 68 -548 0
8 548 0
-68 548 0
8 -68 -728 0
-8 728 0
68 728 0
-428 608 0
-428 788 0
-428 248 0
-428 -308 0
428 -608 -788 -248 308 0
-68 128 -608 0
68 608 0
-128 608 0
68 -128 -788 0
-68 788 0
128 788 0
968 1148 0
968 1328 0
-968 -1148 -1328 0
-68 8 -1148 0
68 1148 0
-8 1148 0
68 -8 -1328 0
-68 1328 0
8 1328 0
1028 1208 0
1028 1388 0
-1028 -1208 -1388 0
-128 68 -1208 0
128 1208 0
-68 1208 0
128 -68 -1388 0
-128 1388 0
68 1388 0
189 0
-309 0
-369 549 0
-369 729 0
-369 189 0
-369 -249 0
369 -549 -729 -189 249 0
-9 69 -549 0
9 549 0
-69 549 0
9 -69 -729 0
-9 729 0
69 729 0
-429 609 0
-429 789 0
-429 249 0
-429 -309 0
429 -609 -789 -249 309 0
-69 129 -609 0
69 609 0
-129 609 0
69 -129 -789 0
-69 789 0
129 789 0
969 1149 0
969 1329 0
-969 -1149 -1329 0
-69 9 -1149 0
69 1149 0
-9 1149 0
69 -9 -1329 0
-69 1329 0
9 1329 0
1029 1209 0
1029 1389 0
-1029 -1209 -1389 0
-129 69 -1209 0
129 1209 0
-69 1209 0
129 -69 -1389 0
-129 1389 0
69 1389 0
190 0
-310 0
-370 550 0
-370 730 0
-370 190 0
-370 -250 0
370 -550 -730 -190 250 0
-10 70 -550 0
10 550 0
-70 550 0
10 -70 -730 0
-10 730 0
70 730 0
-430 610 0
-430 790 0
-430 250 0
-430 -310 0
430 -610 -790 -250 310 0
-70 130 -610 0
70 610 0
-130 610 0
70 -130 -790 0
-70 790 0
130 790 0
970 1150 0
970 1330 0
-970 -1150 -1330 0
-70 10 -1150 0
70 1150 0
-10 1150 0
70 -10 -1330 0
-70 1330 0
10 1330 0
1030 1210 0
1030 1390 0
-1030 -1210 -1390 0
-130 70 -1210 0
130 1210 0
-70 1210 0
130 -70 -1390 0
-130 1390 0
70 1390 0
191 0
-311 0
-371 551 0
-371 731 0
-371 191 0
-371 -251 0
371 -551 -731 -191 251 0
-11 71 -551 0
11 551 0
-71 551 0
11 -71 -731 0
-11 731 0
71 731 0
-431 611 0
-431 791 0
-431 251 0
-431 -311 0
431 -611 -791 -251 311 0
-71 131 -611 0
71 611 0
-131 611 0
71 -131 -791 0
-71 791 0
131 791 0
971 1151 0
971 1331 0
-971 -1151 -1331 0
-71 11 -1151 0
71 1151 0
-11 1151 0
71 -11 -1331 0
-71 1331 0
11 1331 0
1031 1211 0
1031 1391 0
-1031 -1211 -1391 0
-131 71 -1211 0
131 1211 0
-71 1211 0
131 -71 -1391 0
-131 1391 0
71 1391 0
192 0
-312 0
-372 552 0
-372 732 0
-372 192 0
-372 -252 0
372 -552 -732 -192 252 0
-12 72 -552 0
12 552 0
-72 552 0
12 -72 -732 0
-12 732 0
72 732 0
-432 612 0
-432 792 0
-432 252 0
-432 -312 0
432 -612 -792 -252 312 0
-72 132 -612 0
72 612 0
-132 612 0
72 -132 -792 0
-72 792 0
132 792 0
972 1152 0
972 1332 0
-972 -1152 -1332 0
-72 12 -1152 0
72 1152 0
-12 1152 0
72 -12 -1332 0
-72 1332 0
12 1332 0
1032 1212 0
1032 1392 0
-1032 -1212 -1392 0
-132 72 -1212 0
132 1212 0
-72 1212 0
132 -72 -1392 0
-132 1392 0
72 1392 0
193 0
-313 0
-373 553 0
-373 733 0
-373 193 0
-373 -253 0
373 -553 -733 -193 253 0
-13 73 -553 0
13 553 0
-73 553 0
13 -73 -733 0
-13 733 0
73 733 0
-433 613 0
-433 793 0
-433 253 0
-433 -313 0
433 -613 -793 -253 313 0
-73 133 -613 0
73 613 0
-133 613 0
73 -133 -793 0
-73 793 0
133 793 0
973 1153 0
973 1333 0
-973 -1153 -1333 0
-73 13 -1153 0
73 1153 0
-13 1153 0
73 -13 -1333 0
-73 1333 0
13 1333 0
1033 1213 0
1033 1393 0
-1033 -1213 -1393 0
-133 73 -1213 0
133 1213 0
-73 1213 0
133 -73 -1393 0
-133 1393 0
73 1393 0
194 0
-314 0
-374 554 0
-374 734 0
-374 194 0
-374 -254 0
374 -554 -734 -194 254 0
-14 74 -554 0
14 554 0
-74 554 0
14 -74 -734 0
-14 734 0
74 734 0
-434 614 0
-434 794 0
-434 254 0
-434 -314 0
434 -614 -794 -254 314 0
-74 134 -614 0
74 614 0
-134 614 0
74 -134 -794 0
-74 794 0
134 794 0
974 1154 0
974 1334 0
-974 -1154 -1334 0
-74 14 -1154 0
74 1154 0
-14 1154 0
74 -14 -1334 0
-74 1334 0
14 1334 0
1034 1214 0
1034 1394 0
-1034 -1214 -1394 0
-134 74 -1214 0
134 1214 0
-74 1214 0
134 -74 -1394 0
-134 1394 0
74 1394 0
195 0
-315 0
-375 555 0
-375 735 0
-375 195 0
-375 -255 0
375 -555 -735 -195 255 0
-15 75 -555 0
15 555 0
-75 555 0
15 -75 -735 0
-15 735 0
75 735 0
-435 615 0
-435 795 0
-435 255 0
-435 -315 0
435 -615 -795 -255 315 0
-75 135 -615 0
75 615 0
-135 615 0
75 -135 -795 0
-75 795 0
135 795 0
975 1155 0
975 1335 0
-975 -1155 -1335 0
-75 15 -1155 0
75 1155 0
-15 1155 0
75 -15 -1335 0
-75 1335 0
15 1335 0
1035 1215 0
1035 1395 0
-1035 -1215 -1395 0
-135 75 -1215 0
135 1215 0
-75 1215 0
135 -75 -1395 0
-135 1395 0
75 1395 0
196 0
-316 0
-376 556 0
-376 736 0
-376 196 0
-376 -256 0
376 -556 -736 -196 256 0
-16 76 -556 0
16 556 0
-76 556 0
16 -76 -736 0
-16 736 0
76 736 0
-436 616 0
-436 796 0
-436 256 0
-436 -316 0
436 -616 -796 -256 316 0
-76 136 -616 0
76 616 0
-136 616 0
76 -136 -796 0
-76 796 0
136 796 0
976 1156 0
976 1336 0
-976 -1156 -1336 0
-76 16 -1156 0
76 1156 0
-16 1156 0
76 -16 -1336 0
-76 1336 0
16 1336 0
1036 1216 0
1036 1396 0
-1036 -1216 -1396 0
-136 76 -1216 0
136 1216 0
-76 1216 0
136 -76 -1396 0
-136 1396 0
76 1396 0
197 0
-317 0
-377 557 0
-377 737 0
-377 197 0
-377 -257 0
377 -557 -737 -197 257 0
-17 77 -557 0
17 557 0
-77 557 0
17 -77 -737 0
-17 737 0
77 737 0
-437 617 0
-437 797 0
-437 257 0
-437 -317 0
437 -617 -797 -257 317 0
-77 137 -617 0
77 617 0
-137 617 0
77 -137 -797 0
-77 797 0
137 797 0
977 1157 0
977 1337 0
-977 -1157 -1337 0
-77 17 -1157 0
77 1157 0
-17 1157 0
77 -17 -1337 0
-77 1337 0
17 1337 0
1037 1217 0
1037 1397 0
-1037 -1217 -1397 0
-137 77 -1217 0
137 1217 0
-77 1217 0
137 -77 -1397 0
-137 1397 0
77 1397 0
198 0
-318 0
-378 558 0
-378 738 0
-378 198 0
-378 -258 0
378 -558 -738 -198 258 0
-18 78 -558 0
18 558 0
-78 558 0
18 -78 -738 0
-18 738 0
78 738 0
-438 618 0
-438 798 0
-438 258 0
-438 -318 0
438 -618 -798 -258 318 0
-78 138 -618 0
78 618 0
-138 618 0
78 -138 -798 0
-78 798 0
138 798 0
978 1158 0
978 1338 0
-978 -1158 -1338 0
-78 18 -1158 0
78 1158 0
-18 1158 0
78 -18 -1338 0
-78 1338 0
18 1338 0
1038 1218 0
1038 1398 0
-1038 -1218 -1398 0
-138 78 -1218 0
138 1218 0
-78 1218 0
138 -78 -1398 0
-138 1398 0
78 1398 0
199 0
-319 0
-379 559 0
-379 739 0
-379 199 0
-379 -259 0
379 -559 -739 -199 259 0
-19 79 -559 0
19 559 0
-79 559 0
19 -79 -739 0
-19 739 0
79 739 0
-439 619 0
-439 799 0
-439 259 0
-439 -319 0
439 -619 -799 -259 319 0
-79 139 -619 0
79 619 0
-139 619 0
79 -139 -799 0
-79 799 0
139 799 0
979 1159 0
979 1339 0
-979 -1159 -1339 0
-79 19 -1159 0
79 1159 0
-19 1159 0
79 -19 -1339 0
-79 1339 0
19 1339 0
1039 1219 0
1039 1399 0
-1039 -1219 -1399 0
-139 79 -1219 0
139 1219 0
-79 1219 0
139 -79 -1399 0
-139 1399 0
79 1399 0
200 0
-320 0
-380 560 0
-380 740 0
-380 200 0
-380 -260 0
380 -560 -740 -200 260 0
-20 80 -560 0
20 560 0
-80 560 0
20 -80 -740 0
-20 740 0
80 740 0
-440 620 0
-440 800 0
-440 260 0
-440 -320 0
440 -620 -800 -260 320 0
-80 140 -620 0
80 620 0
-140 620 0
80 -140 -800 0
-80 800 0
140 800 0
980 1160 0
980 1340 0
-980 -1160 -1340 0
-80 20 -1160 0
80 1160 0
-20 1160 0
80 -20 -1340 0
-80 1340 0
20 1340 0
1040 1220 0
1040 1400 0
-1040 -1220 -1400 0
-140 80 -1220 0
140 1220 0
-80 1220 0
140 -80 -1400 0
-140 1400 0
80 1400 0
201 0
-321 0
-381 561 0
-381 741 0
-381 201 0
-381 -261 0
381 -561 -741 -201 261 0
-21 81 -561 0
21 561 0
-81 561 0
21 -81 -741 0
-21 741 0
81 741 0
-441 621 0
-441 801 0
-441 261 0
-441 -321 0
441 -621 -801 -261 321 0
-81 141 -621 0
81 621 0
-141 621 0
81 -141 -801 0
-81 801 0
141 801 0
981 1161 0
981 1341 0
-981 -1161 -1341 0
-81 21 -1161 0
81 1161 0
-21 1161 0
81 -21 -1341 0
-81 1341 0
21 1341 0
1041 1221 0
1041 1401 0
-1041 -1221 -1401 0
-141 81 -1221 0
141 1221 0
-81 1221 0
141 -81 -1401 0
-141 1401 0
81 1401 0
202 0
-322 0
-382 562 0
-382 742 0
-382 202 0
-382 -262 0
382 -562 -742 -202 262 0
-22 82 -562 0
22 562 0
-82 562 0
22 -82 -742 0
-22 742 0
82 742 0
-442 622 0
-442 802 0
-442 262 0
-442 -322 0
442 -622 -802 -262 322 0
-82 142 -622 0
82 622 0
-142 622 0
82 -142 -802 0
-82 802 0
142 802 0
982 1162 0
982 1342 0
-982 -1162 -1342 0
-82 22 -1162 0
82 1162 0
-22 1162 0
82 -22 -1342 0
-82 1342 0
22 1342 0
1042 1222 0
1042 1402 0
-1042 -1222 -1402 0
-142 82 -1222 0
142 1222 0
-82 1222 0
142 -82 -1402 0
-142 1402 0
82 1402 0
203 0
-323 0
-383 563 0
-383 743 0
-383 203 0
-383 -263 0
383 -563 -743 -203 263 0
-23 83 -563 0
23 563 0
-83 563 0
23 -83 -743 0
-23 743 0
83 743 0
-443 623 0
-443 803 0
-443 263 0
-443 -323 0
443 -623 -803 -263 323 0
-83 143 -623 0
83 623 0
-143 623 0
83 -143 -803 0
-83 803 0
143 803 0
983 1163 0
983 1343 0
-983 -1163 -1343 0
-83 23 -1163 0
83 1163 0
-23 1163 0
83 -23 -1343 0
-83 1343 0
23 1343 0
1043 1223 0
1043 1403 0
-1043 -1223 -1403 0
-143 83 -1223 0
143 1223 0
-83 1223 0
143 -83 -1403 0
-143 1403 0
83 1403 0
204 0
-324 0
-384 564 0
-384 744 0
-384 204 0
-384 -264 0
384 -564 -744 -204 264 0
-24 84 -564 0
24 564 0
-84 564 0
24 -84 -744 0
-24 744 0
84 744 0
-444 624 0
-444 804 0
-444 264 0
-444 -324 0
444 -624 -804 -264 324 0
-84 144 -624 0
84 624 0
-144 624 0
84 -144 -804 0
-84 804 0
144 804 0
984 1164 0
984 1344 0
-984 -1164 -1344 0
-84 24 -1164 0
84 1164 0
-24 1164 0
84 -24 -1344 0
-84 1344 0
24 1344 0
1044 1224 0
1044 1404 0
-1044 -1224 -1404 0
-144 84 -1224 0
144 1224 0
-84 1224 0
144 -84 -1404 0
-144 1404 0
84 1404 0
205 0
-325 0
-385 565 0
-385 745 0
-385 205 0
-385 -265 0
385 -565 -745 -205 265 0
-25 85 -565 0
25 565 0
-85 565 0
25 -85 -745 0
-25 745 0
85 745 0
-445 625 0
-445 805 0
-445 265 0
-445 -325 0
445 -625 -805 -265 325 0
-85 145 -625 0
85 625 0
-145 625 0
85 -145 -805 0
-85 805 0
145 805 0
985 1165 0
985 1345 0
-985 -1165 -1345 0
-85 25 -1165 0
85 1165 0
-25 1165 0
85 -25 -1345 0
-85 1345 0
25 1345 0
1045 1225 0
1045 1405 0
-1045 -1225 -1405 0
-145 85 -1225 0
145 1225 0
-85 1225 0
145 -85 -1405 0
-145 1405 0
85 1405 0
206 0
-326 0
-386 566 0
-386 746 0
-386 206 0
-386 -266 0
386 -566 -746 -206 266 0
-26 86 -566 0
26 566 0
-86 566 0
26 -86 -746 0
-26 746 0
86 746 0
-446 626 0
-446 806 0
-446 266 0
-446 -326 0
446 -626 -806 -266 326 0
-86 146 -626 0
86 626 0
-146 626 0
86 -146 -806 0
-86 806 0
146 806 0
986 1166 0
986 1346 0
-986 -1166 -1346 0
-86 26 -1166 0
86 1166 0
-26 1166 0
86 -26 -1346 0
-86 1346 0
26 1346 0
1046 1226 0
1046 1406 0
-1046 -1226 -1406 0
-146 86 -1226 0
146 1226 0
-86 1226 0
146 -86 -1406 0
-146 1406 0
86 1406 0
207 0
-327 0
-387 567 0
-387 747 0
-387 207 0
-387 -267 0
387 -567 -747 -207 267 0
-27 87 -567 0
27 567 0
-87 567 0
27 -87 -747 0
-27 747 0
87 747 0
-447 627 0
-447 807 0
-447 267 0
-447 -327 0
447 -627 -807 -267 327 0
-87 147 -627 0
87 627 0
-147 627 0
87 -147 -807 0
-87 807 0
147 807 0
987 1167 0
987 1347 0
-987 -1167 -1347 0
-87 27 -1167 0
87 1167 0
-27 1167 0
87 -27 -1347 0
-87 1347 0
27 1347 0
1047 1227 0
1047 1407 0
-1047 -1227 -1407 0
-147 87 -1227 0
147 1227 0
-87 1227 0
147 -87 -1407 0
-147 1407 0
87 1407 0
208 0
-328 0
-388 568 0
-388 748 0
-388 208 0
-388 -268 0
388 -568 -748 -208 268 0
-28 88 -568 0
28 568 0
-88 568 0
28 -88 -748 0
-28 748 0
88 748 0
-448 628 0
-448 808 0
-448 268 0
-448 -328 0
448 -628 -808 -268 328 0
-88 148 -628 0
88 628 0
-148 628 0
88 -148 -808 0
-88 808 0
148 808 0
988 1168 0
988 1348 0
-988 -1168 -1348 0
-88 28 -1168 0
88 1168 0
-28 1168 0
88 -28 -1348 0
-88 1348 0
28 1348 0
1048 1228 0
1048 1408 0
-1048 -1228 -1408 0
-148 88 -1228 0
148 1228 0
-88 1228 0
148 -88 -1408 0
-148 1408 0
88 1408 0
209 0
-329 0
-389 569 0
-389 749 0
-389 209 0
-389 -269 0
389 -569 -749 -209 269 0
-29 89 -569 0
29 569 0
-89 569 0
29 -89 -749 0
-29 749 0
89 749 0
-449 629 0
-449 809 0
-449 269 0
-449 -329 0
449 -629 -809 -269 329 0
-89 149 -629 0
89 629 0
-149 629 0
89 -149 -809 0
-89 809 0
149 809 0
989 1169 0
989 1349 0
-989 -1169 -1349 0
-89 29 -1169 0
89 1169 0
-29 1169 0
89 -29 -1349 0
-89 1349 0
29 1349 0
1049 1229 0
1049 1409 0
-1049 -1229 -1409 0
-149 89 -1229 0
149 1229 0
-89 1229 0
149 -89 -1409 0
-149 1409 0
89 1409 0
210 0
-330 0
-390 570 0
-390 750 0
-390 210 0
-390 -270 0
390 -570 -750 -210 270 0
-30 90 -570 0
30 570 0
-90 570 0
30 -90 -750 0
-30 750 0
90 750 0
-450 630 0
-450 810 0
-450 270 0
-450 -330 0
450 -630 -810 -270 330 0
-90 150 -630 0
90 630 0
-150 630 0
90 -150 -810 0
-90 810 0
150 810 0
990 1170 0
990 1350 0
-990 -1170 -1350 0
-90 30 -1170 0
90 1170 0
-30 1170 0
90 -30 -1350 0
-90 1350 0
30 1350 0
1050 1230 0
1050 1410 0
-1050 -1230 -1410 0
-150 90 -1230 0
150 1230 0
-90 1230 0
150 -90 -1410 0
-150 1410 0
90 1410 0
211 0
-331 0
-391 571 0
-391 751 0
-391 211 0
-391 -271 0
391 -571 -751 -211 271 0
-31 91 -571 0
31 571 0
-91 571 0
31 -91 -751 0
-31 751 0
91 751 0
-451 631 0
-451 811 0
-451 271 0
-451 -331 0
451 -631 -811 -271 331 0
-91 151 -631 0
91 631 0
-151 631 0
91 -151 -811 0
-91 811 0
151 811 0
991 1171 0
991 1351 0
-991 -1171 -1351 0
-91 31 -1171 0
91 1171 0
-31 1171 0
91 -31 -1351 0
-91 1351 0
31 1351 0
1051 1231 0
1051 1411 0
-1051 -1231 -1411 0
-151 91 -1231 0
151 1231 0
-91 1231 0
151 -91 -1411 0
-151 1411 0
91 1411 0
212 0
-332 0
-392 572 0
-392 752 0
-392 212 0
-392 -272 0
392 -572 -752 -212 272 0
-32 92 -572 0
32 572 0
-92 572 0
32 -92 -752 0
-32 752 0
92 752 0
-452 632 0
-452 812 0
-452 272 0
-452 -332 0
452 -632 -812 -272 332 0
-92 152 -632 0
92 632 0
-152 632 0
92 -152 -812 0
-92 812 0
152 812 0
992 1172 0
992 1352 0
-992 -1172 -1352 0
-92 32 -1172 0
92 1172 0
-32 1172 0
92 -32 -1352 0
-92 1352 0
32 1352 0
1052 1232 0
1052 1412 0
-1052 -1232 -1412 0
-152 92 -1232 0
152 1232 0
-92 1232 0
152 -92 -1412 0
-152 1412 0
92 1412 0
213 0
-333 0
-393 573 0
-393 753 0
-393 213 0
-393 -273 0
393 -573 -753 -213 273 0
-33 93 -573 0
33 573 0
-93 573 0
33 -93 -753 0
-33 753 0
93 753 0
-453 633 0
-453 813 0
-453 273 0
-453 -333 0
453 -633 -813 -273 333 0
-93 153 -633 0
93 633 0
-153 633 0
93 -153 -813 0
-93 813 0
153 813 0
993 1173 0
993 1353 0
-993 -1173 -1353 0
-93 33 -1173 0
93 1173 0
-33 1173 0
93 -33 -1353 0
-93 1353 0
33 1353 0
1053 1233 0
1053 1413 0
-1053 -1233 -1413 0
-153 93 -1233 0
153 1233 0
-93 1233 0
153 -93 -1413 0
-153 1413 0
93 1413 0
214 0
-334 0
-394 574 0
-394 754 0
-394 214 0
-394 -274 0
394 -574 -754 -214 274 0
-34 94 -574 0
34 574 0
-94 574 0
34 -94 -754 0
-34 754 0
94 754 0
-454 634 0
-454 814 0
-454 274 0
-454 -334 0
454 -634 -814 -274 334 0
-94 154 -634 0
94 634 0
-154 634 0
94 -154 -814 0
-94 814 0
154 814 0
994 1174 0
994 1354 0
-994 -1174 -1354 0
-94 34 -1174 0
94 1174 0
-34 1174 0
94 -34 -1354 0
-94 1354 0
34 1354 0
1054 1234 0
1054 1414 0
-1054 -1234 -1414 0
-154 94 -1234 0
154 1234 0
-94 1234 0
154 -94 -1414 0
-154 1414 0
94 1414 0
215 0
-335 0
-395 575 0
-395 755 0
-395 215 0
-395 -275 0
395 -575 -755 -215 275 0
-35 95 -575 0
35 575 0
-95 575 0
35 -95 -755 0
-35 755 0
95 755 0
-455 635 0
-455 815 0
-455 275 0
-455 -335 0
455 -635 -815 -275 335 0
-95 155 -635 0
95 635 0
-155 635 0
95 -155 -815 0
-95 815 0
155 815 0
995 1175 0
995 1355 0
-995 -1175 -1355 0
-95 35 -1175 0
95 1175 0
-35 1175 0
95 -35 -1355 0
-95 1355 0
35 1355 0
1055 1235 0
1055 1415 0
-1055 -1235 -1415 0
-155 95 -1235 0
155 1235 0
-95 1235 0
155 -95 -1415 0
-155 1415 0
95 1415 0
216 0
-336 0
-396 576 0
-396 756 0
-396 216 0
-396 -276 0
396 -576 -756 -216 276 0
-36 96 -576 0
36 576 0
-96 576 0
36 -96 -756 0
-36 756 0
96 756 0
-456 636 0
-456 816 0
-456 276 0
-456 -336 0
456 -636 -816 -276 336 0
-96 156 -636 0
96 636 0
-156 636 0
96 -156 -816 0
-96 816 0
156 816 0
996 1176 0
996 1356 0
-996 -1176 -1356 0
-96 36 -1176 0
96 1176 0
-36 1176 0
96 -36 -1356 0
-96 1356 0
36 1356 0
1056 1236 0
1056 1416 0
-1056 -1236 -1416 0
-156 96 -1236 0
156 1236 0
-96 1236 0
156 -96 -1416 0
-156 1416 0
96 1416 0
217 0
-337 0
-397 577 0
-397 757 0
-397 217 0
-397 -277 0
397 -577 -757 -217 277 0
-37 97 -577 0
37 577 0
-97 577 0
37 -97 -757 0
-37 757 0
97 757 0
-457 637 0
-457 817 0
-457 277 0
-457 -337 0
457 -637 -817 -277 337 0
-97 157 -637 0
97 637 0
-157 637 0
97 -157 -817 0
-97 817 0
157 817 0
997 1177 0
997 1357 0
-997 -1177 -1357 0
-97 37 -1177 0
97 1177 0
-37 1177 0
97 -37 -1357 0
-97 1357 0
37 1357 0
1057 1237 0
1057 1417 0
-1057 -1237 -1417 0
-157 97 -1237 0
157 1237 0
-97 1237 0
157 -97 -1417 0
-157 1417 0
97 1417 0
218 0
-338 0
-398 578 0
-398 758 0
-398 218 0
-398 -278 0
398 -578 -758 -218 278 0
-38 98 -578 0
38 578 0
-98 578 0
38 -98 -758 0
-38 758 0
98 758 0
-458 638 0
-458 818 0
-458 278 0
-458 -338 0
458 -638 -818 -278 338 0
-98 158 -638 0
98 638 0
-158 638 0
98 -158 -818 0
-98 818 0
158 818 0
998 1178 0
998 1358 0
-998 -1178 -1358 0
-98 38 -1178 0
98 1178 0
-38 1178 0
98 -38 -1358 0
-98 1358 0
38 1358 0
1058 1238 0
1058 1418 0
-1058 -1238 -1418 0
-158 98 -1238 0
158 1238 0
-98 1238 0
158 -98 -1418 0
-158 1418 0
98 1418 0
219 0
-339 0
-399 579 0
-399 759 0
-399 219 0
-399 -279 0
399 -579 -759 -219 279 0
-39 99 -579 0
39 579 0
-99 579 0
39 -99 -759 0
-39 759 0
99 759 0
-459 639 0
-459 819 0
-459 279 0
-459 -339 0
459 -639 -819 -279 339 0
-99 159 -639 0
99 639 0
-159 639 0
99 -159 -819 0
-99 819 0
159 819 0
999 1179 0
999 1359 0
-999 -1179 -1359 0
-99 39 -1179 0
99 1179 0
-39 1179 0
99 -39 -1359 0
-99 1359 0
39 1359 0
1059 1239 0
1059 1419 0
-1059 -1239 -1419 0
-159 99 -1239 0
159 1239 0
-99 1239 0
159 -99 -1419 0
-159 1419 0
99 1419 0
220 0
-340 0
-400 580 0
-400 760 0
-400 220 0
-400 -280 0
400 -580 -760 -220 280 0
-40 100 -580 0
40 580 0
-100 580 0
40 -100 -760 0
-40 760 0
100 760 0
-460 640 0
-460 820 0
-460 280 0
-460 -340 0
460 -640 -820 -280 340 0
-100 160 -640 0
100 640 0
-160 640 0
100 -160 -820 0
-100 820 0
160 820 0
1000 1180 0
1000 1360 0
-1000 -1180 -1360 0
-100 40 -1180 0
100 1180 0
-40 1180 0
100 -40 -1360 0
-100 1360 0
40 1360 0
1060 1240 0
1060 1420 0
-1060 -1240 -1420 0
-160 100 -1240 0
160 1240 0
-100 1240 0
160 -100 -1420 0
-160 1420 0
100 1420 0
221 0
-341 0
-401 581 0
-401 761 0
-401 221 0
-401 -281 0
401 -581 -761 -221 281 0
-41 101 -581 0
41 581 0
-101 581 0
41 -101 -761 0
-41 761 0
101 761 0
-461 641 0
-461 821 0
-461 281 0
-461 -341 0
461 -641 -821 -281 341 0
-101 161 -641 0
101 641 0
-161 641 0
101 -161 -821 0
-101 821 0
161 821 0
1001 1181 0
1001 1361 0
-1001 -1181 -1361 0
-101 41 -1181 0
101 1181 0
-41 1181 0
101 -41 -1361 0
-101 1361 0
41 1361 0
1061 1241 0
1061 1421 0
-1061 -1241 -1421 0
-161 101 -1241 0
161 1241 0
-101 1241 0
161 -101 -1421 0
-161 1421 0
101 1421 0
222 0
-342 0
-402 582 0
-402 762 0
-402 222 0
-402 -282 0
402 -582 -762 -222 282 0
-42 102 -582 0
42 582 0
-102 582 0
42 -102 -762 0
-42 762 0
102 762 0
-462 642 0
-462 822 0
-462 282 0
-462 -342 0
462 -642 -822 -282 342 0
-102 162 -642 0
102 642 0
-162 642 0
102 -162 -822 0
-102 822 0
162 822 0
1002 1182 0
1002 1362 0
-1002 -1182 -1362 0
-102 42 -1182 0
102 1182 0
-42 1182 0
102 -42 -1362 0
-102 1362 0
42 1362 0
1062 1242 0
1062 1422 0
-1062 -1242 -1422 0
-162 102 -1242 0
162 1242 0
-102 1242 0
162 -102 -1422 0
-162 1422 0
102 1422 0
223 0
-343 0
-403 583 0
-403 763 0
-403 223 0
-403 -283 0
403 -583 -763 -223 283 0
-43 103 -583 0
43 583 0
-103 583 0
43 -103 -763 0
-43 763 0
103 763 0
-463 643 0
-463 823 0
-463 283 0
-463 -343 0
463 -643 -823 -283 343 0
-103 163 -643 0
103 643 0
-163 643 0
103 -163 -823 0
-103 823 0
163 823 0
1003 1183 0
1003 1363 0
-1003 -1183 -1363 0
-103 43 -1183 0
103 1183 0
-43 1183 0
103 -43 -1363 0
-103 1363 0
43 1363 0
1063 1243 0
1063 1423 0
-1063 -1243 -1423 0
-163 103 -1243 0
163 1243 0
-103 1243 0
163 -103 -1423 0
-163 1423 0
103 1423 0
224 0
-344 0
-404 584 0
-404 764 0
-404 224 0
-404 -284 0
404 -584 -764 -224 284 0
-44 104 -584 0
44 584 0
-104 584 0
44 -104 -764 0
-44 764 0
104 764 0
-464 644 0
-464 824 0
-464 284 0
-464 -344 0
464 -644 -824 -284 344 0
-104 164 -644 0
104 644 0
-164 644 0
104 -164 -824 0
-104 824 0
164 824 0
1004 1184 0
1004 1364 0
-1004 -1184 -1364 0
-104 44 -1184 0
104 1184 0
-44 1184 0
104 -44 -1364 0
-104 1364 0
44 1364 0
1064 1244 0
1064 1424 0
-1064 -1244 -1424 0
-164 104 -1244 0
164 1244 0
-104 1244 0
164 -104 -1424 0
-164 1424 0
104 1424 0
225 0
-345 0
-405 585 0
-405 765 0
-405 225 0
-405 -285 0
405 -585 -765 -225 285 0
-45 105 -585 0
45 585 0
-105 585 0
45 -105 -765 0
-45 765 0
105 765 0
-465 645 0
-465 825 0
-465 285 0
-465 -345 0
465 -645 -825 -285 345 0
-105 165 -645 0
105 645 0
-165 645 0
105 -165 -825 0
-105 825 0
165 825 0
1005 1185 0
1005 1365 0
-1005 -1185 -1365 0
-105 45 -1185 0
105 1185 0
-45 1185 0
105 -45 -1365 0
-105 1365 0
45 1365 0
1065 1245 0
1065 1425 0
-1065 -1245 -1425 0
-165 105 -1245 0
165 1245 0
-105 1245 0
165 -105 -1425 0
-165 1425 0
105 1425 0
226 0
-346 0
-406 586 0
-406 766 0
-406 226 0
-406 -286 0
406 -586 -766 -226 286 0
-46 106 -586 0
46 586 0
-106 586 0
46 -106 -766 0
-46 766 0
106 766 0
-466 646 0
-466 826 0
-466 286 0
-466 -346 0
466 -646 -826 -286 346 0
-106 166 -646 0
106 646 0
-166 646 0
106 -166 -826 0
-106 826 0
166 826 0
1006 1186 0
1006 1366 0
-1006 -1186 -1366 0
-106 46 -1186 0
106 1186 0
-46 1186 0
106 -46 -1366 0
-106 1366 0
46 1366 0
1066 1246 0
1066 1426 0
-1066 -1246 -1426 0
-166 106 -1246 0
166 1246 0
-106 1246 0
166 -106 -1426 0
-166 1426 0
106 1426 0
227 0
-347 0
-407 587 0
-407 767 0
-407 227 0
-407 -287 0
407 -587 -767 -227 287 0
-47 107 -587 0
47 587 0
-107 587 0
47 -107 -767 0
-47 767 0
107 767 0
-467 647 0
-467 827 0
-467 287 0
-467 -347 0
467 -647 -827 -287 347 0
-107 167 -647 0
107 647 0
-167 647 0
107 -167 -827 0
-107 827 0
167 827 0
1007 1187 0
1007 1367 0
-1007 -1187 -1367 0
-107 47 -1187 0
107 1187 0
-47 1187 0
107 -47 -1367 0
-107 1367 0
47 1367 0
1067 1247 0
1067 1427 0
-1067 -1247 -1427 0
-167 107 -1247 0
167 1247 0
-107 1247 0
167 -107 -1427 0
-167 1427 0
107 1427 0
228 0
-348 0
-408 588 0
-408 768 0
-408 228 0
-408 -288 0
408 -588 -768 -228 288 0
-48 108 -588 0
48 588 0
-108 588 0
48 -108 -768 0
-48 768 0
108 768 0
-468 648 0
-468 828 0
-468 288 0
-468 -348 0
468 -648 -828 -288 348 0
-108 168 -648 0
108 648 0
-168 648 0
108 -168 -828 0
-108 828 0
168 828 0
1008 1188 0
1008 1368 0
-1008 -1188 -1368 0
-108 48 -1188 0
108 1188 0
-48 1188 0
108 -48 -1368 0
-108 1368 0
48 1368 0
1068 1248 0
1068 1428 0
-1068 -1248 -1428 0
-168 108 -1248 0
168 1248 0
-108 1248 0
168 -108 -1428 0
-168 1428 0
108 1428 0
229 0
-349 0
-409 589 0
-409 769 0
-409 229 0
-409 -289 0
409 -589 -769 -229 289 0
-49 109 -589 0
49 589 0
-109 589 0
49 -109 -769 0
-49 769 0
109 769 0
-469 649 0
-469 829 0
-469 289 0
-469 -349 0
469 -649 -829 -289 349 0
-109 169 -649 0
109 649 0
-169 649 0
109 -169 -829 0
-109 829 0
169 829 0
1009 1189 0
1009 1369 0
-1009 -1189 -1369 0
-109 49 -1189 0
109 1189 0
-49 1189 0
109 -49 -1369 0
-109 1369 0
49 1369 0
1069 1249 0
1069 1429 0
-1069 -1249 -1429 0
-169 109 -1249 0
169 1249 0
-109 1249 0
169 -109 -1429 0
-169 1429 0
109 1429 0
230 0
-350 0
-410 590 0
-410 770 0
-410 230 0
-410 -290 0
410 -590 -770 -230 290 0
-50 110 -590 0
50 590 0
-110 590 0
50 -110 -770 0
-50 770 0
110 770 0
-470 650 0
-470 830 0
-470 290 0
-470 -350 0
470 -650 -830 -290 350 0
-110 170 -650 0
110 650 0
-170 650 0
110 -170 -830 0
-110 830 0
170 830 0
1010 1190 0
1010 1370 0
-1010 -1190 -1370 0
-110 50 -1190 0
110 1190 0
-50 1190 0
110 -50 -1370 0
-110 1370 0
50 1370 0
1070 1250 0
1070 1430 0
-1070 -1250 -1430 0
-170 110 -1250 0
170 1250 0
-110 1250 0
170 -110 -1430 0
-170 1430 0
110 1430 0
231 0
-351 0
-411 591 0
-411 771 0
-411 231 0
-411 -291 0
411 -591 -771 -231 291 0
-51 111 -591 0
51 591 0
-111 591 0
51 -111 -771 0
-51 771 0
111 771 0
-471 651 0
-471 831 0
-471 291 0
-471 -351 0
471 -651 -831 -291 351 0
-111 171 -651 0
111 651 0
-171 651 0
111 -171 -831 0
-111 831 0
171 831 0
1011 1191 0
1011 1371 0
-1011 -1191 -1371 0
-111 51 -1191 0
111 1191 0
-51 1191 0
111 -51 -1371 0
-111 1371 0
51 1371 0
1071 1251 0
1071 1431 0
-1071 -1251 -1431 0
-171 111 -1251 0
171 1251 0
-111 1251 0
171 -111 -1431 0
-171 1431 0
111 1431 0
232 0
-352 0
-412 592 0
-412 772 0
-412 232 0
-412 -292 0
412 -592 -772 -232 292 0
-52 112 -592 0
52 592 0
-112 592 0
52 -112 -772 0
-52 772 0
112 772 0
-472 652 0
-472 832 0
-472 292 0
-472 -352 0
472 -652 -832 -292 352 0
-112 172 -652 0
112 652 0
-172 652 0
112 -172 -832 0
-112 832 0
172 832 0
1012 1192 0
1012 1372 0
-1012 -1192 -1372 0
-112 52 -1192 0
112 1192 0
-52 1192 0
112 -52 -1372 0
-112 1372 0
52 1372 0
1072 1252 0
1072 1432 0
-1072 -1252 -1432 0
-172 112 -1252 0
172 1252 0
-112 1252 0
172 -112 -1432 0
-172 1432 0
112 1432 0
233 0
-353 0
-413 593 0
-413 773 0
-413 233 0
-413 -293 0
413 -593 -773 -233 293 0
-53 113 -593 0
53 593 0
-113 593 0
53 -113 -773 0
-53 773 0
113 773 0
-473 653 0
-473 833 0
-473 293 0
-473 -353 0
473 -653 -833 -293 353 0
-113 173 -653 0
113 653 0
-173 653 0
113 -173 -833 0
-113 833 0
173 833 0
1013 1193 0
1013 1373 0
-1013 -1193 -1373 0
-113 53 -1193 0
113 1193 0
-53 1193 0
113 -53 -1373 0
-113 1373 0
53 1373 0
1073 1253 0
1073 1433 0
-1073 -1253 -1433 0
-173 113 -1253 0
173 1253 0
-113 1253 0
173 -113 -1433 0
-173 1433 0
113 1433 0
234 0
-354 0
-414 594 0
-414 774 0
-414 234 0
-414 -294 0
414 -594 -774 -234 294 0
-54 114 -594 0
54 594 0
-114 594 0
54 -114 -774 0
-54 774 0
114 774 0
-474 654 0
-474 834 0
-474 294 0
-474 -354 0
474 -654 -834 -294 354 0
-114 174 -654 0
114 654 0
-174 654 0
114 -174 -834 0
-114 834 0
174 834 0
1014 1194 0
1014 1374 0
-1014 -1194 -1374 0
-114 54 -1194 0
114 1194 0
-54 1194 0
114 -54 -1374 0
-114 1374 0
54 1374 0
1074 1254 0
1074 1434 0
-1074 -1254 -1434 0
-174 114 -1254 0
174 1254 0
-114 1254 0
174 -114 -1434 0
-174 1434 0
114 1434 0
235 0
-355 0
-415 595 0
-415 775 0
-415 235 0
-415 -295 0
415 -595 -775 -235 295 0
-55 115 -595 0
55 595 0
-115 595 0
55 -115 -775 0
-55 775 0
115 775 0
-475 655 0
-475 835 0
-475 295 0
-475 -355 0
475 -655 -835 -295 355 0
-115 175 -655 0
115 655 0
-175 655 0
115 -175 -835 0
-115 835 0
175 835 0
1015 1195 0
1015 1375 0
-1015 -1195 -1375 0
-115 55 -1195 0
115 1195 0
-55 1195 0
115 -55 -1375 0
-115 1375 0
55 1375 0
1075 1255 0
1075 1435 0
-1075 -1255 -1435 0
-175 115 -1255 0
175 1255 0
-115 1255 0
175 -115 -1435 0
-175 1435 0
115 1435 0
236 0
-356 0
-416 596 0
-416 776 0
-416 236 0
-416 -296 0
416 -596 -776 -236 296 0
-56 116 -596 0
56 596 0
-116 596 0
56 -116 -776 0
-56 776 0
116 776 0
-476 656 0
-476 836 0
-476 296 0
-476 -356 0
476 -656 -836 -296 356 0
-116 176 -656 0
116 656 0
-176 656 0
116 -176 -836 0
-116 836 0
176 836 0
1016 1196 0
1016 1376 0
-1016 -1196 -1376 0
-116 56 -1196 0
116 1196 0
-56 1196 0
116 -56 -1376 0
-116 1376 0
56 1376 0
1076 1256 0
1076 1436 0
-1076 -1256 -1436 0
-176 116 -1256 0
176 1256 0
-116 1256 0
176 -116 -1436 0
-176 1436 0
116 1436 0
237 0
-357 0
-417 597 0
-417 777 0
-417 237 0
-417 -297 0
417 -597 -777 -237 297 0
-57 117 -597 0
57 597 0
-117 597 0
57 -117 -777 0
-57 777 0
117 777 0
-477 657 0
-477 837 0
-477 297 0
-477 -357 0
477 -657 -837 -297 357 0
-117 177 -657 0
117 657 0
-177 657 0
117 -177 -837 0
-117 837 0
177 837 0
1017 1197 0
1017 1377 0
-1017 -1197 -1377 0
-117 57 -1197 0
117 1197 0
-57 1197 0
117 -57 -1377 0
-117 1377 0
57 1377 0
1077 1257 0
1077 1437 0
-1077 -1257 -1437 0
-177 117 -1257 0
177 1257 0
-117 1257 0
177 -117 -1437 0
-177 1437 0
117 1437 0
238 0
-358 0
-418 598 0
-418 778 0
-418 238 0
-418 -298 0
418 -598 -778 -238 298 0
-58 118 -598 0
58 598 0
-118 598 0
58 -118 -778 0
-58 778 0
118 778 0
-478 658 0
-478 838 0
-478 298 0
-478 -358 0
478 -658 -838 -298 358 0
-118 178 -658 0
118 658 0
-178 658 0
118 -178 -838 0
-118 838 0
178 838 0
1018 1198 0
1018 1378 0
-1018 -1198 -1378 0
-118 58 -1198 0
118 1198 0
-58 1198 0
118 -58 -1378 0
-118 1378 0
58 1378 0
1078 1258 0
1078 1438 0
-1078 -1258 -1438 0
-178 118 -1258 0
178 1258 0
-118 1258 0
178 -118 -1438 0
-178 1438 0
118 1438 0
239 0
-359 0
-419 599 0
-419 779 0
-419 239 0
-419 -299 0
419 -599 -779 -239 299 0
-59 119 -599 0
59 599 0
-119 599 0
59 -119 -779 0
-59 779 0
119 779 0
-479 659 0
-479 839 0
-479 299 0
-479 -359 0
479 -659 -839 -299 359 0
-119 179 -659 0
119 659 0
-179 659 0
119 -179 -839 0
-119 839 0
179 839 0
1019 1199 0
1019 1379 0
-1019 -1199 -1379 0
-119 59 -1199 0
119 1199 0
-59 1199 0
119 -59 -1379 0
-119 1379 0
59 1379 0
1079 1259 0
1079 1439 0
-1079 -1259 -1439 0
-179 119 -1259 0
179 1259 0
-119 1259 0
179 -119 -1439 0
-179 1439 0
119 1439 0
240 0
-360 0
-420 600 0
-420 780 0
-420 240 0
-420 -300 0
420 -600 -780 -240 300 0
-60 120 -600 0
60 600 0
-120 600 0
60 -120 -780 0
-60 780 0
120 780 0
-480 660 0
-480 840 0
-480 300 0
-480 -360 0
480 -660 -840 -300 360 0
-120 180 -660 0
120 660 0
-180 660 0
120 -180 -840 0
-120 840 0
180 840 0
1020 1200 0
1020 1380 0
-1020 -1200 -1380 0
-120 60 -1200 0
120 1200 0
-60 1200 0
120 -60 -1380 0
-120 1380 0
60 1380 0
1080 1260 0
1080 1440 0
-1080 -1260 -1440 0
-180 120 -1260 0
180 1260 0
-120 1260 0
180 -120 -1440 0
-180 1440 0
120 1440 0
-1921 1021 0
1921 -1021 0
-1801 361 0
1801 -361 0
-1922 1022 0
1922 -1022 0
-1802 362 0
1802 -362 0
-1923 1023 0
1923 -1023 0
-1803 363 0
1803 -363 0
-1924 1024 0
1924 -1024 0
-1804 364 0
1804 -364 0
-1925 1025 0
1925 -1025 0
-1805 365 0
1805 -365 0
-1926 1026 0
1926 -1026 0
-1806 366 0
1806 -366 0
-1927 1027 0
1927 -1027 0
-1807 367 0
1807 -367 0
-1928 1028 0
1928 -1028 0
-1808 368 0
1808 -368 0
-1929 1029 0
1929 -1029 0
-1809 369 0
1809 -369 0
-1930 1030 0
1930 -1030 0
-1810 370 0
1810 -370 0
-1931 1031 0
1931 -1031 0
-1811 371 0
1811 -371 0
-1932 1032 0
1932 -1032 0
-1812 372 0
1812 -372 0
-1933 1033 0
1933 -1033 0
-1813 373 0
1813 -373 0
-1934 1034 0
1934 -1034 0
-1814 374 0
1814 -374 0
-1935 1035 0
1935 -1035 0
-1815 375 0
1815 -375 0
-1936 1036 0
1936 -1036 0
-1816 376 0
1816 -376 0
-1937 1037 0
1937 -1037 0
-1817 377 0
1817 -377 0
-1938 1038 0
1938 -1038 0
-1818 378 0
1818 -378 0
-1939 1039 0
1939 -1039 0
-1819 379 0
1819 -379 0
-1940 1040 0
1940 -1040 0
-1820 380 0
1820 -380 0
-1941 1041 0
1941 -1041 0
-1821 381 0
1821 -381 0
-1942 1042 0
1942 -1042 0
-1822 382 0
1822 -382 0
-1943 1043 0
1943 -1043 0
-1823 383 0
1823 -383 0
-1944 1044 0
1944 -1044 0
-1824 384 0
1824 -384 0
-1945 1045 0
1945 -1045 0
-1825 385 0
1825 -385 0
-1946 1046 0
1946 -1046 0
-1826 386 0
1826 -386 0
-1947 1047 0
1947 -1047 0
-1827 387 0
1827 -387 0
-1948 1048 0
1948 -1048 0
-1828 388 0
1828 -388 0
-1949 1049 0
1949 -1049 0
-1829 389 0
1829 -389 0
-1950 1050 0
1950 -1050 0
-1830 390 0
1830 -390 0
-1951 1051 0
1951 -1051 0
-1831 391 0
1831 -391 0
-1952 1052 0
1952 -1052 0
-1832 392 0
1832 -392 0
-1953 1053 0
1953 -1053 0
-1833 393 0
1833 -393 0
-1954 1054 0
1954 -1054 0
-1834 394 0
1834 -394 0
-1955 1055 0
1955 -1055 0
-1835 395 0
1835 -395 0
-1956 1056 0
1956 -1056 0
-1836 396 0
1836 -396 0
-1957 1057 0
1957 -1057 0
-1837 397 0
1837 -397 0
-1958 1058 0
1958 -1058 0
-1838 398 0
1838 -398 0
-1959 1059 0
1959 -1059 0
-1839 399 0
1839 -399 0
-1960 1060 0
1960 -1060 0
-1840 400 0
1840 -400 0
-1961 1061 0
1961 -1061 0
-1841 401 0
1841 -401 0
-1962 1062 0
1962 -1062 0
-1842 402 0
1842 -402 0
-1963 1063 0
1963 -1063 0
-1843 403 0
1843 -403 0
-1964 1064 0
1964 -1064 0
-1844 404 0
1844 -404 0
-1965 1065 0
1965 -1065 0
-1845 405 0
1845 -405 0
-1966 1066 0
1966 -1066 0
-1846 406 0
1846 -406 0
-1967 1067 0
1967 -1067 0
-1847 407 0
1847 -407 0
-1968 1068 0
1968 -1068 0
-1848 408 0
1848 -408 0
-1969 1069 0
1969 -1069 0
-1849 409 0
1849 -409 0
-1970 1070 0
1970 -1070 0
-1850 410 0
1850 -410 0
-1971 1071 0
1971 -1071 0
-1851 411 0
1851 -411 0
-1972 1072 0
1972 -1072 0
-1852 412 0
1852 -412 0
-1973 1073 0
1973 -1073 0
-1853 413 0
1853 -413 0
-1974 1074 0
1974 -1074 0
-1854 414 0
1854 -414 0
-1975 1075 0
1975 -1075 0
-1855 415 0
1855 -415 0
-1976 1076 0
1976 -1076 0
-1856 416 0
1856 -416 0
-1977 1077 0
1977 -1077 0
-1857 417 0
1857 -417 0
-1978 1078 0
1978 -1078 0
-1858 418 0
1858 -418 0
-1979 1079 0
1979 -1079 0
-1859 419 0
1859 -419 0
-1980 1080 0
1980 -1080 0
-1860 420 0
1860 -420 0
-1861 961 421 0
1861 -961 0
1861 -421 0
-1862 962 422 0
1862 -962 0
1862 -422 0
-1863 963 423 0
1863 -963 0
1863 -423 0
-1864 964 424 0
1864 -964 0
1864 -424 0
-1865 965 425 0
1865 -965 0
1865 -425 0
-1866 966 426 0
1866 -966 0
1866 -426 0
-1867 967 427 0
1867 -967 0
1867 -427 0
-1868 968 428 0
1868 -968 0
1868 -428 0
-1869 969 429 0
1869 -969 0
1869 -429 0
-1870 970 430 0
1870 -970 0
1870 -430 0
-1871 971 431 0
1871 -971 0
1871 -431 0
-1872 972 432 0
1872 -972 0
1872 -432 0
-1873 973 433 0
1873 -973 0
1873 -433 0
-1874 974 434 0
1874 -974 0
1874 -434 0
-1875 975 435 0
1875 -975 0
1875 -435 0
-1876 976 436 0
1876 -976 0
1876 -436 0
-1877 977 437 0
1877 -977 0
1877 -437 0
-1878 978 438 0
1878 -978 0
1878 -438 0
-1879 979 439 0
1879 -979 0
1879 -439 0
-1880 980 440 0
1880 -980 0
1880 -440 0
-1881 981 441 0
1881 -981 0
1881 -441 0
-1882 982 442 0
1882 -982 0
1882 -442 0
-1883 983 443 0
1883 -983 0
1883 -443 0
-1884 984 444 0
1884 -984 0
1884 -444 0
-1885 985 445 0
1885 -985 0
1885 -445 0
-1886 986 446 0
1886 -986 0
1886 -446 0
-1887 987 447 0
1887 -987 0
1887 -447 0
-1888 988 448 0
1888 -988 0
1888 -448 0
-1889 989 449 0
1889 -989 0
1889 -449 0
-1890 990 450 0
1890 -990 0
1890 -450 0
-1891 991 451 0
1891 -991 0
1891 -451 0
-1892 992 452 0
1892 -992 0
1892 -452 0
-1893 993 453 0
1893 -993 0
1893 -453 0
-1894 994 454 0
1894 -994 0
1894 -454 0
-1895 995 455 0
1895 -995 0
1895 -455 0
-1896 996 456 0
1896 -996 0
1896 -456 0
-1897 997 457 0
1897 -997 0
1897 -457 0
-1898 998 458 0
1898 -998 0
1898 -458 0
-1899 999 459 0
1899 -999 0
1899 -459 0
-1900 1000 460 0
1900 -1000 0
1900 -460 0
-1901 1001 461 0
1901 -1001 0
1901 -461 0
-1902 1002 462 0
1902 -1002 0
1902 -462 0
-1903 1003 463 0
1903 -1003 0
1903 -463 0
-1904 1004 464 0
1904 -1004 0
1904 -464 0
-1905 1005 465 0
1905 -1005 0
1905 -465 0
-1906 1006 466 0
1906 -1006 0
1906 -466 0
-1907 1007 467 0
1907 -1007 0
1907 -467 0
-1908 1008 468 0
1908 -1008 0
1908 -468 0
-1909 1009 469 0
1909 -1009 0
1909 -469 0
-1910 1010 470 0
1910 -1010 0
1910 -470 0
-1911 1011 471 0
1911 -1011 0
1911 -471 0
-1912 1012 472 0
1912 -1012 0
1912 -472 0
-1913 1013 473 0
1913 -1013 0
1913 -473 0
-1914 1014 474 0
1914 -1014 0
1914 -474 0
-1915 1015 475 0
1915 -1015 0
1915 -475 0
-1916 1016 476 0
1916 -1016 0
1916 -476 0
-1917 1017 477 0
1917 -1017 0
1917 -477 0
-1918 1018 478 0
1918 -1018 0
1918 -478 0
-1919 1019 479 0
1919 -1019 0
1919 -479 0
-1920 1020 480 0
1920 -1020 0
1920 -480 0
1981 2041 2101 0
-1441 361 0
-1501 421 0
-1681 961 0
-1741 1021 0
-1681 -1501 0
-2041 1681 1501 0
2041 -1681 0
2041 -1501 0
-2101 1741 0
2101 -1741 0
-1981 1441 0
1981 -1441 0
1982 2042 2102 0
-1442 362 0
-1502 422 0
-1682 962 0
-1742 1022 0
-1682 -1502 0
-2042 1682 1502 0
2042 -1682 0
2042 -1502 0
-2102 1742 0
2102 -1742 0
-1982 1442 0
1982 -1442 0
1983 2043 2103 0
-1443 363 0
-1503 423 0
-1683 963 0
-1743 1023 0
-1683 -1503 0
-2043 1683 1503 0
2043 -1683 0
2043 -1503 0
-2103 1743 0
2103 -1743 0
-1983 1443 0
1983 -1443 0
1984 2044 2104 0
-1444 364 0
-1504 424 0
-1684 964 0
-1744 1024 0
-1684 -1504 0
-2044 1684 1504 0
2044 -1684 0
2044 -1504 0
-2104 1744 0
2104 -1744 0
-1984 1444 0
1984 -1444 0
1985 2045 2105 0
-1445 365 0
-1505 425 0
-1685 965 0
-1745 1025 0
-1685 -1505 0
-2045 1685 1505 0
2045 -1685 0
2045 -1505 0
-2105 1745 0
2105 -1745 0
-1985 1445 0
1985 -1445 0
1986 2046 2106 0
-1446 366 0
-1506 426 0
-1686 966 0
-1746 1026 0
-1686 -1506 0
-2046 1686 1506 0
2046 -1686 0
2046 -1506 0
-2106 1746 0
2106 -1746 0
-1986 1446 0
1986 -1446 0
1987 2047 2107 0
-1447 367 0
-1507 427 0
-1687 967 0
-1747 1027 0
-1687 -1507 0
-2047 1687 1507 0
2047 -1687 0
2047 -1507 0
-2107 1747 0
2107 -1747 0
-1987 1447 0
1987 -1447 0
1988 2048 2108 0
-1448 368 0
-1508 428 0
-1688 968 0
-1748 1028 0
-1688 -1508 0
-2048 1688 1508 0
2048 -1688 0
2048 -1508 0
-2108 1748 0
2108 -1748 0
-1988 1448 0
1988 -1448 0
1989 2049 2109 0
-1449 369 0
-1509 429 0
-1689 969 0
-1749 1029 0
-1689 -1509 0
-2049 1689 1509 0
2049 -1689 0
2049 -1509 0
-2109 1749 0
2109 -1749 0
-1989 1449 0
1989 -1449 0
1990 2050 2110 0
-1450 370 0
-1510 430 0
-1690 970 0
-1750 1030 0
-1690 -1510 0
-2050 1690 1510 0
2050 -1690 0
2050 -1510 0
-2110 1750 0
2110 -1750 0
-1990 1450 0
1990 -1450 0
1991 2051 2111 0
-1451 371 0
-1511 431 0
-1691 971 0
-1751 1031 0
-1691 -1511 0
-2051 1691 1511 0
2051 -1691 0
2051 -1511 0
-2111 1751 0
2111 -1751 0
-1991 1451 0
1991 -1451 0
1992 2052 2112 0
-1452 372 0
-1512 432 0
-1692 972 0
-1752 1032 0
-1692 -1512 0
-2052 1692 1512 0
2052 -1692 0
2052 -1512 0
-2112 1752 0
2112 -1752 0
-1992 1452 0
1992 -1452 0
1993 2053 2113 0
-1453 373 0
-1513 433 0
-1693 973 0
-1753 1033 0
-1693 -1513 0
-2053 1693 1513 0
2053 -1693 0
2053 -1513 0
-2113 1753 0
2113 -1753 0
-1993 1453 0
1993 -1453 0
1994 2054 2114 0
-1454 374 0
-1514 434 0
-1694 974 0
-1754 1034 0
-1694 -1514 0
-2054 1694 1514 0
2054 -1694 0
2054 -1514 0
-2114 1754 0
2114 -1754 0
-1994 1454 0
1994 -1454 0
1995 2055 2115 0
-1455 375 0
-1515 435 0
-1695 975 0
-1755 1035 0
-1695 -1515 0
-2055 1695 1515 0
2055 -1695 0
2055 -1515 0
-2115 1755 0
2115 -1755 0
-1995 1455 0
1995 -1455 0
1996 2056 2116 0
-1456 376 0
-1516 436 0
-1696 976 0
-1756 1036 0
-1696 -1516 0
-2056 1696 1516 0
2056 -1696 0
2056 -1516 0
-2116 1756 0
2116 -1756 0
-1996 1456 0
1996 -1456 0
1997 2057 2117 0
-1457 377 0
-1517 437 0
-1697 977 0
-1757 1037 0
-1697 -1517 0
-2057 1697 1517 0
2057 -1697 0
2057 -1517 0
-2117 1757 0
2117 -1757 0
-1997 1457 0
1997 -1457 0
1998 2058 2118 0
-1458 378 0
-1518 438 0
-1698 978 0
-1758 1038 0
-1698 -1518 0
-2058 1698 1518 0
2058 -1698 0
2058 -1518 0
-2118 1758 0
2118 -1758 0
-1998 1458 0
1998 -1458 0
1999 2059 2119 0
-1459 379 0
-1519 439 0
-1699 979 0
-1759 1039 0
-1699 -1519 0
-2059 1699 1519 0
2059 -1699 0
2059 -1519 0
-2119 1759 0
2119 -1759 0
-1999 1459 0
1999 -1459 0
2000 2060 2120 0
-1460 380 0
-1520 440 0
-1700 980 0
-1760 1040 0
-1700 -1520 0
-2060 1700 1520 0
2060 -1700 0
2060 -1520 0
-2120 1760 0
2120 -1760 0
-2000 1460 0
2000 -1460 0
2001 2061 2121 0
-1461 381 0
-1521 441 0
-1701 981 0
-1761 1041 0
-1701 -1521 0
-2061 1701 1521 0
2061 -1701 0
2061 -1521 0
-2121 1761 0
2121 -1761 0
-2001 1461 0
2001 -1461 0
2002 2062 2122 0
-1462 382 0
-1522 442 0
-1702 982 0
-1762 1042 0
-1702 -1522 0
-2062 1702 1522 0
2062 -1702 0
2062 -1522 0
-2122 1762 0
2122 -1762 0
-2002 1462 0
2002 -1462 0
2003 2063 2123 0
-1463 383 0
-1523 443 0
-1703 983 0
-1763 1043 0
-1703 -1523 0
-2063 1703 1523 0
2063 -1703 0
2063 -1523 0
-2123 1763 0
2123 -1763 0
-2003 1463 0
2003 -1463 0
2004 2064 2124 0
-1464 384 0
-1524 444 0
-1704 984 0
-1764 1044 0
-1704 -1524 0
-2064 1704 1524 0
2064 -1704 0
2064 -1524 0
-2124 1764 0
2124 -1764 0
-2004 1464 0
2004 -1464 0
2005 2065 2125 0
-1465 385 0
-1525 445 0
-1705 985 0
-1765 1045 0
-1705 -1525 0
-2065 1705 1525 0
2065 -1705 0
2065 -1525 0
-2125 1765 0
2125 -1765 0
-2005 1465 0
2005 -1465 0
2006 2066 2126 0
-1466 386 0
-1526 446 0
-1706 986 0
-1766 1046 0
-1706 -1526 0
-2066 1706 1526 0
2066 -1706 0
2066 -1526 0
-2126 1766 0
2126 -1766 0
-2006 1466 0
2006 -1466 0
2007 2067 2127 0
-1467 387 0
-1527 447 0
-1707 987 0
-1767 1047 0
-1707 -1527 0
-2067 1707 1527 0
2067 -1707 0
2067 -1527 0
-2127 1767 0
2127 -1767 0
-2007 1467 0
2007 -1467 0
2008 2068 2128 0
-1468 388 0
-1528 448 0
-1708 988 0
-1768 1048 0
-1708 -1528 0
-2068 1708 1528 0
2068 -1708 0
2068 -1528 0
-2128 1768 0
2128 -1768 0
-2008 1468 0
2008 -1468 0
2009 2069 2129 0
-1469 389 0
-1529 449 0
-1709 989 0
-1769 1049 0
-1709 -1529 0
-2069 1709 1529 0
2069 -1709 0
2069 -1529 0
-2129 1769 0
2129 -1769 0
-2009 1469 0
2009 -1469 0
2010 2070 2130 0
-1470 390 0
-1530 450 0
-1710 990 0
-1770 1050 0
-1710 -1530 0
-2070 1710 1530 0
2070 -1710 0
2070 -1530 0
-2130 1770 0
2130 -1770 0
-2010 1470 0
2010 -1470 0
2011 2071 2131 0
-1471 391 0
-1531 451 0
-1711 991 0
-1771 1051 0
-1711 -1531 0
-2071 1711 1531 0
2071 -1711 0
2071 -1531 0
-2131 1771 0
2131 -1771 0
-2011 1471 0
2011 -1471 0
2012 2072 2132 0
-1472 392 0
-1532 452 0
-1712 992 0
-1772 1052 0
-1712 -1532 0
-2072 1712 1532 0
2072 -1712 0
2072 -1532 0
-2132 1772 0
2132 -1772 0
-2012 1472 0
2012 -1472 0
2013 2073 2133 0
-1473 393 0
-1533 453 0
-1713 993 0
-1773 1053 0
-1713 -1533 0
-2073 1713 1533 0
2073 -1713 0
2073 -1533 0
-2133 1773 0
2133 -1773 0
-2013 1473 0
2013 -1473 0
2014 2074 2134 0
-1474 394 0
-1534 454 0
-1714 994 0
-1774 1054 0
-1714 -1534 0
-2074 1714 1534 0
2074 -1714 0
2074 -1534 0
-2134 1774 0
2134 -1774 0
-2014 1474 0
2014 -1474 0
2015 2075 2135 0
-1475 395 0
-1535 455 0
-1715 995 0
-1775 1055 0
-1715 -1535 0
-2075 1715 1535 0
2075 -1715 0
2075 -1535 0
-2135 1775 0
2135 -1775 0
-2015 1475 0
2015 -1475 0
2016 2076 2136 0
-1476 396 0
-1536 456 0
-1716 996 0
-1776 1056 0
-1716 -1536 0
-2076 1716 1536 0
2076 -1716 0
2076 -1536 0
-2136 1776 0
2136 -1776 0
-2016 1476 0
2016 -1476 0
2017 2077 2137 0
-1477 397 0
-1537 457 0
-1717 997 0
-1777 1057 0
-1717 -1537 0
-2077 1717 1537 0
2077 -1717 0
2077 -1537 0
-2137 1777 0
2137 -1777 0
-2017 1477 0
2017 -1477 0
2018 2078 2138 0
-1478 398 0
-1538 458 0
-1718 998 0
-1778 1058 0
-1718 -1538 0
-2078 1718 1538 0
2078 -1718 0
2078 -1538 0
-2138 1778 0
2138 -1778 0
-2018 1478 0
2018 -1478 0
2019 2079 2139 0
-1479 399 0
-1539 459 0
-1719 999 0
-1779 1059 0
-1719 -1539 0
-2079 1719 1539 0
2079 -1719 0
2079 -1539 0
-2139 1779 0
2139 -1779 0
-2019 1479 0
2019 -1479 0
2020 2080 2140 0
-1480 400 0
-1540 460 0
-1720 1000 0
-1780 1060 0
-1720 -1540 0
-2080 1720 1540 0
2080 -1720 0
2080 -1540 0
-2140 1780 0
2140 -1780 0
-2020 1480 0
2020 -1480 0
2021 2081 2141 0
-1481 401 0
-1541 461 0
-1721 1001 0
-1781 1061 0
-1721 -1541 0
-2081 1721 1541 0
2081 -1721 0
2081 -1541 0
-2141 1781 0
2141 -1781 0
-2021 1481 0
2021 -1481 0
2022 2082 2142 0
-1482 402 0
-1542 462 0
-1722 1002 0
-1782 1062 0
-1722 -1542 0
-2082 1722 1542 0
2082 -1722 0
2082 -1542 0
-2142 1782 0
2142 -1782 0
-2022 1482 0
2022 -1482 0
2023 2083 2143 0
-1483 403 0
-1543 463 0
-1723 1003 0
-1783 1063 0
-1723 -1543 0
-2083 1723 1543 0
2083 -1723 0
2083 -1543 0
-2143 1783 0
2143 -1783 0
-2023 1483 0
2023 -1483 0
2024 2084 2144 0
-1484 404 0
-1544 464 0
-1724 1004 0
-1784 1064 0
-1724 -1544 0
-2084 1724 1544 0
2084 -1724 0
2084 -1544 0
-2144 1784 0
2144 -1784 0
-2024 1484 0
2024 -1484 0
2025 2085 2145 0
-1485 405 0
-1545 465 0
-1725 1005 0
-1785 1065 0
-1725 -1545 0
-2085 1725 1545 0
2085 -1725 0
2085 -1545 0
-2145 1785 0
2145 -1785 0
-2025 1485 0
2025 -1485 0
2026 2086 2146 0
-1486 406 0
-1546 466 0
-1726 1006 0
-1786 1066 0
-1726 -1546 0
-2086 1726 1546 0
2086 -1726 0
2086 -1546 0
-2146 1786 0
2146 -1786 0
-2026 1486 0
2026 -1486 0
2027 2087 2147 0
-1487 407 0
-1547 467 0
-1727 1007 0
-1787 1067 0
-1727 -1547 0
-2087 1727 1547 0
2087 -1727 0
2087 -1547 0
-2147 1787 0
2147 -1787 0
-2027 1487 0
2027 -1487 0
2028 2088 2148 0
-1488 408 0
-1548 468 0
-1728 1008 0
-1788 1068 0
-1728 -1548 0
-2088 1728 1548 0
2088 -1728 0
2088 -1548 0
-2148 1788 0
2148 -1788 0
-2028 1488 0
2028 -1488 0
2029 2089 2149 0
-1489 409 0
-1549 469 0
-1729 1009 0
-1789 1069 0
-1729 -1549 0
-2089 1729 1549 0
2089 -1729 0
2089 -1549 0
-2149 1789 0
2149 -1789 0
-2029 1489 0
2029 -1489 0
2030 2090 2150 0
-1490 410 0
-1550 470 0
-1730 1010 0
-1790 1070 0
-1730 -1550 0
-2090 1730 1550 0
2090 -1730 0
2090 -1550 0
-2150 1790 0
2150 -1790 0
-2030 1490 0
2030 -1490 0
2031 2091 2151 0
-1491 411 0
-1551 471 0
-1731 1011 0
-1791 1071 0
-1731 -1551 0
-2091 1731 1551 0
2091 -1731 0
2091 -1551 0
-2151 1791 0
2151 -1791 0
-2031 1491 0
2031 -1491 0
2032 2092 2152 0
-1492 412 0
-1552 472 0
-1732 1012 0
-1792 1072 0
-1732 -1552 0
-2092 1732 1552 0
2092 -1732 0
2092 -1552 0
-2152 1792 0
2152 -1792 0
-2032 1492 0
2032 -1492 0
2033 2093 2153 0
-1493 413 0
-1553 473 0
-1733 1013 0
-1793 1073 0
-1733 -1553 0
-2093 1733 1553 0
2093 -1733 0
2093 -1553 0
-2153 1793 0
2153 -1793 0
-2033 1493 0
2033 -1493 0
2034 2094 2154 0
-1494 414 0
-1554 474 0
-1734 1014 0
-1794 1074 0
-1734 -1554 0
-2094 1734 1554 0
2094 -1734 0
2094 -1554 0
-2154 1794 0
2154 -1794 0
-2034 1494 0
2034 -1494 0
2035 2095 2155 0
-1495 415 0
-1555 475 0
-1735 1015 0
-1795 1075 0
-1735 -1555 0
-2095 1735 1555 0
2095 -1735 0
2095 -1555 0
-2155 1795 0
2155 -1795 0
-2035 1495 0
2035 -1495 0
2036 2096 2156 0
-1496 416 0
-1556 476 0
-1736 1016 0
-1796 1076 0
-1736 -1556 0
-2096 1736 1556 0
2096 -1736 0
2096 -1556 0
-2156 1796 0
2156 -1796 0
-2036 1496 0
2036 -1496 0
2037 2097 2157 0
-1497 417 0
-1557 477 0
-1737 1017 0
-1797 1077 0
-1737 -1557 0
-2097 1737 1557 0
2097 -1737 0
2097 -1557 0
-2157 1797 0
2157 -1797 0
-2037 1497 0
2037 -1497 0
2038 2098 2158 0
-1498 418 0
-1558 478 0
-1738 1018 0
-1798 1078 0
-1738 -1558 0
-2098 1738 1558 0
2098 -1738 0
2098 -1558 0
-2158 1798 0
2158 -1798 0
-2038 1498 0
2038 -1498 0
2039 2099 2159 0
-1499 419 0
-1559 479 0
-1739 1019 0
-1799 1079 0
-1739 -1559 0
-2099 1739 1559 0
2099 -1739 0
2099 -1559 0
-2159 1799 0
2159 -1799 0
-2039 1499 0
2039 -1499 0
-2160 0
1801 2161 0
1861 2161 0
1801 1861 2162 0
1921 2163 0
-2160 2163 0
1921 -2160 2164 0
-2161 2165 0
-2163 2165 0
-2161 -2163 2166 0
-2162 2167 0
-2164 2167 0
-2162 -2164 2168 0
-2166 2169 0
-2167 2169 0
-2166 -2167 2170 0
-2169 0
2162 2163 2164 2165 2166 2167 2168 2169 2170 2171 2172 2173 2174 2175 2176 2177 2178 2179 2180 2181 2182 2183 2184 2185 2186 2187 2188 2189 2190 2191 2192 2193 2194 2195 2196 2197 2198 2199 2200 2201 2202 2203 2204 2205 2206 2207 2208 2209 2210 2211 2212 2213 2214 2215 2216 2217 2218 2219 2220 0
2222 -2162 0
2402 -2162 0
-2222 -2402 2162 0
-2222 2582 0
-2222 2942 0
2222 -2582 -2942 0
-2402 2762 0
-2402 3122 0
2402 -2762 -3122 0
-1 2 -2582 0
1 2582 0
-2 2582 0
-181 182 -2762 0
181 2762 0
-182 2762 0
1 -2 -2942 0
-1 2942 0
2 2942 0
181 -182 -3122 0
-181 3122 0
182 3122 0
2282 -2162 0
2462 -2162 0
-2282 -2462 2162 0
-2282 2642 0
-2282 3002 0
2282 -2642 -3002 0
-2462 2822 0
-2462 3182 0
2462 -2822 -3182 0
-61 62 -2642 0
61 2642 0
-62 2642 0
-241 242 -2822 0
241 2822 0
-242 2822 0
61 -62 -3002 0
-61 3002 0
62 3002 0
241 -242 -3182 0
-241 3182 0
242 3182 0
2342 -2162 0
2522 -2162 0
-2342 -2522 2162 0
-2342 2702 0
-2342 3062 0
2342 -2702 -3062 0
-2522 2882 0
-2522 3242 0
2522 -2882 -3242 0
-121 122 -2702 0
121 2702 0
-122 2702 0
-301 302 -2882 0
301 2882 0
-302 2882 0
121 -122 -3062 0
-121 3062 0
122 3062 0
301 -302 -3242 0
-301 3242 0
302 3242 0
2223 -2163 0
2403 -2163 0
-2223 -2403 2163 0
-2223 2583 0
-2223 2943 0
2223 -2583 -2943 0
-2403 2763 0
-2403 3123 0
2403 -2763 -3123 0
-1 3 -2583 0
1 2583 0
-3 2583 0
-181 183 -2763 0
181 2763 0
-183 2763 0
1 -3 -2943 0
-1 2943 0
3 2943 0
181 -183 -3123 0
-181 3123 0
183 3123 0
2283 -2163 0
2463 -2163 0
-2283 -2463 2163 0
-2283 2643 0
-2283 3003 0
2283 -2643 -3003 0
-2463 2823 0
-2463 3183 0
2463 -2823 -3183 0
-61 63 -2643 0
61 2643 0
-63 2643 0
-241 243 -2823 0
241 2823 0
-243 2823 0
61 -63 -3003 0
-61 3003 0
63 3003 0
241 -243 -3183 0
-241 3183 0
243 3183 0
2343 -2163 0
2523 -2163 0
-2343 -2523 2163 0
-2343 2703 0
-2343 3063 0
2343 -2703 -3063 0
-2523 2883 0
-2523 3243 0
2523 -2883 -3243 0
-121 123 -2703 0
121 2703 0
-123 2703 0
-301 303 -2883 0
301 2883 0
-303 2883 0
121 -123 -3063 0
-121 3063 0
123 3063 0
301 -303 -3243 0
-301 3243 0
303 3243 0
2224 -2164 0
2404 -2164 0
-2224 -2404 2164 0
-2224 2584 0
-2224 2944 0
2224 -2584 -2944 0
-2404 2764 0
-2404 3124 0
2404 -2764 -3124 0
-1 4 -2584 0
1 2584 0
-4 2584 0
-181 184 -2764 0
181 2764 0
-184 2764 0
1 -4 -2944 0
-1 2944 0
4 2944 0
181 -184 -3124 0
-181 3124 0
184 3124 0
2284 -2164 0
2464 -2164 0
-2284 -2464 2164 0
-2284 2644 0
-2284 3004 0
2284 -2644 -3004 0
-2464 2824 0
-2464 3184 0
2464 -2824 -3184 0
-61 64 -2644 0
61 2644 0
-64 2644 0
-241 244 -2824 0
241 2824 0
-244 2824 0
61 -64 -3004 0
-61 3004 0
64 3004 0
241 -244 -3184 0
-241 3184 0
244 3184 0
2344 -2164 0
2524 -2164 0
-2344 -2524 2164 0
-2344 2704 0
-2344 3064 0
2344 -2704 -3064 0
-2524 2884 0
-2524 3244 0
2524 -2884 -3244 0
-121 124 -2704 0
121 2704 0
-124 2704 0
-301 304 -2884 0
301 2884 0
-304 2884 0
121 -124 -3064 0
-121 3064 0
124 3064 0
301 -304 -3244 0
-301 3244 0
304 3244 0
2225 -2165 0
2405 -2165 0
-2225 -2405 2165 0
-2225 2585 0
-2225 2945 0
2225 -2585 -2945 0
-2405 2765 0
-2405 3125 0
2405 -2765 -3125 0
-1 5 -2585 0
1 2585 0
-5 2585 0
-181 185 -2765 0
181 2765 0
-185 2765 0
1 -5 -2945 0
-1 2945 0
5 2945 0
181 -185 -3125 0
-181 3125 0
185 3125 0
2285 -2165 0
2465 -2165 0
-2285 -2465 2165 0
-2285 2645 0
-2285 3005 0
2285 -2645 -3005 0
-2465 2825 0
-2465 3185 0
2465 -2825 -3185 0
-61 65 -2645 0
61 2645 0
-65 2645 0
-241 245 -2825 0
241 2825 0
-245 2825 0
61 -65 -3005 0
-61 3005 0
65 3005 0
241 -245 -3185 0
-241 3185 0
245 3185 0
2345 -2165 0
2525 -2165 0
-2345 -2525 2165 0
-2345 2705 0
-2345 3065 0
2345 -2705 -3065 0
-2525 2885 0
-2525 3245 0
2525 -2885 -3245 0
-121 125 -2705 0
121 2705 0
-125 2705 0
-301 305 -2885 0
301 2885 0
-305 2885 0
121 -125 -3065 0
-121 3065 0
125 3065 0
301 -305 -3245 0
-301 3245 0
305 3245 0
2226 -2166 0
2406 -2166 0
-2226 -2406 2166 0
-2226 2586 0
-2226 2946 0
2226 -2586 -2946 0
-2406 2766 0
-2406 3126 0
2406 -2766 -3126 0
-1 6 -2586 0
1 2586 0
-6 2586 0
-181 186 -2766 0
181 2766 0
-186 2766 0
1 -6 -2946 0
-1 2946 0
6 2946 0
181 -186 -3126 0
-181 3126 0
186 3126 0
2286 -2166 0
2466 -2166 0
-2286 -2466 2166 0
-2286 2646 0
-2286 3006 0
2286 -2646 -3006 0
-2466 2826 0
-2466 3186 0
2466 -2826 -3186 0
-61 66 -2646 0
61 2646 0
-66 2646 0
-241 246 -2826 0
241 2826 0
-246 2826 0
61 -66 -3006 0
-61 3006 0
66 3006 0
241 -246 -3186 0
-241 3186 0
246 3186 0
2346 -2166 0
2526 -2166 0
-2346 -2526 2166 0
-2346 2706 0
-2346 3066 0
2346 -2706 -3066 0
-2526 2886 0
-2526 3246 0
2526 -2886 -3246 0
-121 126 -2706 0
121 2706 0
-126 2706 0
-301 306 -2886 0
301 2886 0
-306 2886 0
121 -126 -3066 0
-121 3066 0
126 3066 0
301 -306 -3246 0
-301 3246 0
306 3246 0
2227 -2167 0
2407 -2167 0
-2227 -2407 2167 0
-2227 2587 0
-2227 2947 0
2227 -2587 -2947 0
-2407 2767 0
-2407 3127 0
2407 -2767 -3127 0
-1 7 -2587 0
1 2587 0
-7 2587 0
-181 187 -2767 0
181 2767 0
-187 2767 0
1 -7 -2947 0
-1 2947 0
7 2947 0
181 -187 -3127 0
-181 3127 0
187 3127 0
2287 -2167 0
2467 -2167 0
-2287 -2467 2167 0
-2287 2647 0
-2287 3007 0
2287 -2647 -3007 0
-2467 2827 0
-2467 3187 0
2467 -2827 -3187 0
-61 67 -2647 0
61 2647 0
-67 2647 0
-241 247 -2827 0
241 2827 0
-247 2827 0
61 -67 -3007 0
-61 3007 0
67 3007 0
241 -247 -3187 0
-241 3187 0
247 3187 0
2347 -2167 0
2527 -2167 0
-2347 -2527 2167 0
-2347 2707 0
-2347 3067 0
2347 -2707 -3067 0
-2527 2887 0
-2527 3247 0
2527 -2887 -3247 0
-121 127 -2707 0
121 2707 0
-127 2707 0
-301 307 -2887 0
301 2887 0
-307 2887 0
121 -127 -3067 0
-121 3067 0
127 3067 0
301 -307 -3247 0
-301 3247 0
307 3247 0
2228 -2168 0
2408 -2168 0
-2228 -2408 2168 0
-2228 2588 0
-2228 2948 0
2228 -2588 -2948 0
-2408 2768 0
-2408 3128 0
2408 -2768 -3128 0
-1 8 -2588 0
1 2588 0
-8 2588 0
-181 188 -2768 0
181 2768 0
-188 2768 0
1 -8 -2948 0
-1 2948 0
8 2948 0
181 -188 -3128 0
-181 3128 0
188 3128 0
2288 -2168 0
2468 -2168 0
-2288 -2468 2168 0
-2288 2648 0
-2288 3008 0
2288 -2648 -3008 0
-2468 2828 0
-2468 3188 0
2468 -2828 -3188 0
-61 68 -2648 0
61 2648 0
-68 2648 0
-241 248 -2828 0
241 2828 0
-248 2828 0
61 -68 -3008 0
-61 3008 0
68 3008 0
241 -248 -3188 0
-241 3188 0
248 3188 0
2348 -2168 0
2528 -2168 0
-2348 -2528 2168 0
-2348 2708 0
-2348 3068 0
2348 -2708 -3068 0
-2528 2888 0
-2528 3248 0
2528 -2888 -3248 0
-121 128 -2708 0
121 2708 0
-128 2708 0
-301 308 -2888 0
301 2888 0
-308 2888 0
121 -128 -3068 0
-121 3068 0
128 3068 0
301 -308 -3248 0
-301 3248 0
308 3248 0
2229 -2169 0
2409 -2169 0
-2229 -2409 2169 0
-2229 2589 0
-2229 2949 0
2229 -2589 -2949 0
-2409 2769 0
-2409 3129 0
2409 -2769 -3129 0
-1 9 -2589 0
1 2589 0
-9 2589 0
-181 189 -2769 0
181 2769 0
-189 2769 0
1 -9 -2949 0
-1 2949 0
9 2949 0
181 -189 -3129 0
-181 3129 0
189 3129 0
2289 -2169 0
2469 -2169 0
-2289 -2469 2169 0
-2289 2649 0
-2289 3009 0
2289 -2649 -3009 0
-2469 2829 0
-2469 3189 0
2469 -2829 -3189 0
-61 69 -2649 0
61 2649 0
-69 2649 0
-241 249 -2829 0
241 2829 0
-249 2829 0
61 -69 -3009 0
-61 3009 0
69 3009 0
241 -249 -3189 0
-241 3189 0
249 3189 0
2349 -2169 0
2529 -2169 0
-2349 -2529 2169 0
-2349 2709 0
-2349 3069 0
2349 -2709 -3069 0
-2529 2889 0
-2529 3249 0
2529 -2889 -3249 0
-121 129 -2709 0
121 2709 0
-129 2709 0
-301 309 -2889 0
301 2889 0
-309 2889 0
121 -129 -3069 0
-121 3069 0
129 3069 0
301 -309 -3249 0
-301 3249 0
309 3249 0
2230 -2170 0
2410 -2170 0
-2230 -2410 2170 0
-2230 2590 0
-2230 2950 0
2230 -2590 -2950 0
-2410 2770 0
-2410 3130 0
2410 -2770 -3130 0
-1 10 -2590 0
1 2590 0
-10 2590 0
-181 190 -2770 0
181 2770 0
-190 2770 0
1 -10 -2950 0
-1 2950 0
10 2950 0
181 -190 -3130 0
-181 3130 0
190 3130 0
2290 -2170 0
2470 -2170 0
-2290 -2470 2170 0
-2290 2650 0
-2290 3010 0
2290 -2650 -3010 0
-2470 2830 0
-2470 3190 0
2470 -2830 -3190 0
-61 70 -2650 0
61 2650 0
-70 2650 0
-241 250 -2830 0
241 2830 0
-250 2830 0
61 -70 -3010 0
-61 3010 0
70 3010 0
241 -250 -3190 0
-241 3190 0
250 3190 0
2350 -2170 0
2530 -2170 0
-2350 -2530 2170 0
-2350 2710 0
-2350 3070 0
2350 -2710 -3070 0
-2530 2890 0
-2530 3250 0
2530 -2890 -3250 0
-121 130 -2710 0
121 2710 0
-130 2710 0
-301 310 -2890 0
301 2890 0
-310 2890 0
121 -130 -3070 0
-121 3070 0
130 3070 0
301 -310 -3250 0
-301 3250 0
310 3250 0
2231 -2171 0
2411 -2171 0
-2231 -2411 2171 0
-2231 2591 0
-2231 2951 0
2231 -2591 -2951 0
-2411 2771 0
-2411 3131 0
2411 -2771 -3131 0
-1 11 -2591 0
1 2591 0
-11 2591 0
-181 191 -2771 0
181 2771 0
-191 2771 0
1 -11 -2951 0
-1 2951 0
11 2951 0
181 -191 -3131 0
-181 3131 0
191 3131 0
2291 -2171 0
2471 -2171 0
-2291 -2471 2171 0
-2291 2651 0
-2291 3011 0
2291 -2651 -3011 0
-2471 2831 0
-2471 3191 0
2471 -2831 -3191 0
-61 71 -2651 0
61 2651 0
-71 2651 0
-241 251 -2831 0
241 2831 0
-251 2831 0
61 -71 -3011 0
-61 3011 0
71 3011 0
241 -251 -3191 0
-241 3191 0
251 3191 0
2351 -2171 0
2531 -2171 0
-2351 -2531 2171 0
-2351 2711 0
-2351 3071 0
2351 -2711 -3071 0
-2531 2891 0
-2531 3251 0
2531 -2891 -3251 0
-121 131 -2711 0
121 2711 0
-131 2711 0
-301 311 -2891 0
301 2891 0
-311 2891 0
121 -131 -3071 0
-121 3071 0
131 3071 0
301 -311 -3251 0
-301 3251 0
311 3251 0
2232 -2172 0
2412 -2172 0
-2232 -2412 2172 0
-2232 2592 0
-2232 2952 0
2232 -2592 -2952 0
-2412 2772 0
-2412 3132 0
2412 -2772 -3132 0
-1 12 -2592 0
1 2592 0
-12 2592 0
-181 192 -2772 0
181 2772 0
-192 2772 0
1 -12 -2952 0
-1 2952 0
12 2952 0
181 -192 -3132 0
-181 3132 0
192 3132 0
2292 -2172 0
2472 -2172 0
-2292 -2472 2172 0
-2292 2652 0
-2292 3012 0
2292 -2652 -3012 0
-2472 2832 0
-2472 3192 0
2472 -2832 -3192 0
-61 72 -2652 0
61 2652 0
-72 2652 0
-241 252 -2832 0
241 2832 0
-252 2832 0
61 -72 -3012 0
-61 3012 0
72 3012 0
241 -252 -3192 0
-241 3192 0
252 3192 0
2352 -2172 0
2532 -2172 0
-2352 -2532 2172 0
-2352 2712 0
-2352 3072 0
2352 -2712 -3072 0
-2532 2892 0
-2532 3252 0
2532 -2892 -3252 0
-121 132 -2712 0
121 2712 0
-132 2712 0
-301 312 -2892 0
301 2892 0
-312 2892 0
121 -132 -3072 0
-121 3072 0
132 3072 0
301 -312 -3252 0
-301 3252 0
312 3252 0
2233 -2173 0
2413 -2173 0
-2233 -2413 2173 0
-2233 2593 0
-2233 2953 0
2233 -2593 -2953 0
-2413 2773 0
-2413 3133 0
2413 -2773 -3133 0
-1 13 -2593 0
1 2593 0
-13 2593 0
-181 193 -2773 0
181 2773 0
-193 2773 0
1 -13 -2953 0
-1 2953 0
13 2953 0
181 -193 -3133 0
-181 3133 0
193 3133 0
2293 -2173 0
2473 -2173 0
-2293 -2473 2173 0
-2293 2653 0
-2293 3013 0
2293 -2653 -3013 0
-2473 2833 0
-2473 3193 0
2473 -2833 -3193 0
-61 73 -2653 0
61 2653 0
-73 2653 0
-241 253 -2833 0
241 2833 0
-253 2833 0
61 -73 -3013 0
-61 3013 0
73 3013 0
241 -253 -3193 0
-241 3193 0
253 3193 0
2353 -2173 0
2533 -2173 0
-2353 -2533 2173 0
-2353 2713 0
-2353 3073 0
2353 -2713 -3073 0
-2533 2893 0
-2533 3253 0
2533 -2893 -3253 0
-121 133 -2713 0
121 2713 0
-133 2713 0
-301 313 -2893 0
301 2893 0
-313 2893 0
121 -133 -3073 0
-121 3073 0
133 3073 0
301 -313 -3253 0
-301 3253 0
313 3253 0
2234 -2174 0
2414 -2174 0
-2234 -2414 2174 0
-2234 2594 0
-2234 2954 0
2234 -2594 -2954 0
-2414 2774 0
-2414 3134 0
2414 -2774 -3134 0
-1 14 -2594 0
1 2594 0
-14 2594 0
-181 194 -2774 0
181 2774 0
-194 2774 0
1 -14 -2954 0
-1 2954 0
14 2954 0
181 -194 -3134 0
-181 3134 0
194 3134 0
2294 -2174 0
2474 -2174 0
-2294 -2474 2174 0
-2294 2654 0
-2294 3014 0
2294 -2654 -3014 0
-2474 2834 0
-2474 3194 0
2474 -2834 -3194 0
-61 74 -2654 0
61 2654 0
-74 2654 0
-241 254 -2834 0
241 2834 0
-254 2834 0
61 -74 -3014 0
-61 3014 0
74 3014 0
241 -254 -3194 0
-241 3194 0
254 3194 0
2354 -2174 0
2534 -2174 0
-2354 -2534 2174 0
-2354 2714 0
-2354 3074 0
2354 -2714 -3074 0
-2534 2894 0
-2534 3254 0
2534 -2894 -3254 0
-121 134 -2714 0
121 2714 0
-134 2714 0
-301 314 -2894 0
301 2894 0
-314 2894 0
121 -134 -3074 0
-121 3074 0
134 3074 0
301 -314 -3254 0
-301 3254 0
314 3254 0
2235 -2175 0
2415 -2175 0
-2235 -2415 2175 0
-2235 2595 0
-2235 2955 0
2235 -2595 -2955 0
-2415 2775 0
-2415 3135 0
2415 -2775 -3135 0
-1 15 -2595 0
1 2595 0
-15 2595 0
-181 195 -2775 0
181 2775 0
-195 2775 0
1 -15 -2955 0
-1 2955 0
15 2955 0
181 -195 -3135 0
-181 3135 0
195 3135 0
2295 -2175 0
2475 -2175 0
-2295 -2475 2175 0
-2295 2655 0
-2295 3015 0
2295 -2655 -3015 0
-2475 2835 0
-2475 3195 0
2475 -2835 -3195 0
-61 75 -2655 0
61 2655 0
-75 2655 0
-241 255 -2835 0
241 2835 0
-255 2835 0
61 -75 -3015 0
-61 3015 0
75 3015 0
241 -255 -3195 0
-241 3195 0
255 3195 0
2355 -2175 0
2535 -2175 0
-2355 -2535 2175 0
-2355 2715 0
-2355 3075 0
2355 -2715 -3075 0
-2535 2895 0
-2535 3255 0
2535 -2895 -3255 0
-121 135 -2715 0
121 2715 0
-135 2715 0
-301 315 -2895 0
301 2895 0
-315 2895 0
121 -135 -3075 0
-121 3075 0
135 3075 0
301 -315 -3255 0
-301 3255 0
315 3255 0
2236 -2176 0
2416 -2176 0
-2236 -2416 2176 0
-2236 2596 0
-2236 2956 0
2236 -2596 -2956 0
-2416 2776 0
-2416 3136 0
2416 -2776 -3136 0
-1 16 -2596 0
1 2596 0
-16 2596 0
-181 196 -2776 0
181 2776 0
-196 2776 0
1 -16 -2956 0
-1 2956 0
16 2956 0
181 -196 -3136 0
-181 3136 0
196 3136 0
2296 -2176 0
2476 -2176 0
-2296 -2476 2176 0
-2296 2656 0
-2296 3016 0
2296 -2656 -3016 0
-2476 2836 0
-2476 3196 0
2476 -2836 -3196 0
-61 76 -2656 0
61 2656 0
-76 2656 0
-241 256 -2836 0
241 2836 0
-256 2836 0
61 -76 -3016 0
-61 3016 0
76 3016 0
241 -256 -3196 0
-241 3196 0
256 3196 0
2356 -2176 0
2536 -2176 0
-2356 -2536 2176 0
-2356 2716 0
-2356 3076 0
2356 -2716 -3076 0
-2536 2896 0
-2536 3256 0
2536 -2896 -3256 0
-121 136 -2716 0
121 2716 0
-136 2716 0
-301 316 -2896 0
301 2896 0
-316 2896 0
121 -136 -3076 0
-121 3076 0
136 3076 0
301 -316 -3256 0
-301 3256 0
316 3256 0
2237 -2177 0
2417 -2177 0
-2237 -2417 2177 0
-2237 2597 0
-2237 2957 0
2237 -2597 -2957 0
-2417 2777 0
-2417 3137 0
2417 -2777 -3137 0
-1 17 -2597 0
1 2597 0
-17 2597 0
-181 197 -2777 0
181 2777 0
-197 2777 0
1 -17 -2957 0
-1 2957 0
17 2957 0
181 -197 -3137 0
-181 3137 0
197 3137 0
2297 -2177 0
2477 -2177 0
-2297 -2477 2177 0
-2297 2657 0
-2297 3017 0
2297 -2657 -3017 0
-2477 2837 0
-2477 3197 0
2477 -2837 -3197 0
-61 77 -2657 0
61 2657 0
-77 2657 0
-241 257 -2837 0
241 2837 0
-257 2837 0
61 -77 -3017 0
-61 3017 0
77 3017 0
241 -257 -3197 0
-241 3197 0
257 3197 0
2357 -2177 0
2537 -2177 0
-2357 -2537 2177 0
-2357 2717 0
-2357 3077 0
2357 -2717 -3077 0
-2537 2897 0
-2537 3257 0
2537 -2897 -3257 0
-121 137 -2717 0
121 2717 0
-137 2717 0
-301 317 -2897 0
301 2897 0
-317 2897 0
121 -137 -3077 0
-121 3077 0
137 3077 0
301 -317 -3257 0
-301 3257 0
317 3257 0
2238 -2178 0
2418 -2178 0
-2238 -2418 2178 0
-2238 2598 0
-2238 2958 0
2238 -2598 -2958 0
-2418 2778 0
-2418 3138 0
2418 -2778 -3138 0
-1 18 -2598 0
1 2598 0
-18 2598 0
-181 198 -2778 0
181 2778 0
-198 2778 0
1 -18 -2958 0
-1 2958 0
18 2958 0
181 -198 -3138 0
-181 3138 0
198 3138 0
2298 -2178 0
2478 -2178 0
-2298 -2478 2178 0
-2298 2658 0
-2298 3018 0
2298 -2658 -3018 0
-2478 2838 0
-2478 3198 0
2478 -2838 -3198 0
-61 78 -2658 0
61 2658 0
-78 2658 0
-241 258 -2838 0
241 2838 0
-258 2838 0
61 -78 -3018 0
-61 3018 0
78 3018 0
241 -258 -3198 0
-241 3198 0
258 3198 0
2358 -2178 0
2538 -2178 0
-2358 -2538 2178 0
-2358 2718 0
-2358 3078 0
2358 -2718 -3078 0
-2538 2898 0
-2538 3258 0
2538 -2898 -3258 0
-121 138 -2718 0
121 2718 0
-138 2718 0
-301 318 -2898 0
301 2898 0
-318 2898 0
121 -138 -3078 0
-121 3078 0
138 3078 0
301 -318 -3258 0
-301 3258 0
318 3258 0
2239 -2179 0
2419 -2179 0
-2239 -2419 2179 0
-2239 2599 0
-2239 2959 0
2239 -2599 -2959 0
-2419 2779 0
-2419 3139 0
2419 -2779 -3139 0
-1 19 -2599 0
1 2599 0
-19 2599 0
-181 199 -2779 0
181 2779 0
-199 2779 0
1 -19 -2959 0
-1 2959 0
19 2959 0
181 -199 -3139 0
-181 3139 0
199 3139 0
2299 -2179 0
2479 -2179 0
-2299 -2479 2179 0
-2299 2659 0
-2299 3019 0
2299 -2659 -3019 0
-2479 2839 0
-2479 3199 0
2479 -2839 -3199 0
-61 79 -2659 0
61 2659 0
-79 2659 0
-241 259 -2839 0
241 2839 0
-259 2839 0
61 -79 -3019 0
-61 3019 0
79 3019 0
241 -259 -3199 0
-241 3199 0
259 3199 0
2359 -2179 0
2539 -2179 0
-2359 -2539 2179 0
-2359 2719 0
-2359 3079 0
2359 -2719 -3079 0
-2539 2899 0
-2539 3259 0
2539 -2899 -3259 0
-121 139 -2719 0
121 2719 0
-139 2719 0
-301 319 -2899 0
301 2899 0
-319 2899 0
121 -139 -3079 0
-121 3079 0
139 3079 0
301 -319 -3259 0
-301 3259 0
319 3259 0
2240 -2180 0
2420 -2180 0
-2240 -2420 2180 0
-2240 2600 0
-2240 2960 0
2240 -2600 -2960 0
-2420 2780 0
-2420 3140 0
2420 -2780 -3140 0
-1 20 -2600 0
1 2600 0
-20 2600 0
-181 200 -2780 0
181 2780 0
-200 2780 0
1 -20 -2960 0
-1 2960 0
20 2960 0
181 -200 -3140 0
-181 3140 0
200 3140 0
2300 -2180 0
2480 -2180 0
-2300 -2480 2180 0
-2300 2660 0
-2300 3020 0
2300 -2660 -3020 0
-2480 2840 0
-2480 3200 0
2480 -2840 -3200 0
-61 80 -2660 0
61 2660 0
-80 2660 0
-241 260 -2840 0
241 2840 0
-260 2840 0
61 -80 -3020 0
-61 3020 0
80 3020 0
241 -260 -3200 0
-241 3200 0
260 3200 0
2360 -2180 0
2540 -2180 0
-2360 -2540 2180 0
-2360 2720 0
-2360 3080 0
2360 -2720 -3080 0
-2540 2900 0
-2540 3260 0
2540 -2900 -3260 0
-121 140 -2720 0
121 2720 0
-140 2720 0
-301 320 -2900 0
301 2900 0
-320 2900 0
121 -140 -3080 0
-121 3080 0
140 3080 0
301 -320 -3260 0
-301 3260 0
320 3260 0
2241 -2181 0
2421 -2181 0
-2241 -2421 2181 0
-2241 2601 0
-2241 2961 0
2241 -2601 -2961 0
-2421 2781 0
-2421 3141 0
2421 -2781 -3141 0
-1 21 -2601 0
1 2601 0
-21 2601 0
-181 201 -2781 0
181 2781 0
-201 2781 0
1 -21 -2961 0
-1 2961 0
21 2961 0
181 -201 -3141 0
-181 3141 0
201 3141 0
2301 -2181 0
2481 -2181 0
-2301 -2481 2181 0
-2301 2661 0
-2301 3021 0
2301 -2661 -3021 0
-2481 2841 0
-2481 3201 0
2481 -2841 -3201 0
-61 81 -2661 0
61 2661 0
-81 2661 0
-241 261 -2841 0
241 2841 0
-261 2841 0
61 -81 -3021 0
-61 3021 0
81 3021 0
241 -261 -3201 0
-241 3201 0
261 3201 0
2361 -2181 0
2541 -2181 0
-2361 -2541 2181 0
-2361 2721 0
-2361 3081 0
2361 -2721 -3081 0
-2541 2901 0
-2541 3261 0
2541 -2901 -3261 0
-121 141 -2721 0
121 2721 0
-141 2721 0
-301 321 -2901 0
301 2901 0
-321 2901 0
121 -141 -3081 0
-121 3081 0
141 3081 0
301 -321 -3261 0
-301 3261 0
321 3261 0
2242 -2182 0
2422 -2182 0
-2242 -2422 2182 0
-2242 2602 0
-2242 2962 0
2242 -2602 -2962 0
-2422 2782 0
-2422 3142 0
2422 -2782 -3142 0
-1 22 -2602 0
1 2602 0
-22 2602 0
-181 202 -2782 0
181 2782 0
-202 2782 0
1 -22 -2962 0
-1 2962 0
22 2962 0
181 -202 -3142 0
-181 3142 0
202 3142 0
2302 -2182 0
2482 -2182 0
-2302 -2482 2182 0
-2302 2662 0
-2302 3022 0
2302 -2662 -3022 0
-2482 2842 0
-2482 3202 0
2482 -2842 -3202 0
-61 82 -2662 0
61 2662 0
-82 2662 0
-241 262 -2842 0
241 2842 0
-262 2842 0
61 -82 -3022 0
-61 3022 0
82 3022 0
241 -262 -3202 0
-241 3202 0
262 3202 0
2362 -2182 0
2542 -2182 0
-2362 -2542 2182 0
-2362 2722 0
-2362 3082 0
2362 -2722 -3082 0
-2542 2902 0
-2542 3262 0
2542 -2902 -3262 0
-121 142 -2722 0
121 2722 0
-142 2722 0
-301 322 -2902 0
301 2902 0
-322 2902 0
121 -142 -3082 0
-121 3082 0
142 3082 0
301 -322 -3262 0
-301 3262 0
322 3262 0
2243 -2183 0
2423 -2183 0
-2243 -2423 2183 0
-2243 2603 0
-2243 2963 0
2243 -2603 -2963 0
-2423 2783 0
-2423 3143 0
2423 -2783 -3143 0
-1 23 -2603 0
1 2603 0
-23 2603 0
-181 203 -2783 0
181 2783 0
-203 2783 0
1 -23 -2963 0
-1 2963 0
23 2963 0
181 -203 -3143 0
-181 3143 0
203 3143 0
2303 -2183 0
2483 -2183 0
-2303 -2483 2183 0
-2303 2663 0
-2303 3023 0
2303 -2663 -3023 0
-2483 2843 0
-2483 3203 0
2483 -2843 -3203 0
-61 83 -2663 0
61 2663 0
-83 2663 0
-241 263 -2843 0
241 2843 0
-263 2843 0
61 -83 -3023 0
-61 3023 0
83 3023 0
241 -263 -3203 0
-241 3203 0
263 3203 0
2363 -2183 0
2543 -2183 0
-2363 -2543 2183 0
-2363 2723 0
-2363 3083 0
2363 -2723 -3083 0
-2543 2903 0
-2543 3263 0
2543 -2903 -3263 0
-121 143 -2723 0
121 2723 0
-143 2723 0
-301 323 -2903 0
301 2903 0
-323 2903 0
121 -143 -3083 0
-121 3083 0
143 3083 0
301 -323 -3263 0
-301 3263 0
323 3263 0
2244 -2184 0
2424 -2184 0
-2244 -2424 2184 0
-2244 2604 0
-2244 2964 0
2244 -2604 -2964 0
-2424 2784 0
-2424 3144 0
2424 -2784 -3144 0
-1 24 -2604 0
1 2604 0
-24 2604 0
-181 204 -2784 0
181 2784 0
-204 2784 0
1 -24 -2964 0
-1 2964 0
24 2964 0
181 -204 -3144 0
-181 3144 0
204 3144 0
2304 -2184 0
2484 -2184 0
-2304 -2484 2184 0
-2304 2664 0
-2304 3024 0
2304 -2664 -3024 0
-2484 2844 0
-2484 3204 0
2484 -2844 -3204 0
-61 84 -2664 0
61 2664 0
-84 2664 0
-241 264 -2844 0
241 2844 0
-264 2844 0
61 -84 -3024 0
-61 3024 0
84 3024 0
241 -264 -3204 0
-241 3204 0
264 3204 0
2364 -2184 0
2544 -2184 0
-2364 -2544 2184 0
-2364 2724 0
-2364 3084 0
2364 -2724 -3084 0
-2544 2904 0
-2544 3264 0
2544 -2904 -3264 0
-121 144 -2724 0
121 2724 0
-144 2724 0
-301 324 -2904 0
301 2904 0
-324 2904 0
121 -144 -3084 0
-121 3084 0
144 3084 0
301 -324 -3264 0
-301 3264 0
324 3264 0
2245 -2185 0
2425 -2185 0
-2245 -2425 2185 0
-2245 2605 0
-2245 2965 0
2245 -2605 -2965 0
-2425 2785 0
-2425 3145 0
2425 -2785 -3145 0
-1 25 -2605 0
1 2605 0
-25 2605 0
-181 205 -2785 0
181 2785 0
-205 2785 0
1 -25 -2965 0
-1 2965 0
25 2965 0
181 -205 -3145 0
-181 3145 0
205 3145 0
2305 -2185 0
2485 -2185 0
-2305 -2485 2185 0
-2305 2665 0
-2305 3025 0
2305 -2665 -3025 0
-2485 2845 0
-2485 3205 0
2485 -2845 -3205 0
-61 85 -2665 0
61 2665 0
-85 2665 0
-241 265 -2845 0
241 2845 0
-265 2845 0
61 -85 -3025 0
-61 3025 0
85 3025 0
241 -265 -3205 0
-241 3205 0
265 3205 0
2365 -2185 0
2545 -2185 0
-2365 -2545 2185 0
-2365 2725 0
-2365 3085 0
2365 -2725 -3085 0
-2545 2905 0
-2545 3265 0
2545 -2905 -3265 0
-121 145 -2725 0
121 2725 0
-145 2725 0
-301 325 -2905 0
301 2905 0
-325 2905 0
121 -145 -3085 0
-121 3085 0
145 3085 0
301 -325 -3265 0
-301 3265 0
325 3265 0
2246 -2186 0
2426 -2186 0
-2246 -2426 2186 0
-2246 2606 0
-2246 2966 0
2246 -2606 -2966 0
-2426 2786 0
-2426 3146 0
2426 -2786 -3146 0
-1 26 -2606 0
1 2606 0
-26 2606 0
-181 206 -2786 0
181 2786 0
-206 2786 0
1 -26 -2966 0
-1 2966 0
26 2966 0
181 -206 -3146 0
-181 3146 0
206 3146 0
2306 -2186 0
2486 -2186 0
-2306 -2486 2186 0
-2306 2666 0
-2306 3026 0
2306 -2666 -3026 0
-2486 2846 0
-2486 3206 0
2486 -2846 -3206 0
-61 86 -2666 0
61 2666 0
-86 2666 0
-241 266 -2846 0
241 2846 0
-266 2846 0
61 -86 -3026 0
-61 3026 0
86 3026 0
241 -266 -3206 0
-241 3206 0
266 3206 0
2366 -2186 0
2546 -2186 0
-2366 -2546 2186 0
-2366 2726 0
-2366 3086 0
2366 -2726 -3086 0
-2546 2906 0
-2546 3266 0
2546 -2906 -3266 0
-121 146 -2726 0
121 2726 0
-146 2726 0
-301 326 -2906 0
301 2906 0
-326 2906 0
121 -146 -3086 0
-121 3086 0
146 3086 0
301 -326 -3266 0
-301 3266 0
326 3266 0
2247 -2187 0
2427 -2187 0
-2247 -2427 2187 0
-2247 2607 0
-2247 2967 0
2247 -2607 -2967 0
-2427 2787 0
-2427 3147 0
2427 -2787 -3147 0
-1 27 -2607 0
1 2607 0
-27 2607 0
-181 207 -2787 0
181 2787 0
-207 2787 0
1 -27 -2967 0
-1 2967 0
27 2967 0
181 -207 -3147 0
-181 3147 0
207 3147 0
2307 -2187 0
2487 -2187 0
-2307 -2487 2187 0
-2307 2667 0
-2307 3027 0
2307 -2667 -3027 0
-2487 2847 0
-2487 3207 0
2487 -2847 -3207 0
-61 87 -2667 0
61 2667 0
-87 2667 0
-241 267 -2847 0
241 2847 0
-267 2847 0
61 -87 -3027 0
-61 3027 0
87 3027 0
241 -267 -3207 0
-241 3207 0
267 3207 0
2367 -2187 0
2547 -2187 0
-2367 -2547 2187 0
-2367 2727 0
-2367 3087 0
2367 -2727 -3087 0
-2547 2907 0
-2547 3267 0
2547 -2907 -3267 0
-121 147 -2727 0
121 2727 0
-147 2727 0
-301 327 -2907 0
301 2907 0
-327 2907 0
121 -147 -3087 0
-121 3087 0
147 3087 0
301 -327 -3267 0
-301 3267 0
327 3267 0
2248 -2188 0
2428 -2188 0
-2248 -2428 2188 0
-2248 2608 0
-2248 2968 0
2248 -2608 -2968 0
-2428 2788 0
-2428 3148 0
2428 -2788 -3148 0
-1 28 -2608 0
1 2608 0
-28 2608 0
-181 208 -2788 0
181 2788 0
-208 2788 0
1 -28 -2968 0
-1 2968 0
28 2968 0
181 -208 -3148 0
-181 3148 0
208 3148 0
2308 -2188 0
2488 -2188 0
-2308 -2488 2188 0
-2308 2668 0
-2308 3028 0
2308 -2668 -3028 0
-2488 2848 0
-2488 3208 0
2488 -2848 -3208 0
-61 88 -2668 0
61 2668 0
-88 2668 0
-241 268 -2848 0
241 2848 0
-268 2848 0
61 -88 -3028 0
-61 3028 0
88 3028 0
241 -268 -3208 0
-241 3208 0
268 3208 0
2368 -2188 0
2548 -2188 0
-2368 -2548 2188 0
-2368 2728 0
-2368 3088 0
2368 -2728 -3088 0
-2548 2908 0
-2548 3268 0
2548 -2908 -3268 0
-121 148 -2728 0
121 2728 0
-148 2728 0
-301 328 -2908 0
301 2908 0
-328 2908 0
121 -148 -3088 0
-121 3088 0
148 3088 0
301 -328 -3268 0
-301 3268 0
328 3268 0
2249 -2189 0
2429 -2189 0
-2249 -2429 2189 0
-2249 2609 0
-2249 2969 0
2249 -2609 -2969 0
-2429 2789 0
-2429 3149 0
2429 -2789 -3149 0
-1 29 -2609 0
1 2609 0
-29 2609 0
-181 209 -2789 0
181 2789 0
-209 2789 0
1 -29 -2969 0
-1 2969 0
29 2969 0
181 -209 -3149 0
-181 3149 0
209 3149 0
2309 -2189 0
2489 -2189 0
-2309 -2489 2189 0
-2309 2669 0
-2309 3029 0
2309 -2669 -3029 0
-2489 2849 0
-2489 3209 0
2489 -2849 -3209 0
-61 89 -2669 0
61 2669 0
-89 2669 0
-241 269 -2849 0
241 2849 0
-269 2849 0
61 -89 -3029 0
-61 3029 0
89 3029 0
241 -269 -3209 0
-241 3209 0
269 3209 0
2369 -2189 0
2549 -2189 0
-2369 -2549 2189 0
-2369 2729 0
-2369 3089 0
2369 -2729 -3089 0
-2549 2909 0
-2549 3269 0
2549 -2909 -3269 0
-121 149 -2729 0
121 2729 0
-149 2729 0
-301 329 -2909 0
301 2909 0
-329 2909 0
121 -149 -3089 0
-121 3089 0
149 3089 0
301 -329 -3269 0
-301 3269 0
329 3269 0
2250 -2190 0
2430 -2190 0
-2250 -2430 2190 0
-2250 2610 0
-2250 2970 0
2250 -2610 -2970 0
-2430 2790 0
-2430 3150 0
2430 -2790 -3150 0
-1 30 -2610 0
1 2610 0
-30 2610 0
-181 210 -2790 0
181 2790 0
-210 2790 0
1 -30 -2970 0
-1 2970 0
30 2970 0
181 -210 -3150 0
-181 3150 0
210 3150 0
2310 -2190 0
2490 -2190 0
-2310 -2490 2190 0
-2310 2670 0
-2310 3030 0
2310 -2670 -3030 0
-2490 2850 0
-2490 3210 0
2490 -2850 -3210 0
-61 90 -2670 0
61 2670 0
-90 2670 0
-241 270 -2850 0
241 2850 0
-270 2850 0
61 -90 -3030 0
-61 3030 0
90 3030 0
241 -270 -3210 0
-241 3210 0
270 3210 0
2370 -2190 0
2550 -2190 0
-2370 -2550 2190 0
-2370 2730 0
-2370 3090 0
2370 -2730 -3090 0
-2550 2910 0
-2550 3270 0
2550 -2910 -3270 0
-121 150 -2730 0
121 2730 0
-150 2730 0
-301 330 -2910 0
301 2910 0
-330 2910 0
121 -150 -3090 0
-121 3090 0
150 3090 0
301 -330 -3270 0
-301 3270 0
330 3270 0
2251 -2191 0
2431 -2191 0
-2251 -2431 2191 0
-2251 2611 0
-2251 2971 0
2251 -2611 -2971 0
-2431 2791 0
-2431 3151 0
2431 -2791 -3151 0
-1 31 -2611 0
1 2611 0
-31 2611 0
-181 211 -2791 0
181 2791 0
-211 2791 0
1 -31 -2971 0
-1 2971 0
31 2971 0
181 -211 -3151 0
-181 3151 0
211 3151 0
2311 -2191 0
2491 -2191 0
-2311 -2491 2191 0
-2311 2671 0
-2311 3031 0
2311 -2671 -3031 0
-2491 2851 0
-2491 3211 0
2491 -2851 -3211 0
-61 91 -2671 0
61 2671 0
-91 2671 0
-241 271 -2851 0
241 2851 0
-271 2851 0
61 -91 -3031 0
-61 3031 0
91 3031 0
241 -271 -3211 0
-241 3211 0
271 3211 0
2371 -2191 0
2551 -2191 0
-2371 -2551 2191 0
-2371 2731 0
-2371 3091 0
2371 -2731 -3091 0
-2551 2911 0
-2551 3271 0
2551 -2911 -3271 0
-121 151 -2731 0
121 2731 0
-151 2731 0
-301 331 -2911 0
301 2911 0
-331 2911 0
121 -151 -3091 0
-121 3091 0
151 3091 0
301 -331 -3271 0
-301 3271 0
331 3271 0
2252 -2192 0
2432 -2192 0
-2252 -2432 2192 0
-2252 2612 0
-2252 2972 0
2252 -2612 -2972 0
-2432 2792 0
-2432 3152 0
2432 -2792 -3152 0
-1 32 -2612 0
1 2612 0
-32 2612 0
-181 212 -2792 0
181 2792 0
-212 2792 0
1 -32 -2972 0
-1 2972 0
32 2972 0
181 -212 -3152 0
-181 3152 0
212 3152 0
2312 -2192 0
2492 -2192 0
-2312 -2492 2192 0
-2312 2672 0
-2312 3032 0
2312 -2672 -3032 0
-2492 2852 0
-2492 3212 0
2492 -2852 -3212 0
-61 92 -2672 0
61 2672 0
-92 2672 0
-241 272 -2852 0
241 2852 0
-272 2852 0
61 -92 -3032 0
-61 3032 0
92 3032 0
241 -272 -3212 0
-241 3212 0
272 3212 0
2372 -2192 0
2552 -2192 0
-2372 -2552 2192 0
-2372 2732 0
-2372 3092 0
2372 -2732 -3092 0
-2552 2912 0
-2552 3272 0
2552 -2912 -3272 0
-121 152 -2732 0
121 2732 0
-152 2732 0
-301 332 -2912 0
301 2912 0
-332 2912 0
121 -152 -3092 0
-121 3092 0
152 3092 0
301 -332 -3272 0
-301 3272 0
332 3272 0
2253 -2193 0
2433 -2193 0
-2253 -2433 2193 0
-2253 2613 0
-2253 2973 0
2253 -2613 -2973 0
-2433 2793 0
-2433 3153 0
2433 -2793 -3153 0
-1 33 -2613 0
1 2613 0
-33 2613 0
-181 213 -2793 0
181 2793 0
-213 2793 0
1 -33 -2973 0
-1 2973 0
33 2973 0
181 -213 -3153 0
-181 3153 0
213 3153 0
2313 -2193 0
2493 -2193 0
-2313 -2493 2193 0
-2313 2673 0
-2313 3033 0
2313 -2673 -3033 0
-2493 2853 0
-2493 3213 0
2493 -2853 -3213 0
-61 93 -2673 0
61 2673 0
-93 2673 0
-241 273 -2853 0
241 2853 0
-273 2853 0
61 -93 -3033 0
-61 3033 0
93 3033 0
241 -273 -3213 0
-241 3213 0
273 3213 0
2373 -2193 0
2553 -2193 0
-2373 -2553 2193 0
-2373 2733 0
-2373 3093 0
2373 -2733 -3093 0
-2553 2913 0
-2553 3273 0
2553 -2913 -3273 0
-121 153 -2733 0
121 2733 0
-153 2733 0
-301 333 -2913 0
301 2913 0
-333 2913 0
121 -153 -3093 0
-121 3093 0
153 3093 0
301 -333 -3273 0
-301 3273 0
333 3273 0
2254 -2194 0
2434 -2194 0
-2254 -2434 2194 0
-2254 2614 0
-2254 2974 0
2254 -2614 -2974 0
-2434 2794 0
-2434 3154 0
2434 -2794 -3154 0
-1 34 -2614 0
1 2614 0
-34 2614 0
-181 214 -2794 0
181 2794 0
-214 2794 0
1 -34 -2974 0
-1 2974 0
34 2974 0
181 -214 -3154 0
-181 3154 0
214 3154 0
2314 -2194 0
2494 -2194 0
-2314 -2494 2194 0
-2314 2674 0
-2314 3034 0
2314 -2674 -3034 0
-2494 2854 0
-2494 3214 0
2494 -2854 -3214 0
-61 94 -2674 0
61 2674 0
-94 2674 0
-241 274 -2854 0
241 2854 0
-274 2854 0
61 -94 -3034 0
-61 3034 0
94 3034 0
241 -274 -3214 0
-241 3214 0
274 3214 0
2374 -2194 0
2554 -2194 0
-2374 -2554 2194 0
-2374 2734 0
-2374 3094 0
2374 -2734 -3094 0
-2554 2914 0
-2554 3274 0
2554 -2914 -3274 0
-121 154 -2734 0
121 2734 0
-154 2734 0
-301 334 -2914 0
301 2914 0
-334 2914 0
121 -154 -3094 0
-121 3094 0
154 3094 0
301 -334 -3274 0
-301 3274 0
334 3274 0
2255 -2195 0
2435 -2195 0
-2255 -2435 2195 0
-2255 2615 0
-2255 2975 0
2255 -2615 -2975 0
-2435 2795 0
-2435 3155 0
2435 -2795 -3155 0
-1 35 -2615 0
1 2615 0
-35 2615 0
-181 215 -2795 0
181 2795 0
-215 2795 0
1 -35 -2975 0
-1 2975 0
35 2975 0
181 -215 -3155 0
-181 3155 0
215 3155 0
2315 -2195 0
2495 -2195 0
-2315 -2495 2195 0
-2315 2675 0
-2315 3035 0
2315 -2675 -3035 0
-2495 2855 0
-2495 3215 0
2495 -2855 -3215 0
-61 95 -2675 0
61 2675 0
-95 2675 0
-241 275 -2855 0
241 2855 0
-275 2855 0
61 -95 -3035 0
-61 3035 0
95 3035 0
241 -275 -3215 0
-241 3215 0
275 3215 0
2375 -2195 0
2555 -2195 0
-2375 -2555 2195 0
-2375 2735 0
-2375 3095 0
2375 -2735 -3095 0
-2555 2915 0
-2555 3275 0
2555 -2915 -3275 0
-121 155 -2735 0
121 2735 0
-155 2735 0
-301 335 -2915 0
301 2915 0
-335 2915 0
121 -155 -3095 0
-121 3095 0
155 3095 0
301 -335 -3275 0
-301 3275 0
335 3275 0
2256 -2196 0
2436 -2196 0
-2256 -2436 2196 0
-2256 2616 0
-2256 2976 0
2256 -2616 -2976 0
-2436 2796 0
-2436 3156 0
2436 -2796 -3156 0
-1 36 -2616 0
1 2616 0
-36 2616 0
-181 216 -2796 0
181 2796 0
-216 2796 0
1 -36 -2976 0
-1 2976 0
36 2976 0
181 -216 -3156 0
-181 3156 0
216 3156 0
2316 -2196 0
2496 -2196 0
-2316 -2496 2196 0
-2316 2676 0
-2316 3036 0
2316 -2676 -3036 0
-2496 2856 0
-2496 3216 0
2496 -2856 -3216 0
-61 96 -2676 0
61 2676 0
-96 2676 0
-241 276 -2856 0
241 2856 0
-276 2856 0
61 -96 -3036 0
-61 3036 0
96 3036 0
241 -276 -3216 0
-241 3216 0
276 3216 0
2376 -2196 0
2556 -2196 0
-2376 -2556 2196 0
-2376 2736 0
-2376 3096 0
2376 -2736 -3096 0
-2556 2916 0
-2556 3276 0
2556 -2916 -3276 0
-121 156 -2736 0
121 2736 0
-156 2736 0
-301 336 -2916 0
301 2916 0
-336 2916 0
121 -156 -3096 0
-121 3096 0
156 3096 0
301 -336 -3276 0
-301 3276 0
336 3276 0
2257 -2197 0
2437 -2197 0
-2257 -2437 2197 0
-2257 2617 0
-2257 2977 0
2257 -2617 -2977 0
-2437 2797 0
-2437 3157 0
2437 -2797 -3157 0
-1 37 -2617 0
1 2617 0
-37 2617 0
-181 217 -2797 0
181 2797 0
-217 2797 0
1 -37 -2977 0
-1 2977 0
37 2977 0
181 -217 -3157 0
-181 3157 0
217 3157 0
2317 -2197 0
2497 -2197 0
-2317 -2497 2197 0
-2317 2677 0
-2317 3037 0
2317 -2677 -3037 0
-2497 2857 0
-2497 3217 0
2497 -2857 -3217 0
-61 97 -2677 0
61 2677 0
-97 2677 0
-241 277 -2857 0
241 2857 0
-277 2857 0
61 -97 -3037 0
-61 3037 0
97 3037 0
241 -277 -3217 0
-241 3217 0
277 3217 0
2377 -2197 0
2557 -2197 0
-2377 -2557 2197 0
-2377 2737 0
-2377 3097 0
2377 -2737 -3097 0
-2557 2917 0
-2557 3277 0
2557 -2917 -3277 0
-121 157 -2737 0
121 2737 0
-157 2737 0
-301 337 -2917 0
301 2917 0
-337 2917 0
121 -157 -3097 0
-121 3097 0
157 3097 0
301 -337 -3277 0
-301 3277 0
337 3277 0
2258 -2198 0
2438 -2198 0
-2258 -2438 2198 0
-2258 2618 0
-2258 2978 0
2258 -2618 -2978 0
-2438 2798 0
-2438 3158 0
2438 -2798 -3158 0
-1 38 -2618 0
1 2618 0
-38 2618 0
-181 218 -2798 0
181 2798 0
-218 2798 0
1 -38 -2978 0
-1 2978 0
38 2978 0
181 -218 -3158 0
-181 3158 0
218 3158 0
2318 -2198 0
2498 -2198 0
-2318 -2498 2198 0
-2318 2678 0
-2318 3038 0
2318 -2678 -3038 0
-2498 2858 0
-2498 3218 0
2498 -2858 -3218 0
-61 98 -2678 0
61 2678 0
-98 2678 0
-241 278 -2858 0
241 2858 0
-278 2858 0
61 -98 -3038 0
-61 3038 0
98 3038 0
241 -278 -3218 0
-241 3218 0
278 3218 0
2378 -2198 0
2558 -2198 0
-2378 -2558 2198 0
-2378 2738 0
-2378 3098 0
2378 -2738 -3098 0
-2558 2918 0
-2558 3278 0
2558 -2918 -3278 0
-121 158 -2738 0
121 2738 0
-158 2738 0
-301 338 -2918 0
301 2918 0
-338 2918 0
121 -158 -3098 0
-121 3098 0
158 3098 0
301 -338 -3278 0
-301 3278 0
338 3278 0
2259 -2199 0
2439 -2199 0
-2259 -2439 2199 0
-2259 2619 0
-2259 2979 0
2259 -2619 -2979 0
-2439 2799 0
-2439 3159 0
2439 -2799 -3159 0
-1 39 -2619 0
1 2619 0
-39 2619 0
-181 219 -2799 0
181 2799 0
-219 2799 0
1 -39 -2979 0
-1 2979 0
39 2979 0
181 -219 -3159 0
-181 3159 0
219 3159 0
2319 -2199 0
2499 -2199 0
-2319 -2499 2199 0
-2319 2679 0
-2319 3039 0
2319 -2679 -3039 0
-2499 2859 0
-2499 3219 0
2499 -2859 -3219 0
-61 99 -2679 0
61 2679 0
-99 2679 0
-241 279 -2859 0
241 2859 0
-279 2859 0
61 -99 -3039 0
-61 3039 0
99 3039 0
241 -279 -3219 0
-241 3219 0
279 3219 0
2379 -2199 0
2559 -2199 0
-2379 -2559 2199 0
-2379 2739 0
-2379 3099 0
2379 -2739 -3099 0
-2559 2919 0
-2559 3279 0
2559 -2919 -3279 0
-121 159 -2739 0
121 2739 0
-159 2739 0
-301 339 -2919 0
301 2919 0
-339 2919 0
121 -159 -3099 0
-121 3099 0
159 3099 0
301 -339 -3279 0
-301 3279 0
339 3279 0
2260 -2200 0
2440 -2200 0
-2260 -2440 2200 0
-2260 2620 0
-2260 2980 0
2260 -2620 -2980 0
-2440 2800 0
-2440 3160 0
2440 -2800 -3160 0
-1 40 -2620 0
1 2620 0
-40 2620 0
-181 220 -2800 0
181 2800 0
-220 2800 0
1 -40 -2980 0
-1 2980 0
40 2980 0
181 -220 -3160 0
-181 3160 0
220 3160 0
2320 -2200 0
2500 -2200 0
-2320 -2500 2200 0
-2320 2680 0
-2320 3040 0
2320 -2680 -3040 0
-2500 2860 0
-2500 3220 0
2500 -2860 -3220 0
-61 100 -2680 0
61 2680 0
-100 2680 0
-241 280 -2860 0
241 2860 0
-280 2860 0
61 -100 -3040 0
-61 3040 0
100 3040 0
241 -280 -3220 0
-241 3220 0
280 3220 0
2380 -2200 0
2560 -2200 0
-2380 -2560 2200 0
-2380 2740 0
-2380 3100 0
2380 -2740 -3100 0
-2560 2920 0
-2560 3280 0
2560 -2920 -3280 0
-121 160 -2740 0
121 2740 0
-160 2740 0
-301 340 -2920 0
301 2920 0
-340 2920 0
121 -160 -3100 0
-121 3100 0
160 3100 0
301 -340 -3280 0
-301 3280 0
340 3280 0
2261 -2201 0
2441 -2201 0
-2261 -2441 2201 0
-2261 2621 0
-2261 2981 0
2261 -2621 -2981 0
-2441 2801 0
-2441 3161 0
2441 -2801 -3161 0
-1 41 -2621 0
1 2621 0
-41 2621 0
-181 221 -2801 0
181 2801 0
-221 2801 0
1 -41 -2981 0
-1 2981 0
41 2981 0
181 -221 -3161 0
-181 3161 0
221 3161 0
2321 -2201 0
2501 -2201 0
-2321 -2501 2201 0
-2321 2681 0
-2321 3041 0
2321 -2681 -3041 0
-2501 2861 0
-2501 3221 0
2501 -2861 -3221 0
-61 101 -2681 0
61 2681 0
-101 2681 0
-241 281 -2861 0
241 2861 0
-281 2861 0
61 -101 -3041 0
-61 3041 0
101 3041 0
241 -281 -3221 0
-241 3221 0
281 3221 0
2381 -2201 0
2561 -2201 0
-2381 -2561 2201 0
-2381 2741 0
-2381 3101 0
2381 -2741 -3101 0
-2561 2921 0
-2561 3281 0
2561 -2921 -3281 0
-121 161 -2741 0
121 2741 0
-161 2741 0
-301 341 -2921 0
301 2921 0
-341 2921 0
121 -161 -3101 0
-121 3101 0
161 3101 0
301 -341 -3281 0
-301 3281 0
341 3281 0
2262 -2202 0
2442 -2202 0
-2262 -2442 2202 0
-2262 2622 0
-2262 2982 0
2262 -2622 -2982 0
-2442 2802 0
-2442 3162 0
2442 -2802 -3162 0
-1 42 -2622 0
1 2622 0
-42 2622 0
-181 222 -2802 0
181 2802 0
-222 2802 0
1 -42 -2982 0
-1 2982 0
42 2982 0
181 -222 -3162 0
-181 3162 0
222 3162 0
2322 -2202 0
2502 -2202 0
-2322 -2502 2202 0
-2322 2682 0
-2322 3042 0
2322 -2682 -3042 0
-2502 2862 0
-2502 3222 0
2502 -2862 -3222 0
-61 102 -2682 0
61 2682 0
-102 2682 0
-241 282 -2862 0
241 2862 0
-282 2862 0
61 -102 -3042 0
-61 3042 0
102 3042 0
241 -282 -3222 0
-241 3222 0
282 3222 0
2382 -2202 0
2562 -2202 0
-2382 -2562 2202 0
-2382 2742 0
-2382 3102 0
2382 -2742 -3102 0
-2562 2922 0
-2562 3282 0
2562 -2922 -3282 0
-121 162 -2742 0
121 2742 0
-162 2742 0
-301 342 -2922 0
301 2922 0
-342 2922 0
121 -162 -3102 0
-121 3102 0
162 3102 0
301 -342 -3282 0
-301 3282 0
342 3282 0
2263 -2203 0
2443 -2203 0
-2263 -2443 2203 0
-2263 2623 0
-2263 2983 0
2263 -2623 -2983 0
-2443 2803 0
-2443 3163 0
2443 -2803 -3163 0
-1 43 -2623 0
1 2623 0
-43 2623 0
-181 223 -2803 0
181 2803 0
-223 2803 0
1 -43 -2983 0
-1 2983 0
43 2983 0
181 -223 -3163 0
-181 3163 0
223 3163 0
2323 -2203 0
2503 -2203 0
-2323 -2503 2203 0
-2323 2683 0
-2323 3043 0
2323 -2683 -3043 0
-2503 2863 0
-2503 3223 0
2503 -2863 -3223 0
-61 103 -2683 0
61 2683 0
-103 2683 0
-241 283 -2863 0
241 2863 0
-283 2863 0
61 -103 -3043 0
-61 3043 0
103 3043 0
241 -283 -3223 0
-241 3223 0
283 3223 0
2383 -2203 0
2563 -2203 0
-2383 -2563 2203 0
-2383 2743 0
-2383 3103 0
2383 -2743 -3103 0
-2563 2923 0
-2563 3283 0
2563 -2923 -3283 0
-121 163 -2743 0
121 2743 0
-163 2743 0
-301 343 -2923 0
301 2923 0
-343 2923 0
121 -163 -3103 0
-121 3103 0
163 3103 0
301 -343 -3283 0
-301 3283 0
343 3283 0
2264 -2204 0
2444 -2204 0
-2264 -2444 2204 0
-2264 2624 0
-2264 2984 0
2264 -2624 -2984 0
-2444 2804 0
-2444 3164 0
2444 -2804 -3164 0
-1 44 -2624 0
1 2624 0
-44 2624 0
-181 224 -2804 0
181 2804 0
-224 2804 0
1 -44 -2984 0
-1 2984 0
44 2984 0
181 -224 -3164 0
-181 3164 0
224 3164 0
2324 -2204 0
2504 -2204 0
-2324 -2504 2204 0
-2324 2684 0
-2324 3044 0
2324 -2684 -3044 0
-2504 2864 0
-2504 3224 0
2504 -2864 -3224 0
-61 104 -2684 0
61 2684 0
-104 2684 0
-241 284 -2864 0
241 2864 0
-284 2864 0
61 -104 -3044 0
-61 3044 0
104 3044 0
241 -284 -3224 0
-241 3224 0
284 3224 0
2384 -2204 0
2564 -2204 0
-2384 -2564 2204 0
-2384 2744 0
-2384 3104 0
2384 -2744 -3104 0
-2564 2924 0
-2564 3284 0
2564 -2924 -3284 0
-121 164 -2744 0
121 2744 0
-164 2744 0
-301 344 -2924 0
301 2924 0
-344 2924 0
121 -164 -3104 0
-121 3104 0
164 3104 0
301 -344 -3284 0
-301 3284 0
344 3284 0
2265 -2205 0
2445 -2205 0
-2265 -2445 2205 0
-2265 2625 0
-2265 2985 0
2265 -2625 -2985 0
-2445 2805 0
-2445 3165 0
2445 -2805 -3165 0
-1 45 -2625 0
1 2625 0
-45 2625 0
-181 225 -2805 0
181 2805 0
-225 2805 0
1 -45 -2985 0
-1 2985 0
45 2985 0
181 -225 -3165 0
-181 3165 0
225 3165 0
2325 -2205 0
2505 -2205 0
-2325 -2505 2205 0
-2325 2685 0
-2325 3045 0
2325 -2685 -3045 0
-2505 2865 0
-2505 3225 0
2505 -2865 -3225 0
-61 105 -2685 0
61 2685 0
-105 2685 0
-241 285 -2865 0
241 2865 0
-285 2865 0
61 -105 -3045 0
-61 3045 0
105 3045 0
241 -285 -3225 0
-241 3225 0
285 3225 0
2385 -2205 0
2565 -2205 0
-2385 -2565 2205 0
-2385 2745 0
-2385 3105 0
2385 -2745 -3105 0
-2565 2925 0
-2565 3285 0
2565 -2925 -3285 0
-121 165 -2745 0
121 2745 0
-165 2745 0
-301 345 -2925 0
301 2925 0
-345 2925 0
121 -165 -3105 0
-121 3105 0
165 3105 0
301 -345 -3285 0
-301 3285 0
345 3285 0
2266 -2206 0
2446 -2206 0
-2266 -2446 2206 0
-2266 2626 0
-2266 2986 0
2266 -2626 -2986 0
-2446 2806 0
-2446 3166 0
2446 -2806 -3166 0
-1 46 -2626 0
1 2626 0
-46 2626 0
-181 226 -2806 0
181 2806 0
-226 2806 0
1 -46 -2986 0
-1 2986 0
46 2986 0
181 -226 -3166 0
-181 3166 0
226 3166 0
2326 -2206 0
2506 -2206 0
-2326 -2506 2206 0
-2326 2686 0
-2326 3046 0
2326 -2686 -3046 0
-2506 2866 0
-2506 3226 0
2506 -2866 -3226 0
-61 106 -2686 0
61 2686 0
-106 2686 0
-241 286 -2866 0
241 2866 0
-286 2866 0
61 -106 -3046 0
-61 3046 0
106 3046 0
241 -286 -3226 0
-241 3226 0
286 3226 0
2386 -2206 0
2566 -2206 0
-2386 -2566 2206 0
-2386 2746 0
-2386 3106 0
2386 -2746 -3106 0
-2566 2926 0
-2566 3286 0
2566 -2926 -3286 0
-121 166 -2746 0
121 2746 0
-166 2746 0
-301 346 -2926 0
301 2926 0
-346 2926 0
121 -166 -3106 0
-121 3106 0
166 3106 0
301 -346 -3286 0
-301 3286 0
346 3286 0
2267 -2207 0
2447 -2207 0
-2267 -2447 2207 0
-2267 2627 0
-2267 2987 0
2267 -2627 -2987 0
-2447 2807 0
-2447 3167 0
2447 -2807 -3167 0
-1 47 -2627 0
1 2627 0
-47 2627 0
-181 227 -2807 0
181 2807 0
-227 2807 0
1 -47 -2987 0
-1 2987 0
47 2987 0
181 -227 -3167 0
-181 3167 0
227 3167 0
2327 -2207 0
2507 -2207 0
-2327 -2507 2207 0
-2327 2687 0
-2327 3047 0
2327 -2687 -3047 0
-2507 2867 0
-2507 3227 0
2507 -2867 -3227 0
-61 107 -2687 0
61 2687 0
-107 2687 0
-241 287 -2867 0
241 2867 0
-287 2867 0
61 -107 -3047 0
-61 3047 0
107 3047 0
241 -287 -3227 0
-241 3227 0
287 3227 0
2387 -2207 0
2567 -2207 0
-2387 -2567 2207 0
-2387 2747 0
-2387 3107 0
2387 -2747 -3107 0
-2567 2927 0
-2567 3287 0
2567 -2927 -3287 0
-121 167 -2747 0
121 2747 0
-167 2747 0
-301 347 -2927 0
301 2927 0
-347 2927 0
121 -167 -3107 0
-121 3107 0
167 3107 0
301 -347 -3287 0
-301 3287 0
347 3287 0
2268 -2208 0
2448 -2208 0
-2268 -2448 2208 0
-2268 2628 0
-2268 2988 0
2268 -2628 -2988 0
-2448 2808 0
-2448 3168 0
2448 -2808 -3168 0
-1 48 -2628 0
1 2628 0
-48 2628 0
-181 228 -2808 0
181 2808 0
-228 2808 0
1 -48 -2988 0
-1 2988 0
48 2988 0
181 -228 -3168 0
-181 3168 0
228 3168 0
2328 -2208 0
2508 -2208 0
-2328 -2508 2208 0
-2328 2688 0
-2328 3048 0
2328 -2688 -3048 0
-2508 2868 0
-2508 3228 0
2508 -2868 -3228 0
-61 108 -2688 0
61 2688 0
-108 2688 0
-241 288 -2868 0
241 2868 0
-288 2868 0
61 -108 -3048 0
-61 3048 0
108 3048 0
241 -288 -3228 0
-241 3228 0
288 3228 0
2388 -2208 0
2568 -2208 0
-2388 -2568 2208 0
-2388 2748 0
-2388 3108 0
2388 -2748 -3108 0
-2568 2928 0
-2568 3288 0
2568 -2928 -3288 0
-121 168 -2748 0
121 2748 0
-168 2748 0
-301 348 -2928 0
301 2928 0
-348 2928 0
121 -168 -3108 0
-121 3108 0
168 3108 0
301 -348 -3288 0
-301 3288 0
348 3288 0
2269 -2209 0
2449 -2209 0
-2269 -2449 2209 0
-2269 2629 0
-2269 2989 0
2269 -2629 -2989 0
-2449 2809 0
-2449 3169 0
2449 -2809 -3169 0
-1 49 -2629 0
1 2629 0
-49 2629 0
-181 229 -2809 0
181 2809 0
-229 2809 0
1 -49 -2989 0
-1 2989 0
49 2989 0
181 -229 -3169 0
-181 3169 0
229 3169 0
2329 -2209 0
2509 -2209 0
-2329 -2509 2209 0
-2329 2689 0
-2329 3049 0
2329 -2689 -3049 0
-2509 2869 0
-2509 3229 0
2509 -2869 -3229 0
-61 109 -2689 0
61 2689 0
-109 2689 0
-241 289 -2869 0
241 2869 0
-289 2869 0
61 -109 -3049 0
-61 3049 0
109 3049 0
241 -289 -3229 0
-241 3229 0
289 3229 0
2389 -2209 0
2569 -2209 0
-2389 -2569 2209 0
-2389 2749 0
-2389 3109 0
2389 -2749 -3109 0
-2569 2929 0
-2569 3289 0
2569 -2929 -3289 0
-121 169 -2749 0
121 2749 0
-169 2749 0
-301 349 -2929 0
301 2929 0
-349 2929 0
121 -169 -3109 0
-121 3109 0
169 3109 0
301 -349 -3289 0
-301 3289 0
349 3289 0
2270 -2210 0
2450 -2210 0
-2270 -2450 2210 0
-2270 2630 0
-2270 2990 0
2270 -2630 -2990 0
-2450 2810 0
-2450 3170 0
2450 -2810 -3170 0
-1 50 -2630 0
1 2630 0
-50 2630 0
-181 230 -2810 0
181 2810 0
-230 2810 0
1 -50 -2990 0
-1 2990 0
50 2990 0
181 -230 -3170 0
-181 3170 0
230 3170 0
2330 -2210 0
2510 -2210 0
-2330 -2510 2210 0
-2330 2690 0
-2330 3050 0
2330 -2690 -3050 0
-2510 2870 0
-2510 3230 0
2510 -2870 -3230 0
-61 110 -2690 0
61 2690 0
-110 2690 0
-241 290 -2870 0
241 2870 0
-290 2870 0
61 -110 -3050 0
-61 3050 0
110 3050 0
241 -290 -3230 0
-241 3230 0
290 3230 0
2390 -2210 0
2570 -2210 0
-2390 -2570 2210 0
-2390 2750 0
-2390 3110 0
2390 -2750 -3110 0
-2570 2930 0
-2570 3290 0
2570 -2930 -3290 0
-121 170 -2750 0
121 2750 0
-170 2750 0
-301 350 -2930 0
301 2930 0
-350 2930 0
121 -170 -3110 0
-121 3110 0
170 3110 0
301 -350 -3290 0
-301 3290 0
350 3290 0
2271 -2211 0
2451 -2211 0
-2271 -2451 2211 0
-2271 2631 0
-2271 2991 0
2271 -2631 -2991 0
-2451 2811 0
-2451 3171 0
2451 -2811 -3171 0
-1 51 -2631 0
1 2631 0
-51 2631 0
-181 231 -2811 0
181 2811 0
-231 2811 0
1 -51 -2991 0
-1 2991 0
51 2991 0
181 -231 -3171 0
-181 3171 0
231 3171 0
2331 -2211 0
2511 -2211 0
-2331 -2511 2211 0
-2331 2691 0
-2331 3051 0
2331 -2691 -3051 0
-2511 2871 0
-2511 3231 0
2511 -2871 -3231 0
-61 111 -2691 0
61 2691 0
-111 2691 0
-241 291 -2871 0
241 2871 0
-291 2871 0
61 -111 -3051 0
-61 3051 0
111 3051 0
241 -291 -3231 0
-241 3231 0
291 3231 0
2391 -2211 0
2571 -2211 0
-2391 -2571 2211 0
-2391 2751 0
-2391 3111 0
2391 -2751 -3111 0
-2571 2931 0
-2571 3291 0
2571 -2931 -3291 0
-121 171 -2751 0
121 2751 0
-171 2751 0
-301 351 -2931 0
301 2931 0
-351 2931 0
121 -171 -3111 0
-121 3111 0
171 3111 0
301 -351 -3291 0
-301 3291 0
351 3291 0
2272 -2212 0
2452 -2212 0
-2272 -2452 2212 0
-2272 2632 0
-2272 2992 0
2272 -2632 -2992 0
-2452 2812 0
-2452 3172 0
2452 -2812 -3172 0
-1 52 -2632 0
1 2632 0
-52 2632 0
-181 232 -2812 0
181 2812 0
-232 2812 0
1 -52 -2992 0
-1 2992 0
52 2992 0
181 -232 -3172 0
-181 3172 0
232 3172 0
2332 -2212 0
2512 -2212 0
-2332 -2512 2212 0
-2332 2692 0
-2332 3052 0
2332 -2692 -3052 0
-2512 2872 0
-2512 3232 0
2512 -2872 -3232 0
-61 112 -2692 0
61 2692 0
-112 2692 0
-241 292 -2872 0
241 2872 0
-292 2872 0
61 -112 -3052 0
-61 3052 0
112 3052 0
241 -292 -3232 0
-241 3232 0
292 3232 0
2392 -2212 0
2572 -2212 0
-2392 -2572 2212 0
-2392 2752 0
-2392 3112 0
2392 -2752 -3112 0
-2572 2932 0
-2572 3292 0
2572 -2932 -3292 0
-121 172 -2752 0
121 2752 0
-172 2752 0
-301 352 -2932 0
301 2932 0
-352 2932 0
121 -172 -3112 0
-121 3112 0
172 3112 0
301 -352 -3292 0
-301 3292 0
352 3292 0
2273 -2213 0
2453 -2213 0
-2273 -2453 2213 0
-2273 2633 0
-2273 2993 0
2273 -2633 -2993 0
-2453 2813 0
-2453 3173 0
2453 -2813 -3173 0
-1 53 -2633 0
1 2633 0
-53 2633 0
-181 233 -2813 0
181 2813 0
-233 2813 0
1 -53 -2993 0
-1 2993 0
53 2993 0
181 -233 -3173 0
-181 3173 0
233 3173 0
2333 -2213 0
2513 -2213 0
-2333 -2513 2213 0
-2333 2693 0
-2333 3053 0
2333 -2693 -3053 0
-2513 2873 0
-2513 3233 0
2513 -2873 -3233 0
-61 113 -2693 0
61 2693 0
-113 2693 0
-241 293 -2873 0
241 2873 0
-293 2873 0
61 -113 -3053 0
-61 3053 0
113 3053 0
241 -293 -3233 0
-241 3233 0
293 3233 0
2393 -2213 0
2573 -2213 0
-2393 -2573 2213 0
-2393 2753 0
-2393 3113 0
2393 -2753 -3113 0
-2573 2933 0
-2573 3293 0
2573 -2933 -3293 0
-121 173 -2753 0
121 2753 0
-173 2753 0
-301 353 -2933 0
301 2933 0
-353 2933 0
121 -173 -3113 0
-121 3113 0
173 3113 0
301 -353 -3293 0
-301 3293 0
353 3293 0
2274 -2214 0
2454 -2214 0
-2274 -2454 2214 0
-2274 2634 0
-2274 2994 0
2274 -2634 -2994 0
-2454 2814 0
-2454 3174 0
2454 -2814 -3174 0
-1 54 -2634 0
1 2634 0
-54 2634 0
-181 234 -2814 0
181 2814 0
-234 2814 0
1 -54 -2994 0
-1 2994 0
54 2994 0
181 -234 -3174 0
-181 3174 0
234 3174 0
2334 -2214 0
2514 -2214 0
-2334 -2514 2214 0
-2334 2694 0
-2334 3054 0
2334 -2694 -3054 0
-2514 2874 0
-2514 3234 0
2514 -2874 -3234 0
-61 114 -2694 0
61 2694 0
-114 2694 0
-241 294 -2874 0
241 2874 0
-294 2874 0
61 -114 -3054 0
-61 3054 0
114 3054 0
241 -294 -3234 0
-241 3234 0
294 3234 0
2394 -2214 0
2574 -2214 0
-2394 -2574 2214 0
-2394 2754 0
-2394 3114 0
2394 -2754 -3114 0
-2574 2934 0
-2574 3294 0
2574 -2934 -3294 0
-121 174 -2754 0
121 2754 0
-174 2754 0
-301 354 -2934 0
301 2934 0
-354 2934 0
121 -174 -3114 0
-121 3114 0
174 3114 0
301 -354 -3294 0
-301 3294 0
354 3294 0
2275 -2215 0
2455 -2215 0
-2275 -2455 2215 0
-2275 2635 0
-2275 2995 0
2275 -2635 -2995 0
-2455 2815 0
-2455 3175 0
2455 -2815 -3175 0
-1 55 -2635 0
1 2635 0
-55 2635 0
-181 235 -2815 0
181 2815 0
-235 2815 0
1 -55 -2995 0
-1 2995 0
55 2995 0
181 -235 -3175 0
-181 3175 0
235 3175 0
2335 -2215 0
2515 -2215 0
-2335 -2515 2215 0
-2335 2695 0
-2335 3055 0
2335 -2695 -3055 0
-2515 2875 0
-2515 3235 0
2515 -2875 -3235 0
-61 115 -2695 0
61 2695 0
-115 2695 0
-241 295 -2875 0
241 2875 0
-295 2875 0
61 -115 -3055 0
-61 3055 0
115 3055 0
241 -295 -3235 0
-241 3235 0
295 3235 0
2395 -2215 0
2575 -2215 0
-2395 -2575 2215 0
-2395 2755 0
-2395 3115 0
2395 -2755 -3115 0
-2575 2935 0
-2575 3295 0
2575 -2935 -3295 0
-121 175 -2755 0
121 2755 0
-175 2755 0
-301 355 -2935 0
301 2935 0
-355 2935 0
121 -175 -3115 0
-121 3115 0
175 3115 0
301 -355 -3295 0
-301 3295 0
355 3295 0
2276 -2216 0
2456 -2216 0
-2276 -2456 2216 0
-2276 2636 0
-2276 2996 0
2276 -2636 -2996 0
-2456 2816 0
-2456 3176 0
2456 -2816 -3176 0
-1 56 -2636 0
1 2636 0
-56 2636 0
-181 236 -2816 0
181 2816 0
-236 2816 0
1 -56 -2996 0
-1 2996 0
56 2996 0
181 -236 -3176 0
-181 3176 0
236 3176 0
2336 -2216 0
2516 -2216 0
-2336 -2516 2216 0
-2336 2696 0
-2336 3056 0
2336 -2696 -3056 0
-2516 2876 0
-2516 3236 0
2516 -2876 -3236 0
-61 116 -2696 0
61 2696 0
-116 2696 0
-241 296 -2876 0
241 2876 0
-296 2876 0
61 -116 -3056 0
-61 3056 0
116 3056 0
241 -296 -3236 0
-241 3236 0
296 3236 0
2396 -2216 0
2576 -2216 0
-2396 -2576 2216 0
-2396 2756 0
-2396 3116 0
2396 -2756 -3116 0
-2576 2936 0
-2576 3296 0
2576 -2936 -3296 0
-121 176 -2756 0
121 2756 0
-176 2756 0
-301 356 -2936 0
301 2936 0
-356 2936 0
121 -176 -3116 0
-121 3116 0
176 3116 0
301 -356 -3296 0
-301 3296 0
356 3296 0
2277 -2217 0
2457 -2217 0
-2277 -2457 2217 0
-2277 2637 0
-2277 2997 0
2277 -2637 -2997 0
-2457 2817 0
-2457 3177 0
2457 -2817 -3177 0
-1 57 -2637 0
1 2637 0
-57 2637 0
-181 237 -2817 0
181 2817 0
-237 2817 0
1 -57 -2997 0
-1 2997 0
57 2997 0
181 -237 -3177 0
-181 3177 0
237 3177 0
2337 -2217 0
2517 -2217 0
-2337 -2517 2217 0
-2337 2697 0
-2337 3057 0
2337 -2697 -3057 0
-2517 2877 0
-2517 3237 0
2517 -2877 -3237 0
-61 117 -2697 0
61 2697 0
-117 2697 0
-241 297 -2877 0
241 2877 0
-297 2877 0
61 -117 -3057 0
-61 3057 0
117 3057 0
241 -297 -3237 0
-241 3237 0
297 3237 0
2397 -2217 0
2577 -2217 0
-2397 -2577 2217 0
-2397 2757 0
-2397 3117 0
2397 -2757 -3117 0
-2577 2937 0
-2577 3297 0
2577 -2937 -3297 0
-121 177 -2757 0
121 2757 0
-177 2757 0
-301 357 -2937 0
301 2937 0
-357 2937 0
121 -177 -3117 0
-121 3117 0
177 3117 0
301 -357 -3297 0
-301 3297 0
357 3297 0
2278 -2218 0
2458 -2218 0
-2278 -2458 2218 0
-2278 2638 0
-2278 2998 0
2278 -2638 -2998 0
-2458 2818 0
-2458 3178 0
2458 -2818 -3178 0
-1 58 -2638 0
1 2638 0
-58 2638 0
-181 238 -2818 0
181 2818 0
-238 2818 0
1 -58 -2998 0
-1 2998 0
58 2998 0
181 -238 -3178 0
-181 3178 0
238 3178 0
2338 -2218 0
2518 -2218 0
-2338 -2518 2218 0
-2338 2698 0
-2338 3058 0
2338 -2698 -3058 0
-2518 2878 0
-2518 3238 0
2518 -2878 -3238 0
-61 118 -2698 0
61 2698 0
-118 2698 0
-241 298 -2878 0
241 2878 0
-298 2878 0
61 -118 -3058 0
-61 3058 0
118 3058 0
241 -298 -3238 0
-241 3238 0
298 3238 0
2398 -2218 0
2578 -2218 0
-2398 -2578 2218 0
-2398 2758 0
-2398 3118 0
2398 -2758 -3118 0
-2578 2938 0
-2578 3298 0
2578 -2938 -3298 0
-121 178 -2758 0
121 2758 0
-178 2758 0
-301 358 -2938 0
301 2938 0
-358 2938 0
121 -178 -3118 0
-121 3118 0
178 3118 0
301 -358 -3298 0
-301 3298 0
358 3298 0
2279 -2219 0
2459 -2219 0
-2279 -2459 2219 0
-2279 2639 0
-2279 2999 0
2279 -2639 -2999 0
-2459 2819 0
-2459 3179 0
2459 -2819 -3179 0
-1 59 -2639 0
1 2639 0
-59 2639 0
-181 239 -2819 0
181 2819 0
-239 2819 0
1 -59 -2999 0
-1 2999 0
59 2999 0
181 -239 -3179 0
-181 3179 0
239 3179 0
2339 -2219 0
2519 -2219 0
-2339 -2519 2219 0
-2339 2699 0
-2339 3059 0
2339 -2699 -3059 0
-2519 2879 0
-2519 3239 0
2519 -2879 -3239 0
-61 119 -2699 0
61 2699 0
-119 2699 0
-241 299 -2879 0
241 2879 0
-299 2879 0
61 -119 -3059 0
-61 3059 0
119 3059 0
241 -299 -3239 0
-241 3239 0
299 3239 0
2399 -2219 0
2579 -2219 0
-2399 -2579 2219 0
-2399 2759 0
-2399 3119 0
2399 -2759 -3119 0
-2579 2939 0
-2579 3299 0
2579 -2939 -3299 0
-121 179 -2759 0
121 2759 0
-179 2759 0
-301 359 -2939 0
301 2939 0
-359 2939 0
121 -179 -3119 0
-121 3119 0
179 3119 0
301 -359 -3299 0
-301 3299 0
359 3299 0
2280 -2220 0
2460 -2220 0
-2280 -2460 2220 0
-2280 2640 0
-2280 3000 0
2280 -2640 -3000 0
-2460 2820 0
-2460 3180 0
2460 -2820 -3180 0
-1 60 -2640 0
1 2640 0
-60 2640 0
-181 240 -2820 0
181 2820 0
-240 2820 0
1 -60 -3000 0
-1 3000 0
60 3000 0
181 -240 -3180 0
-181 3180 0
240 3180 0
2340 -2220 0
2520 -2220 0
-2340 -2520 2220 0
-2340 2700 0
-2340 3060 0
2340 -2700 -3060 0
-2520 2880 0
-2520 3240 0
2520 -2880 -3240 0
-61 120 -2700 0
61 2700 0
-120 2700 0
-241 300 -2880 0
241 2880 0
-300 2880 0
61 -120 -3060 0
-61 3060 0
120 3060 0
241 -300 -3240 0
-241 3240 0
300 3240 0
2400 -2220 0
2580 -2220 0
-2400 -2580 2220 0
-2400 2760 0
-2400 3120 0
2400 -2760 -3120 0
-2580 2940 0
-2580 3300 0
2580 -2940 -3300 0
-121 180 -2760 0
121 2760 0
-180 2760 0
-301 360 -2940 0
301 2940 0
-360 2940 0
121 -180 -3120 0
-121 3120 0
180 3120 0
301 -360 -3300 0
-301 3300 0
360 3300 0
-1801 1981 0
-1861 2041 0
-1921 2101 0
-1802 1982 0
-1862 2042 0
-1922 2102 0
-1803 1983 0
-1863 2043 0
-1923 2103 0
-1804 1984 0
-1864 2044 0
-1924 2104 0
-1805 1985 0
-1865 2045 0
-1925 2105 0
-1806 1986 0
-1866 2046 0
-1926 2106 0
-1807 1987 0
-1867 2047 0
-1927 2107 0
-1808 1988 0
-1868 2048 0
-1928 2108 0
-1809 1989 0
-1869 2049 0
-1929 2109 0
-1810 1990 0
-1870 2050 0
-1930 2110 0
-1811 1991 0
-1871 2051 0
-1931 2111 0
-1812 1992 0
-1872 2052 0
-1932 2112 0
-1813 1993 0
-1873 2053 0
-1933 2113 0
-1814 1994 0
-1874 2054 0
-1934 2114 0
-1815 1995 0
-1875 2055 0
-1935 2115 0
-1816 1996 0
-1876 2056 0
-1936 2116 0
-1817 1997 0
-1877 2057 0
-1937 2117 0
-1818 1998 0
-1878 2058 0
-1938 2118 0
-1819 1999 0
-1879 2059 0
-1939 2119 0
-1820 2000 0
-1880 2060 0
-1940 2120 0
-1821 2001 0
-1881 2061 0
-1941 2121 0
-1822 2002 0
-1882 2062 0
-1942 2122 0
-1823 2003 0
-1883 2063 0
-1943 2123 0
-1824 2004 0
-1884 2064 0
-1944 2124 0
-1825 2005 0
-1885 2065 0
-1945 2125 0
-1826 2006 0
-1886 2066 0
-1946 2126 0
-1827 2007 0
-1887 2067 0
-1947 2127 0
-1828 2008 0
-1888 2068 0
-1948 2128 0
-1829 2009 0
-1889 2069 0
-1949 2129 0
-1830 2010 0
-1890 2070 0
-1950 2130 0
-1831 2011 0
-1891 2071 0
-1951 2131 0
-1832 2012 0
-1892 2072 0
-1952 2132 0
-1833 2013 0
-1893 2073 0
-1953 2133 0
-1834 2014 0
-1894 2074 0
-1954 2134 0
-1835 2015 0
-1895 2075 0
-1955 2135 0
-1836 2016 0
-1896 2076 0
-1956 2136 0
-1837 2017 0
-1897 2077 0
-1957 2137 0
-1838 2018 0
-1898 2078 0
-1958 2138 0
-1839 2019 0
-1899 2079 0
-1959 2139 0
-1840 2020 0
-1900 2080 0
-1960 2140 0
-1841 2021 0
-1901 2081 0
-1961 2141 0
-1842 2022 0
-1902 2082 0
-1962 2142 0
-1843 2023 0
-1903 2083 0
-1963 2143 0
-1844 2024 0
-1904 2084 0
-1964 2144 0
-1845 2025 0
-1905 2085 0
-1965 2145 0
-1846 2026 0
-1906 2086 0
-1966 2146 0
-1847 2027 0
-1907 2087 0
-1967 2147 0
-1848 2028 0
-1908 2088 0
-1968 2148 0
-1849 2029 0
-1909 2089 0
-1969 2149 0
-1850 2030 0
-1910 2090 0
-1970 2150 0
-1851 2031 0
-1911 2091 0
-1971 2151 0
-1852 2032 0
-1912 2092 0
-1972 2152 0
-1853 2033 0
-1913 2093 0
-1973 2153 0
-1854 2034 0
-1914 2094 0
-1974 2154 0
-1855 2035 0
-1915 2095 0
-1975 2155 0
-1856 2036 0
-1916 2096 0
-1976 2156 0
-1857 2037 0
-1917 2097 0
-1977 2157 0
-1858 2038 0
-1918 2098 0
-1978 2158 0
-1859 2039 0
-1919 2099 0
-1979 2159 0
