p cnf 15397 44583
14081 -1 2 0
14081 1 -2 0
14081 -1281 1282 0
14081 1281 -1282 0
14241 -161 162 0
14241 161 -162 0
14241 -1441 1442 0
14241 1441 -1442 0
14401 -321 322 0
14401 321 -322 0
14401 -1601 1602 0
14401 1601 -1602 0
14561 -481 482 0
14561 481 -482 0
14561 -1761 1762 0
14561 1761 -1762 0
14721 -641 642 0
14721 641 -642 0
14721 -1921 1922 0
14721 1921 -1922 0
14881 -801 802 0
14881 801 -802 0
14881 -2081 2082 0
14881 2081 -2082 0
15041 -961 962 0
15041 961 -962 0
15041 -2241 2242 0
15041 2241 -2242 0
15201 -1121 1122 0
15201 1121 -1122 0
15201 -2401 2402 0
15201 2401 -2402 0
-1 -10241 -2 0
1 -10241 2 0
-10401 -1442 0
-161 -10401 162 0
161 -10401 -162 0
-11681 1442 0
-10561 -1602 0
-321 -10561 322 0
321 -10561 -322 0
-11841 1602 0
-10721 -1762 0
-481 -10721 482 0
481 -10721 -482 0
-12001 1762 0
-10881 -1922 0
-641 -10881 642 0
641 -10881 -642 0
-12161 1922 0
-11041 -2082 0
-801 -11041 802 0
801 -11041 -802 0
-12321 2082 0
-11201 -2242 0
-961 -11201 962 0
961 -11201 -962 0
-12481 2242 0
-161 -11681 -162 0
161 -11681 162 0
-321 -11841 -322 0
321 -11841 322 0
-481 -12001 -482 0
481 -12001 482 0
-641 -12161 -642 0
641 -12161 642 0
-801 -12321 -802 0
801 -12321 802 0
-961 -12481 -962 0
961 -12481 962 0
-1121 -12641 -1122 0
1121 -12641 1122 0
14082 -2 3 0
14082 2 -3 0
14082 -1282 1283 0
14082 1282 -1283 0
14242 -162 163 0
14242 162 -163 0
14242 -1442 1443 0
14242 1442 -1443 0
14402 -322 323 0
14402 322 -323 0
14402 -1602 1603 0
14402 1602 -1603 0
14562 -482 483 0
14562 482 -483 0
14562 -1762 1763 0
14562 1762 -1763 0
14722 -642 643 0
14722 642 -643 0
14722 -1922 1923 0
14722 1922 -1923 0
14882 -802 803 0
14882 802 -803 0
14882 -2082 2083 0
14882 2082 -2083 0
15042 -962 963 0
15042 962 -963 0
15042 -2242 2243 0
15042 2242 -2243 0
15202 -1122 1123 0
15202 1122 -1123 0
15202 -2402 2403 0
15202 2402 -2403 0
-2 -10242 -3 0
2 -10242 3 0
-10402 -1443 0
-162 -10402 163 0
162 -10402 -163 0
-11682 1443 0
-10562 -1603 0
-322 -10562 323 0
322 -10562 -323 0
-11842 1603 0
-10722 -1763 0
-482 -10722 483 0
482 -10722 -483 0
-12002 1763 0
-10882 -1923 0
-642 -10882 643 0
642 -10882 -643 0
-12162 1923 0
-11042 -2083 0
-802 -11042 803 0
802 -11042 -803 0
-12322 2083 0
-11202 -2243 0
-962 -11202 963 0
962 -11202 -963 0
-12482 2243 0
-162 -11682 -163 0
162 -11682 163 0
-322 -11842 -323 0
322 -11842 323 0
-482 -12002 -483 0
482 -12002 483 0
-642 -12162 -643 0
642 -12162 643 0
-802 -12322 -803 0
802 -12322 803 0
-962 -12482 -963 0
962 -12482 963 0
-1122 -12642 -1123 0
1122 -12642 1123 0
14083 -3 4 0
14083 3 -4 0
14083 -1283 1284 0
14083 1283 -1284 0
14243 -163 164 0
14243 163 -164 0
14243 -1443 1444 0
14243 1443 -1444 0
14403 -323 324 0
14403 323 -324 0
14403 -1603 1604 0
14403 1603 -1604 0
14563 -483 484 0
14563 483 -484 0
14563 -1763 1764 0
14563 1763 -1764 0
14723 -643 644 0
14723 643 -644 0
14723 -1923 1924 0
14723 1923 -1924 0
14883 -803 804 0
14883 803 -804 0
14883 -2083 2084 0
14883 2083 -2084 0
15043 -963 964 0
15043 963 -964 0
15043 -2243 2244 0
15043 2243 -2244 0
15203 -1123 1124 0
15203 1123 -1124 0
15203 -2403 2404 0
15203 2403 -2404 0
-3 -10243 -4 0
3 -10243 4 0
-10403 -1444 0
-163 -10403 164 0
163 -10403 -164 0
-11683 1444 0
-10563 -1604 0
-323 -10563 324 0
323 -10563 -324 0
-11843 1604 0
-10723 -1764 0
-483 -10723 484 0
483 -10723 -484 0
-12003 1764 0
-10883 -1924 0
-643 -10883 644 0
643 -10883 -644 0
-12163 1924 0
-11043 -2084 0
-803 -11043 804 0
803 -11043 -804 0
-12323 2084 0
-11203 -2244 0
-963 -11203 964 0
963 -11203 -964 0
-12483 2244 0
-163 -11683 -164 0
163 -11683 164 0
-323 -11843 -324 0
323 -11843 324 0
-483 -12003 -484 0
483 -12003 484 0
-643 -12163 -644 0
643 -12163 644 0
-803 -12323 -804 0
803 -12323 804 0
-963 -12483 -964 0
963 -12483 964 0
-1123 -12643 -1124 0
1123 -12643 1124 0
14084 -4 5 0
14084 4 -5 0
14084 -1284 1285 0
14084 1284 -1285 0
14244 -164 165 0
14244 164 -165 0
14244 -1444 1445 0
14244 1444 -1445 0
14404 -324 325 0
14404 324 -325 0
14404 -1604 1605 0
14404 1604 -1605 0
14564 -484 485 0
14564 484 -485 0
14564 -1764 1765 0
14564 1764 -1765 0
14724 -644 645 0
14724 644 -645 0
14724 -1924 1925 0
14724 1924 -1925 0
14884 -804 805 0
14884 804 -805 0
14884 -2084 2085 0
14884 2084 -2085 0
15044 -964 965 0
15044 964 -965 0
15044 -2244 2245 0
15044 2244 -2245 0
15204 -1124 1125 0
15204 1124 -1125 0
15204 -2404 2405 0
15204 2404 -2405 0
-4 -10244 -5 0
4 -10244 5 0
-10404 -1445 0
-164 -10404 165 0
164 -10404 -165 0
-11684 1445 0
-10564 -1605 0
-324 -10564 325 0
324 -10564 -325 0
-11844 1605 0
-10724 -1765 0
-484 -10724 485 0
484 -10724 -485 0
-12004 1765 0
-10884 -1925 0
-644 -10884 645 0
644 -10884 -645 0
-12164 1925 0
-11044 -2085 0
-804 -11044 805 0
804 -11044 -805 0
-12324 2085 0
-11204 -2245 0
-964 -11204 965 0
964 -11204 -965 0
-12484 2245 0
-164 -11684 -165 0
164 -11684 165 0
-324 -11844 -325 0
324 -11844 325 0
-484 -12004 -485 0
484 -12004 485 0
-644 -12164 -645 0
644 -12164 645 0
-804 -12324 -805 0
804 -12324 805 0
-964 -12484 -965 0
964 -12484 965 0
-1124 -12644 -1125 0
1124 -12644 1125 0
14085 -5 6 0
14085 5 -6 0
14085 -1285 1286 0
14085 1285 -1286 0
14245 -165 166 0
14245 165 -166 0
14245 -1445 1446 0
14245 1445 -1446 0
14405 -325 326 0
14405 325 -326 0
14405 -1605 1606 0
14405 1605 -1606 0
14565 -485 486 0
14565 485 -486 0
14565 -1765 1766 0
14565 1765 -1766 0
14725 -645 646 0
14725 645 -646 0
14725 -1925 1926 0
14725 1925 -1926 0
14885 -805 806 0
14885 805 -806 0
14885 -2085 2086 0
14885 2085 -2086 0
15045 -965 966 0
15045 965 -966 0
15045 -2245 2246 0
15045 2245 -2246 0
15205 -1125 1126 0
15205 1125 -1126 0
15205 -2405 2406 0
15205 2405 -2406 0
-5 -10245 -6 0
5 -10245 6 0
-10405 -1446 0
-165 -10405 166 0
165 -10405 -166 0
-11685 1446 0
-10565 -1606 0
-325 -10565 326 0
325 -10565 -326 0
-11845 1606 0
-10725 -1766 0
-485 -10725 486 0
485 -10725 -486 0
-12005 1766 0
-10885 -1926 0
-645 -10885 646 0
645 -10885 -646 0
-12165 1926 0
-11045 -2086 0
-805 -11045 806 0
805 -11045 -806 0
-12325 2086 0
-11205 -2246 0
-965 -11205 966 0
965 -11205 -966 0
-12485 2246 0
-165 -11685 -166 0
165 -11685 166 0
-325 -11845 -326 0
325 -11845 326 0
-485 -12005 -486 0
485 -12005 486 0
-645 -12165 -646 0
645 -12165 646 0
-805 -12325 -806 0
805 -12325 806 0
-965 -12485 -966 0
965 -12485 966 0
-1125 -12645 -1126 0
1125 -12645 1126 0
14086 -6 7 0
14086 6 -7 0
14086 -1286 1287 0
14086 1286 -1287 0
14246 -166 167 0
14246 166 -167 0
14246 -1446 1447 0
14246 1446 -1447 0
14406 -326 327 0
14406 326 -327 0
14406 -1606 1607 0
14406 1606 -1607 0
14566 -486 487 0
14566 486 -487 0
14566 -1766 1767 0
14566 1766 -1767 0
14726 -646 647 0
14726 646 -647 0
14726 -1926 1927 0
14726 1926 -1927 0
14886 -806 807 0
14886 806 -807 0
14886 -2086 2087 0
14886 2086 -2087 0
15046 -966 967 0
15046 966 -967 0
15046 -2246 2247 0
15046 2246 -2247 0
15206 -1126 1127 0
15206 1126 -1127 0
15206 -2406 2407 0
15206 2406 -2407 0
-6 -10246 -7 0
6 -10246 7 0
-10406 -1447 0
-166 -10406 167 0
166 -10406 -167 0
-11686 1447 0
-10566 -1607 0
-326 -10566 327 0
326 -10566 -327 0
-11846 1607 0
-10726 -1767 0
-486 -10726 487 0
486 -10726 -487 0
-12006 1767 0
-10886 -1927 0
-646 -10886 647 0
646 -10886 -647 0
-12166 1927 0
-11046 -2087 0
-806 -11046 807 0
806 -11046 -807 0
-12326 2087 0
-11206 -2247 0
-966 -11206 967 0
966 -11206 -967 0
-12486 2247 0
-166 -11686 -167 0
166 -11686 167 0
-326 -11846 -327 0
326 -11846 327 0
-486 -12006 -487 0
486 -12006 487 0
-646 -12166 -647 0
646 -12166 647 0
-806 -12326 -807 0
806 -12326 807 0
-966 -12486 -967 0
966 -12486 967 0
-1126 -12646 -1127 0
1126 -12646 1127 0
14087 -7 8 0
14087 7 -8 0
14087 -1287 1288 0
14087 1287 -1288 0
14247 -167 168 0
14247 167 -168 0
14247 -1447 1448 0
14247 1447 -1448 0
14407 -327 328 0
14407 327 -328 0
14407 -1607 1608 0
14407 1607 -1608 0
14567 -487 488 0
14567 487 -488 0
14567 -1767 1768 0
14567 1767 -1768 0
14727 -647 648 0
14727 647 -648 0
14727 -1927 1928 0
14727 1927 -1928 0
14887 -807 808 0
14887 807 -808 0
14887 -2087 2088 0
14887 2087 -2088 0
15047 -967 968 0
15047 967 -968 0
15047 -2247 2248 0
15047 2247 -2248 0
15207 -1127 1128 0
15207 1127 -1128 0
15207 -2407 2408 0
15207 2407 -2408 0
-7 -10247 -8 0
7 -10247 8 0
-10407 -1448 0
-167 -10407 168 0
167 -10407 -168 0
-11687 1448 0
-10567 -1608 0
-327 -10567 328 0
327 -10567 -328 0
-11847 1608 0
-10727 -1768 0
-487 -10727 488 0
487 -10727 -488 0
-12007 1768 0
-10887 -1928 0
-647 -10887 648 0
647 -10887 -648 0
-12167 1928 0
-11047 -2088 0
-807 -11047 808 0
807 -11047 -808 0
-12327 2088 0
-11207 -2248 0
-967 -11207 968 0
967 -11207 -968 0
-12487 2248 0
-167 -11687 -168 0
167 -11687 168 0
-327 -11847 -328 0
327 -11847 328 0
-487 -12007 -488 0
487 -12007 488 0
-647 -12167 -648 0
647 -12167 648 0
-807 -12327 -808 0
807 -12327 808 0
-967 -12487 -968 0
967 -12487 968 0
-1127 -12647 -1128 0
1127 -12647 1128 0
14088 -8 9 0
14088 8 -9 0
14088 -1288 1289 0
14088 1288 -1289 0
14248 -168 169 0
14248 168 -169 0
14248 -1448 1449 0
14248 1448 -1449 0
14408 -328 329 0
14408 328 -329 0
14408 -1608 1609 0
14408 1608 -1609 0
14568 -488 489 0
14568 488 -489 0
14568 -1768 1769 0
14568 1768 -1769 0
14728 -648 649 0
14728 648 -649 0
14728 -1928 1929 0
14728 1928 -1929 0
14888 -808 809 0
14888 808 -809 0
14888 -2088 2089 0
14888 2088 -2089 0
15048 -968 969 0
15048 968 -969 0
15048 -2248 2249 0
15048 2248 -2249 0
15208 -1128 1129 0
15208 1128 -1129 0
15208 -2408 2409 0
15208 2408 -2409 0
-8 -10248 -9 0
8 -10248 9 0
-10408 -1449 0
-168 -10408 169 0
168 -10408 -169 0
-11688 1449 0
-10568 -1609 0
-328 -10568 329 0
328 -10568 -329 0
-11848 1609 0
-10728 -1769 0
-488 -10728 489 0
488 -10728 -489 0
-12008 1769 0
-10888 -1929 0
-648 -10888 649 0
648 -10888 -649 0
-12168 1929 0
-11048 -2089 0
-808 -11048 809 0
808 -11048 -809 0
-12328 2089 0
-11208 -2249 0
-968 -11208 969 0
968 -11208 -969 0
-12488 2249 0
-168 -11688 -169 0
168 -11688 169 0
-328 -11848 -329 0
328 -11848 329 0
-488 -12008 -489 0
488 -12008 489 0
-648 -12168 -649 0
648 -12168 649 0
-808 -12328 -809 0
808 -12328 809 0
-968 -12488 -969 0
968 -12488 969 0
-1128 -12648 -1129 0
1128 -12648 1129 0
14089 -9 10 0
14089 9 -10 0
14089 -1289 1290 0
14089 1289 -1290 0
14249 -169 170 0
14249 169 -170 0
14249 -1449 1450 0
14249 1449 -1450 0
14409 -329 330 0
14409 329 -330 0
14409 -1609 1610 0
14409 1609 -1610 0
14569 -489 490 0
14569 489 -490 0
14569 -1769 1770 0
14569 1769 -1770 0
14729 -649 650 0
14729 649 -650 0
14729 -1929 1930 0
14729 1929 -1930 0
14889 -809 810 0
14889 809 -810 0
14889 -2089 2090 0
14889 2089 -2090 0
15049 -969 970 0
15049 969 -970 0
15049 -2249 2250 0
15049 2249 -2250 0
15209 -1129 1130 0
15209 1129 -1130 0
15209 -2409 2410 0
15209 2409 -2410 0
-9 -10249 -10 0
9 -10249 10 0
-10409 -1450 0
-169 -10409 170 0
169 -10409 -170 0
-11689 1450 0
-10569 -1610 0
-329 -10569 330 0
329 -10569 -330 0
-11849 1610 0
-10729 -1770 0
-489 -10729 490 0
489 -10729 -490 0
-12009 1770 0
-10889 -1930 0
-649 -10889 650 0
649 -10889 -650 0
-12169 1930 0
-11049 -2090 0
-809 -11049 810 0
809 -11049 -810 0
-12329 2090 0
-11209 -2250 0
-969 -11209 970 0
969 -11209 -970 0
-12489 2250 0
-169 -11689 -170 0
169 -11689 170 0
-329 -11849 -330 0
329 -11849 330 0
-489 -12009 -490 0
489 -12009 490 0
-649 -12169 -650 0
649 -12169 650 0
-809 -12329 -810 0
809 -12329 810 0
-969 -12489 -970 0
969 -12489 970 0
-1129 -12649 -1130 0
1129 -12649 1130 0
14090 -10 11 0
14090 10 -11 0
14090 -1290 1291 0
14090 1290 -1291 0
14250 -170 171 0
14250 170 -171 0
14250 -1450 1451 0
14250 1450 -1451 0
14410 -330 331 0
14410 330 -331 0
14410 -1610 1611 0
14410 1610 -1611 0
14570 -490 491 0
14570 490 -491 0
14570 -1770 1771 0
14570 1770 -1771 0
14730 -650 651 0
14730 650 -651 0
14730 -1930 1931 0
14730 1930 -1931 0
14890 -810 811 0
14890 810 -811 0
14890 -2090 2091 0
14890 2090 -2091 0
15050 -970 971 0
15050 970 -971 0
15050 -2250 2251 0
15050 2250 -2251 0
15210 -1130 1131 0
15210 1130 -1131 0
15210 -2410 2411 0
15210 2410 -2411 0
-10 -10250 -11 0
10 -10250 11 0
-10410 -1451 0
-170 -10410 171 0
170 -10410 -171 0
-11690 1451 0
-10570 -1611 0
-330 -10570 331 0
330 -10570 -331 0
-11850 1611 0
-10730 -1771 0
-490 -10730 491 0
490 -10730 -491 0
-12010 1771 0
-10890 -1931 0
-650 -10890 651 0
650 -10890 -651 0
-12170 1931 0
-11050 -2091 0
-810 -11050 811 0
810 -11050 -811 0
-12330 2091 0
-11210 -2251 0
-970 -11210 971 0
970 -11210 -971 0
-12490 2251 0
-170 -11690 -171 0
170 -11690 171 0
-330 -11850 -331 0
330 -11850 331 0
-490 -12010 -491 0
490 -12010 491 0
-650 -12170 -651 0
650 -12170 651 0
-810 -12330 -811 0
810 -12330 811 0
-970 -12490 -971 0
970 -12490 971 0
-1130 -12650 -1131 0
1130 -12650 1131 0
14091 -11 12 0
14091 11 -12 0
14091 -1291 1292 0
14091 1291 -1292 0
14251 -171 172 0
14251 171 -172 0
14251 -1451 1452 0
14251 1451 -1452 0
14411 -331 332 0
14411 331 -332 0
14411 -1611 1612 0
14411 1611 -1612 0
14571 -491 492 0
14571 491 -492 0
14571 -1771 1772 0
14571 1771 -1772 0
14731 -651 652 0
14731 651 -652 0
14731 -1931 1932 0
14731 1931 -1932 0
14891 -811 812 0
14891 811 -812 0
14891 -2091 2092 0
14891 2091 -2092 0
15051 -971 972 0
15051 971 -972 0
15051 -2251 2252 0
15051 2251 -2252 0
15211 -1131 1132 0
15211 1131 -1132 0
15211 -2411 2412 0
15211 2411 -2412 0
-11 -10251 -12 0
11 -10251 12 0
-10411 -1452 0
-171 -10411 172 0
171 -10411 -172 0
-11691 1452 0
-10571 -1612 0
-331 -10571 332 0
331 -10571 -332 0
-11851 1612 0
-10731 -1772 0
-491 -10731 492 0
491 -10731 -492 0
-12011 1772 0
-10891 -1932 0
-651 -10891 652 0
651 -10891 -652 0
-12171 1932 0
-11051 -2092 0
-811 -11051 812 0
811 -11051 -812 0
-12331 2092 0
-11211 -2252 0
-971 -11211 972 0
971 -11211 -972 0
-12491 2252 0
-171 -11691 -172 0
171 -11691 172 0
-331 -11851 -332 0
331 -11851 332 0
-491 -12011 -492 0
491 -12011 492 0
-651 -12171 -652 0
651 -12171 652 0
-811 -12331 -812 0
811 -12331 812 0
-971 -12491 -972 0
971 -12491 972 0
-1131 -12651 -1132 0
1131 -12651 1132 0
14092 -12 13 0
14092 12 -13 0
14092 -1292 1293 0
14092 1292 -1293 0
14252 -172 173 0
14252 172 -173 0
14252 -1452 1453 0
14252 1452 -1453 0
14412 -332 333 0
14412 332 -333 0
14412 -1612 1613 0
14412 1612 -1613 0
14572 -492 493 0
14572 492 -493 0
14572 -1772 1773 0
14572 1772 -1773 0
14732 -652 653 0
14732 652 -653 0
14732 -1932 1933 0
14732 1932 -1933 0
14892 -812 813 0
14892 812 -813 0
14892 -2092 2093 0
14892 2092 -2093 0
15052 -972 973 0
15052 972 -973 0
15052 -2252 2253 0
15052 2252 -2253 0
15212 -1132 1133 0
15212 1132 -1133 0
15212 -2412 2413 0
15212 2412 -2413 0
-12 -10252 -13 0
12 -10252 13 0
-10412 -1453 0
-172 -10412 173 0
172 -10412 -173 0
-11692 1453 0
-10572 -1613 0
-332 -10572 333 0
332 -10572 -333 0
-11852 1613 0
-10732 -1773 0
-492 -10732 493 0
492 -10732 -493 0
-12012 1773 0
-10892 -1933 0
-652 -10892 653 0
652 -10892 -653 0
-12172 1933 0
-11052 -2093 0
-812 -11052 813 0
812 -11052 -813 0
-12332 2093 0
-11212 -2253 0
-972 -11212 973 0
972 -11212 -973 0
-12492 2253 0
-172 -11692 -173 0
172 -11692 173 0
-332 -11852 -333 0
332 -11852 333 0
-492 -12012 -493 0
492 -12012 493 0
-652 -12172 -653 0
652 -12172 653 0
-812 -12332 -813 0
812 -12332 813 0
-972 -12492 -973 0
972 -12492 973 0
-1132 -12652 -1133 0
1132 -12652 1133 0
14093 -13 14 0
14093 13 -14 0
14093 -1293 1294 0
14093 1293 -1294 0
14253 -173 174 0
14253 173 -174 0
14253 -1453 1454 0
14253 1453 -1454 0
14413 -333 334 0
14413 333 -334 0
14413 -1613 1614 0
14413 1613 -1614 0
14573 -493 494 0
14573 493 -494 0
14573 -1773 1774 0
14573 1773 -1774 0
14733 -653 654 0
14733 653 -654 0
14733 -1933 1934 0
14733 1933 -1934 0
14893 -813 814 0
14893 813 -814 0
14893 -2093 2094 0
14893 2093 -2094 0
15053 -973 974 0
15053 973 -974 0
15053 -2253 2254 0
15053 2253 -2254 0
15213 -1133 1134 0
15213 1133 -1134 0
15213 -2413 2414 0
15213 2413 -2414 0
-13 -10253 -14 0
13 -10253 14 0
-10413 -1454 0
-173 -10413 174 0
173 -10413 -174 0
-11693 1454 0
-10573 -1614 0
-333 -10573 334 0
333 -10573 -334 0
-11853 1614 0
-10733 -1774 0
-493 -10733 494 0
493 -10733 -494 0
-12013 1774 0
-10893 -1934 0
-653 -10893 654 0
653 -10893 -654 0
-12173 1934 0
-11053 -2094 0
-813 -11053 814 0
813 -11053 -814 0
-12333 2094 0
-11213 -2254 0
-973 -11213 974 0
973 -11213 -974 0
-12493 2254 0
-173 -11693 -174 0
173 -11693 174 0
-333 -11853 -334 0
333 -11853 334 0
-493 -12013 -494 0
493 -12013 494 0
-653 -12173 -654 0
653 -12173 654 0
-813 -12333 -814 0
813 -12333 814 0
-973 -12493 -974 0
973 -12493 974 0
-1133 -12653 -1134 0
1133 -12653 1134 0
14094 -14 15 0
14094 14 -15 0
14094 -1294 1295 0
14094 1294 -1295 0
14254 -174 175 0
14254 174 -175 0
14254 -1454 1455 0
14254 1454 -1455 0
14414 -334 335 0
14414 334 -335 0
14414 -1614 1615 0
14414 1614 -1615 0
14574 -494 495 0
14574 494 -495 0
14574 -1774 1775 0
14574 1774 -1775 0
14734 -654 655 0
14734 654 -655 0
14734 -1934 1935 0
14734 1934 -1935 0
14894 -814 815 0
14894 814 -815 0
14894 -2094 2095 0
14894 2094 -2095 0
15054 -974 975 0
15054 974 -975 0
15054 -2254 2255 0
15054 2254 -2255 0
15214 -1134 1135 0
15214 1134 -1135 0
15214 -2414 2415 0
15214 2414 -2415 0
-14 -10254 -15 0
14 -10254 15 0
-10414 -1455 0
-174 -10414 175 0
174 -10414 -175 0
-11694 1455 0
-10574 -1615 0
-334 -10574 335 0
334 -10574 -335 0
-11854 1615 0
-10734 -1775 0
-494 -10734 495 0
494 -10734 -495 0
-12014 1775 0
-10894 -1935 0
-654 -10894 655 0
654 -10894 -655 0
-12174 1935 0
-11054 -2095 0
-814 -11054 815 0
814 -11054 -815 0
-12334 2095 0
-11214 -2255 0
-974 -11214 975 0
974 -11214 -975 0
-12494 2255 0
-174 -11694 -175 0
174 -11694 175 0
-334 -11854 -335 0
334 -11854 335 0
-494 -12014 -495 0
494 -12014 495 0
-654 -12174 -655 0
654 -12174 655 0
-814 -12334 -815 0
814 -12334 815 0
-974 -12494 -975 0
974 -12494 975 0
-1134 -12654 -1135 0
1134 -12654 1135 0
14095 -15 16 0
14095 15 -16 0
14095 -1295 1296 0
14095 1295 -1296 0
14255 -175 176 0
14255 175 -176 0
14255 -1455 1456 0
14255 1455 -1456 0
14415 -335 336 0
14415 335 -336 0
14415 -1615 1616 0
14415 1615 -1616 0
14575 -495 496 0
14575 495 -496 0
14575 -1775 1776 0
14575 1775 -1776 0
14735 -655 656 0
14735 655 -656 0
14735 -1935 1936 0
14735 1935 -1936 0
14895 -815 816 0
14895 815 -816 0
14895 -2095 2096 0
14895 2095 -2096 0
15055 -975 976 0
15055 975 -976 0
15055 -2255 2256 0
15055 2255 -2256 0
15215 -1135 1136 0
15215 1135 -1136 0
15215 -2415 2416 0
15215 2415 -2416 0
-15 -10255 -16 0
15 -10255 16 0
-10415 -1456 0
-175 -10415 176 0
175 -10415 -176 0
-11695 1456 0
-10575 -1616 0
-335 -10575 336 0
335 -10575 -336 0
-11855 1616 0
-10735 -1776 0
-495 -10735 496 0
495 -10735 -496 0
-12015 1776 0
-10895 -1936 0
-655 -10895 656 0
655 -10895 -656 0
-12175 1936 0
-11055 -2096 0
-815 -11055 816 0
815 -11055 -816 0
-12335 2096 0
-11215 -2256 0
-975 -11215 976 0
975 -11215 -976 0
-12495 2256 0
-175 -11695 -176 0
175 -11695 176 0
-335 -11855 -336 0
335 -11855 336 0
-495 -12015 -496 0
495 -12015 496 0
-655 -12175 -656 0
655 -12175 656 0
-815 -12335 -816 0
815 -12335 816 0
-975 -12495 -976 0
975 -12495 976 0
-1135 -12655 -1136 0
1135 -12655 1136 0
14096 -16 17 0
14096 16 -17 0
14096 -1296 1297 0
14096 1296 -1297 0
14256 -176 177 0
14256 176 -177 0
14256 -1456 1457 0
14256 1456 -1457 0
14416 -336 337 0
14416 336 -337 0
14416 -1616 1617 0
14416 1616 -1617 0
14576 -496 497 0
14576 496 -497 0
14576 -1776 1777 0
14576 1776 -1777 0
14736 -656 657 0
14736 656 -657 0
14736 -1936 1937 0
14736 1936 -1937 0
14896 -816 817 0
14896 816 -817 0
14896 -2096 2097 0
14896 2096 -2097 0
15056 -976 977 0
15056 976 -977 0
15056 -2256 2257 0
15056 2256 -2257 0
15216 -1136 1137 0
15216 1136 -1137 0
15216 -2416 2417 0
15216 2416 -2417 0
-16 -10256 -17 0
16 -10256 17 0
-10416 -1457 0
-176 -10416 177 0
176 -10416 -177 0
-11696 1457 0
-10576 -1617 0
-336 -10576 337 0
336 -10576 -337 0
-11856 1617 0
-10736 -1777 0
-496 -10736 497 0
496 -10736 -497 0
-12016 1777 0
-10896 -1937 0
-656 -10896 657 0
656 -10896 -657 0
-12176 1937 0
-11056 -2097 0
-816 -11056 817 0
816 -11056 -817 0
-12336 2097 0
-11216 -2257 0
-976 -11216 977 0
976 -11216 -977 0
-12496 2257 0
-176 -11696 -177 0
176 -11696 177 0
-336 -11856 -337 0
336 -11856 337 0
-496 -12016 -497 0
496 -12016 497 0
-656 -12176 -657 0
656 -12176 657 0
-816 -12336 -817 0
816 -12336 817 0
-976 -12496 -977 0
976 -12496 977 0
-1136 -12656 -1137 0
1136 -12656 1137 0
14097 -17 18 0
14097 17 -18 0
14097 -1297 1298 0
14097 1297 -1298 0
14257 -177 178 0
14257 177 -178 0
14257 -1457 1458 0
14257 1457 -1458 0
14417 -337 338 0
14417 337 -338 0
14417 -1617 1618 0
14417 1617 -1618 0
14577 -497 498 0
14577 497 -498 0
14577 -1777 1778 0
14577 1777 -1778 0
14737 -657 658 0
14737 657 -658 0
14737 -1937 1938 0
14737 1937 -1938 0
14897 -817 818 0
14897 817 -818 0
14897 -2097 2098 0
14897 2097 -2098 0
15057 -977 978 0
15057 977 -978 0
15057 -2257 2258 0
15057 2257 -2258 0
15217 -1137 1138 0
15217 1137 -1138 0
15217 -2417 2418 0
15217 2417 -2418 0
-17 -10257 -18 0
17 -10257 18 0
-10417 -1458 0
-177 -10417 178 0
177 -10417 -178 0
-11697 1458 0
-10577 -1618 0
-337 -10577 338 0
337 -10577 -338 0
-11857 1618 0
-10737 -1778 0
-497 -10737 498 0
497 -10737 -498 0
-12017 1778 0
-10897 -1938 0
-657 -10897 658 0
657 -10897 -658 0
-12177 1938 0
-11057 -2098 0
-817 -11057 818 0
817 -11057 -818 0
-12337 2098 0
-11217 -2258 0
-977 -11217 978 0
977 -11217 -978 0
-12497 2258 0
-177 -11697 -178 0
177 -11697 178 0
-337 -11857 -338 0
337 -11857 338 0
-497 -12017 -498 0
497 -12017 498 0
-657 -12177 -658 0
657 -12177 658 0
-817 -12337 -818 0
817 -12337 818 0
-977 -12497 -978 0
977 -12497 978 0
-1137 -12657 -1138 0
1137 -12657 1138 0
14098 -18 19 0
14098 18 -19 0
14098 -1298 1299 0
14098 1298 -1299 0
14258 -178 179 0
14258 178 -179 0
14258 -1458 1459 0
14258 1458 -1459 0
14418 -338 339 0
14418 338 -339 0
14418 -1618 1619 0
14418 1618 -1619 0
14578 -498 499 0
14578 498 -499 0
14578 -1778 1779 0
14578 1778 -1779 0
14738 -658 659 0
14738 658 -659 0
14738 -1938 1939 0
14738 1938 -1939 0
14898 -818 819 0
14898 818 -819 0
14898 -2098 2099 0
14898 2098 -2099 0
15058 -978 979 0
15058 978 -979 0
15058 -2258 2259 0
15058 2258 -2259 0
15218 -1138 1139 0
15218 1138 -1139 0
15218 -2418 2419 0
15218 2418 -2419 0
-18 -10258 -19 0
18 -10258 19 0
-10418 -1459 0
-178 -10418 179 0
178 -10418 -179 0
-11698 1459 0
-10578 -1619 0
-338 -10578 339 0
338 -10578 -339 0
-11858 1619 0
-10738 -1779 0
-498 -10738 499 0
498 -10738 -499 0
-12018 1779 0
-10898 -1939 0
-658 -10898 659 0
658 -10898 -659 0
-12178 1939 0
-11058 -2099 0
-818 -11058 819 0
818 -11058 -819 0
-12338 2099 0
-11218 -2259 0
-978 -11218 979 0
978 -11218 -979 0
-12498 2259 0
-178 -11698 -179 0
178 -11698 179 0
-338 -11858 -339 0
338 -11858 339 0
-498 -12018 -499 0
498 -12018 499 0
-658 -12178 -659 0
658 -12178 659 0
-818 -12338 -819 0
818 -12338 819 0
-978 -12498 -979 0
978 -12498 979 0
-1138 -12658 -1139 0
1138 -12658 1139 0
14099 -19 20 0
14099 19 -20 0
14099 -1299 1300 0
14099 1299 -1300 0
14259 -179 180 0
14259 179 -180 0
14259 -1459 1460 0
14259 1459 -1460 0
14419 -339 340 0
14419 339 -340 0
14419 -1619 1620 0
14419 1619 -1620 0
14579 -499 500 0
14579 499 -500 0
14579 -1779 1780 0
14579 1779 -1780 0
14739 -659 660 0
14739 659 -660 0
14739 -1939 1940 0
14739 1939 -1940 0
14899 -819 820 0
14899 819 -820 0
14899 -2099 2100 0
14899 2099 -2100 0
15059 -979 980 0
15059 979 -980 0
15059 -2259 2260 0
15059 2259 -2260 0
15219 -1139 1140 0
15219 1139 -1140 0
15219 -2419 2420 0
15219 2419 -2420 0
-19 -10259 -20 0
19 -10259 20 0
-10419 -1460 0
-179 -10419 180 0
179 -10419 -180 0
-11699 1460 0
-10579 -1620 0
-339 -10579 340 0
339 -10579 -340 0
-11859 1620 0
-10739 -1780 0
-499 -10739 500 0
499 -10739 -500 0
-12019 1780 0
-10899 -1940 0
-659 -10899 660 0
659 -10899 -660 0
-12179 1940 0
-11059 -2100 0
-819 -11059 820 0
819 -11059 -820 0
-12339 2100 0
-11219 -2260 0
-979 -11219 980 0
979 -11219 -980 0
-12499 2260 0
-179 -11699 -180 0
179 -11699 180 0
-339 -11859 -340 0
339 -11859 340 0
-499 -12019 -500 0
499 -12019 500 0
-659 -12179 -660 0
659 -12179 660 0
-819 -12339 -820 0
819 -12339 820 0
-979 -12499 -980 0
979 -12499 980 0
-1139 -12659 -1140 0
1139 -12659 1140 0
14100 -20 21 0
14100 20 -21 0
14100 -1300 1301 0
14100 1300 -1301 0
14260 -180 181 0
14260 180 -181 0
14260 -1460 1461 0
14260 1460 -1461 0
14420 -340 341 0
14420 340 -341 0
14420 -1620 1621 0
14420 1620 -1621 0
14580 -500 501 0
14580 500 -501 0
14580 -1780 1781 0
14580 1780 -1781 0
14740 -660 661 0
14740 660 -661 0
14740 -1940 1941 0
14740 1940 -1941 0
14900 -820 821 0
14900 820 -821 0
14900 -2100 2101 0
14900 2100 -2101 0
15060 -980 981 0
15060 980 -981 0
15060 -2260 2261 0
15060 2260 -2261 0
15220 -1140 1141 0
15220 1140 -1141 0
15220 -2420 2421 0
15220 2420 -2421 0
-20 -10260 -21 0
20 -10260 21 0
-10420 -1461 0
-180 -10420 181 0
180 -10420 -181 0
-11700 1461 0
-10580 -1621 0
-340 -10580 341 0
340 -10580 -341 0
-11860 1621 0
-10740 -1781 0
-500 -10740 501 0
500 -10740 -501 0
-12020 1781 0
-10900 -1941 0
-660 -10900 661 0
660 -10900 -661 0
-12180 1941 0
-11060 -2101 0
-820 -11060 821 0
820 -11060 -821 0
-12340 2101 0
-11220 -2261 0
-980 -11220 981 0
980 -11220 -981 0
-12500 2261 0
-180 -11700 -181 0
180 -11700 181 0
-340 -11860 -341 0
340 -11860 341 0
-500 -12020 -501 0
500 -12020 501 0
-660 -12180 -661 0
660 -12180 661 0
-820 -12340 -821 0
820 -12340 821 0
-980 -12500 -981 0
980 -12500 981 0
-1140 -12660 -1141 0
1140 -12660 1141 0
14101 -21 22 0
14101 21 -22 0
14101 -1301 1302 0
14101 1301 -1302 0
14261 -181 182 0
14261 181 -182 0
14261 -1461 1462 0
14261 1461 -1462 0
14421 -341 342 0
14421 341 -342 0
14421 -1621 1622 0
14421 1621 -1622 0
14581 -501 502 0
14581 501 -502 0
14581 -1781 1782 0
14581 1781 -1782 0
14741 -661 662 0
14741 661 -662 0
14741 -1941 1942 0
14741 1941 -1942 0
14901 -821 822 0
14901 821 -822 0
14901 -2101 2102 0
14901 2101 -2102 0
15061 -981 982 0
15061 981 -982 0
15061 -2261 2262 0
15061 2261 -2262 0
15221 -1141 1142 0
15221 1141 -1142 0
15221 -2421 2422 0
15221 2421 -2422 0
-21 -10261 -22 0
21 -10261 22 0
-10421 -1462 0
-181 -10421 182 0
181 -10421 -182 0
-11701 1462 0
-10581 -1622 0
-341 -10581 342 0
341 -10581 -342 0
-11861 1622 0
-10741 -1782 0
-501 -10741 502 0
501 -10741 -502 0
-12021 1782 0
-10901 -1942 0
-661 -10901 662 0
661 -10901 -662 0
-12181 1942 0
-11061 -2102 0
-821 -11061 822 0
821 -11061 -822 0
-12341 2102 0
-11221 -2262 0
-981 -11221 982 0
981 -11221 -982 0
-12501 2262 0
-181 -11701 -182 0
181 -11701 182 0
-341 -11861 -342 0
341 -11861 342 0
-501 -12021 -502 0
501 -12021 502 0
-661 -12181 -662 0
661 -12181 662 0
-821 -12341 -822 0
821 -12341 822 0
-981 -12501 -982 0
981 -12501 982 0
-1141 -12661 -1142 0
1141 -12661 1142 0
14102 -22 23 0
14102 22 -23 0
14102 -1302 1303 0
14102 1302 -1303 0
14262 -182 183 0
14262 182 -183 0
14262 -1462 1463 0
14262 1462 -1463 0
14422 -342 343 0
14422 342 -343 0
14422 -1622 1623 0
14422 1622 -1623 0
14582 -502 503 0
14582 502 -503 0
14582 -1782 1783 0
14582 1782 -1783 0
14742 -662 663 0
14742 662 -663 0
14742 -1942 1943 0
14742 1942 -1943 0
14902 -822 823 0
14902 822 -823 0
14902 -2102 2103 0
14902 2102 -2103 0
15062 -982 983 0
15062 982 -983 0
15062 -2262 2263 0
15062 2262 -2263 0
15222 -1142 1143 0
15222 1142 -1143 0
15222 -2422 2423 0
15222 2422 -2423 0
-22 -10262 -23 0
22 -10262 23 0
-10422 -1463 0
-182 -10422 183 0
182 -10422 -183 0
-11702 1463 0
-10582 -1623 0
-342 -10582 343 0
342 -10582 -343 0
-11862 1623 0
-10742 -1783 0
-502 -10742 503 0
502 -10742 -503 0
-12022 1783 0
-10902 -1943 0
-662 -10902 663 0
662 -10902 -663 0
-12182 1943 0
-11062 -2103 0
-822 -11062 823 0
822 -11062 -823 0
-12342 2103 0
-11222 -2263 0
-982 -11222 983 0
982 -11222 -983 0
-12502 2263 0
-182 -11702 -183 0
182 -11702 183 0
-342 -11862 -343 0
342 -11862 343 0
-502 -12022 -503 0
502 -12022 503 0
-662 -12182 -663 0
662 -12182 663 0
-822 -12342 -823 0
822 -12342 823 0
-982 -12502 -983 0
982 -12502 983 0
-1142 -12662 -1143 0
1142 -12662 1143 0
14103 -23 24 0
14103 23 -24 0
14103 -1303 1304 0
14103 1303 -1304 0
14263 -183 184 0
14263 183 -184 0
14263 -1463 1464 0
14263 1463 -1464 0
14423 -343 344 0
14423 343 -344 0
14423 -1623 1624 0
14423 1623 -1624 0
14583 -503 504 0
14583 503 -504 0
14583 -1783 1784 0
14583 1783 -1784 0
14743 -663 664 0
14743 663 -664 0
14743 -1943 1944 0
14743 1943 -1944 0
14903 -823 824 0
14903 823 -824 0
14903 -2103 2104 0
14903 2103 -2104 0
15063 -983 984 0
15063 983 -984 0
15063 -2263 2264 0
15063 2263 -2264 0
15223 -1143 1144 0
15223 1143 -1144 0
15223 -2423 2424 0
15223 2423 -2424 0
-23 -10263 -24 0
23 -10263 24 0
-10423 -1464 0
-183 -10423 184 0
183 -10423 -184 0
-11703 1464 0
-10583 -1624 0
-343 -10583 344 0
343 -10583 -344 0
-11863 1624 0
-10743 -1784 0
-503 -10743 504 0
503 -10743 -504 0
-12023 1784 0
-10903 -1944 0
-663 -10903 664 0
663 -10903 -664 0
-12183 1944 0
-11063 -2104 0
-823 -11063 824 0
823 -11063 -824 0
-12343 2104 0
-11223 -2264 0
-983 -11223 984 0
983 -11223 -984 0
-12503 2264 0
-183 -11703 -184 0
183 -11703 184 0
-343 -11863 -344 0
343 -11863 344 0
-503 -12023 -504 0
503 -12023 504 0
-663 -12183 -664 0
663 -12183 664 0
-823 -12343 -824 0
823 -12343 824 0
-983 -12503 -984 0
983 -12503 984 0
-1143 -12663 -1144 0
1143 -12663 1144 0
14104 -24 25 0
14104 24 -25 0
14104 -1304 1305 0
14104 1304 -1305 0
14264 -184 185 0
14264 184 -185 0
14264 -1464 1465 0
14264 1464 -1465 0
14424 -344 345 0
14424 344 -345 0
14424 -1624 1625 0
14424 1624 -1625 0
14584 -504 505 0
14584 504 -505 0
14584 -1784 1785 0
14584 1784 -1785 0
14744 -664 665 0
14744 664 -665 0
14744 -1944 1945 0
14744 1944 -1945 0
14904 -824 825 0
14904 824 -825 0
14904 -2104 2105 0
14904 2104 -2105 0
15064 -984 985 0
15064 984 -985 0
15064 -2264 2265 0
15064 2264 -2265 0
15224 -1144 1145 0
15224 1144 -1145 0
15224 -2424 2425 0
15224 2424 -2425 0
-24 -10264 -25 0
24 -10264 25 0
-10424 -1465 0
-184 -10424 185 0
184 -10424 -185 0
-11704 1465 0
-10584 -1625 0
-344 -10584 345 0
344 -10584 -345 0
-11864 1625 0
-10744 -1785 0
-504 -10744 505 0
504 -10744 -505 0
-12024 1785 0
-10904 -1945 0
-664 -10904 665 0
664 -10904 -665 0
-12184 1945 0
-11064 -2105 0
-824 -11064 825 0
824 -11064 -825 0
-12344 2105 0
-11224 -2265 0
-984 -11224 985 0
984 -11224 -985 0
-12504 2265 0
-184 -11704 -185 0
184 -11704 185 0
-344 -11864 -345 0
344 -11864 345 0
-504 -12024 -505 0
504 -12024 505 0
-664 -12184 -665 0
664 -12184 665 0
-824 -12344 -825 0
824 -12344 825 0
-984 -12504 -985 0
984 -12504 985 0
-1144 -12664 -1145 0
1144 -12664 1145 0
14105 -25 26 0
14105 25 -26 0
14105 -1305 1306 0
14105 1305 -1306 0
14265 -185 186 0
14265 185 -186 0
14265 -1465 1466 0
14265 1465 -1466 0
14425 -345 346 0
14425 345 -346 0
14425 -1625 1626 0
14425 1625 -1626 0
14585 -505 506 0
14585 505 -506 0
14585 -1785 1786 0
14585 1785 -1786 0
14745 -665 666 0
14745 665 -666 0
14745 -1945 1946 0
14745 1945 -1946 0
14905 -825 826 0
14905 825 -826 0
14905 -2105 2106 0
14905 2105 -2106 0
15065 -985 986 0
15065 985 -986 0
15065 -2265 2266 0
15065 2265 -2266 0
15225 -1145 1146 0
15225 1145 -1146 0
15225 -2425 2426 0
15225 2425 -2426 0
-25 -10265 -26 0
25 -10265 26 0
-10425 -1466 0
-185 -10425 186 0
185 -10425 -186 0
-11705 1466 0
-10585 -1626 0
-345 -10585 346 0
345 -10585 -346 0
-11865 1626 0
-10745 -1786 0
-505 -10745 506 0
505 -10745 -506 0
-12025 1786 0
-10905 -1946 0
-665 -10905 666 0
665 -10905 -666 0
-12185 1946 0
-11065 -2106 0
-825 -11065 826 0
825 -11065 -826 0
-12345 2106 0
-11225 -2266 0
-985 -11225 986 0
985 -11225 -986 0
-12505 2266 0
-185 -11705 -186 0
185 -11705 186 0
-345 -11865 -346 0
345 -11865 346 0
-505 -12025 -506 0
505 -12025 506 0
-665 -12185 -666 0
665 -12185 666 0
-825 -12345 -826 0
825 -12345 826 0
-985 -12505 -986 0
985 -12505 986 0
-1145 -12665 -1146 0
1145 -12665 1146 0
14106 -26 27 0
14106 26 -27 0
14106 -1306 1307 0
14106 1306 -1307 0
14266 -186 187 0
14266 186 -187 0
14266 -1466 1467 0
14266 1466 -1467 0
14426 -346 347 0
14426 346 -347 0
14426 -1626 1627 0
14426 1626 -1627 0
14586 -506 507 0
14586 506 -507 0
14586 -1786 1787 0
14586 1786 -1787 0
14746 -666 667 0
14746 666 -667 0
14746 -1946 1947 0
14746 1946 -1947 0
14906 -826 827 0
14906 826 -827 0
14906 -2106 2107 0
14906 2106 -2107 0
15066 -986 987 0
15066 986 -987 0
15066 -2266 2267 0
15066 2266 -2267 0
15226 -1146 1147 0
15226 1146 -1147 0
15226 -2426 2427 0
15226 2426 -2427 0
-26 -10266 -27 0
26 -10266 27 0
-10426 -1467 0
-186 -10426 187 0
186 -10426 -187 0
-11706 1467 0
-10586 -1627 0
-346 -10586 347 0
346 -10586 -347 0
-11866 1627 0
-10746 -1787 0
-506 -10746 507 0
506 -10746 -507 0
-12026 1787 0
-10906 -1947 0
-666 -10906 667 0
666 -10906 -667 0
-12186 1947 0
-11066 -2107 0
-826 -11066 827 0
826 -11066 -827 0
-12346 2107 0
-11226 -2267 0
-986 -11226 987 0
986 -11226 -987 0
-12506 2267 0
-186 -11706 -187 0
186 -11706 187 0
-346 -11866 -347 0
346 -11866 347 0
-506 -12026 -507 0
506 -12026 507 0
-666 -12186 -667 0
666 -12186 667 0
-826 -12346 -827 0
826 -12346 827 0
-986 -12506 -987 0
986 -12506 987 0
-1146 -12666 -1147 0
1146 -12666 1147 0
14107 -27 28 0
14107 27 -28 0
14107 -1307 1308 0
14107 1307 -1308 0
14267 -187 188 0
14267 187 -188 0
14267 -1467 1468 0
14267 1467 -1468 0
14427 -347 348 0
14427 347 -348 0
14427 -1627 1628 0
14427 1627 -1628 0
14587 -507 508 0
14587 507 -508 0
14587 -1787 1788 0
14587 1787 -1788 0
14747 -667 668 0
14747 667 -668 0
14747 -1947 1948 0
14747 1947 -1948 0
14907 -827 828 0
14907 827 -828 0
14907 -2107 2108 0
14907 2107 -2108 0
15067 -987 988 0
15067 987 -988 0
15067 -2267 2268 0
15067 2267 -2268 0
15227 -1147 1148 0
15227 1147 -1148 0
15227 -2427 2428 0
15227 2427 -2428 0
-27 -10267 -28 0
27 -10267 28 0
-10427 -1468 0
-187 -10427 188 0
187 -10427 -188 0
-11707 1468 0
-10587 -1628 0
-347 -10587 348 0
347 -10587 -348 0
-11867 1628 0
-10747 -1788 0
-507 -10747 508 0
507 -10747 -508 0
-12027 1788 0
-10907 -1948 0
-667 -10907 668 0
667 -10907 -668 0
-12187 1948 0
-11067 -2108 0
-827 -11067 828 0
827 -11067 -828 0
-12347 2108 0
-11227 -2268 0
-987 -11227 988 0
987 -11227 -988 0
-12507 2268 0
-187 -11707 -188 0
187 -11707 188 0
-347 -11867 -348 0
347 -11867 348 0
-507 -12027 -508 0
507 -12027 508 0
-667 -12187 -668 0
667 -12187 668 0
-827 -12347 -828 0
827 -12347 828 0
-987 -12507 -988 0
987 -12507 988 0
-1147 -12667 -1148 0
1147 -12667 1148 0
14108 -28 29 0
14108 28 -29 0
14108 -1308 1309 0
14108 1308 -1309 0
14268 -188 189 0
14268 188 -189 0
14268 -1468 1469 0
14268 1468 -1469 0
14428 -348 349 0
14428 348 -349 0
14428 -1628 1629 0
14428 1628 -1629 0
14588 -508 509 0
14588 508 -509 0
14588 -1788 1789 0
14588 1788 -1789 0
14748 -668 669 0
14748 668 -669 0
14748 -1948 1949 0
14748 1948 -1949 0
14908 -828 829 0
14908 828 -829 0
14908 -2108 2109 0
14908 2108 -2109 0
15068 -988 989 0
15068 988 -989 0
15068 -2268 2269 0
15068 2268 -2269 0
15228 -1148 1149 0
15228 1148 -1149 0
15228 -2428 2429 0
15228 2428 -2429 0
-28 -10268 -29 0
28 -10268 29 0
-10428 -1469 0
-188 -10428 189 0
188 -10428 -189 0
-11708 1469 0
-10588 -1629 0
-348 -10588 349 0
348 -10588 -349 0
-11868 1629 0
-10748 -1789 0
-508 -10748 509 0
508 -10748 -509 0
-12028 1789 0
-10908 -1949 0
-668 -10908 669 0
668 -10908 -669 0
-12188 1949 0
-11068 -2109 0
-828 -11068 829 0
828 -11068 -829 0
-12348 2109 0
-11228 -2269 0
-988 -11228 989 0
988 -11228 -989 0
-12508 2269 0
-188 -11708 -189 0
188 -11708 189 0
-348 -11868 -349 0
348 -11868 349 0
-508 -12028 -509 0
508 -12028 509 0
-668 -12188 -669 0
668 -12188 669 0
-828 -12348 -829 0
828 -12348 829 0
-988 -12508 -989 0
988 -12508 989 0
-1148 -12668 -1149 0
1148 -12668 1149 0
14109 -29 30 0
14109 29 -30 0
14109 -1309 1310 0
14109 1309 -1310 0
14269 -189 190 0
14269 189 -190 0
14269 -1469 1470 0
14269 1469 -1470 0
14429 -349 350 0
14429 349 -350 0
14429 -1629 1630 0
14429 1629 -1630 0
14589 -509 510 0
14589 509 -510 0
14589 -1789 1790 0
14589 1789 -1790 0
14749 -669 670 0
14749 669 -670 0
14749 -1949 1950 0
14749 1949 -1950 0
14909 -829 830 0
14909 829 -830 0
14909 -2109 2110 0
14909 2109 -2110 0
15069 -989 990 0
15069 989 -990 0
15069 -2269 2270 0
15069 2269 -2270 0
15229 -1149 1150 0
15229 1149 -1150 0
15229 -2429 2430 0
15229 2429 -2430 0
-29 -10269 -30 0
29 -10269 30 0
-10429 -1470 0
-189 -10429 190 0
189 -10429 -190 0
-11709 1470 0
-10589 -1630 0
-349 -10589 350 0
349 -10589 -350 0
-11869 1630 0
-10749 -1790 0
-509 -10749 510 0
509 -10749 -510 0
-12029 1790 0
-10909 -1950 0
-669 -10909 670 0
669 -10909 -670 0
-12189 1950 0
-11069 -2110 0
-829 -11069 830 0
829 -11069 -830 0
-12349 2110 0
-11229 -2270 0
-989 -11229 990 0
989 -11229 -990 0
-12509 2270 0
-189 -11709 -190 0
189 -11709 190 0
-349 -11869 -350 0
349 -11869 350 0
-509 -12029 -510 0
509 -12029 510 0
-669 -12189 -670 0
669 -12189 670 0
-829 -12349 -830 0
829 -12349 830 0
-989 -12509 -990 0
989 -12509 990 0
-1149 -12669 -1150 0
1149 -12669 1150 0
14110 -30 31 0
14110 30 -31 0
14110 -1310 1311 0
14110 1310 -1311 0
14270 -190 191 0
14270 190 -191 0
14270 -1470 1471 0
14270 1470 -1471 0
14430 -350 351 0
14430 350 -351 0
14430 -1630 1631 0
14430 1630 -1631 0
14590 -510 511 0
14590 510 -511 0
14590 -1790 1791 0
14590 1790 -1791 0
14750 -670 671 0
14750 670 -671 0
14750 -1950 1951 0
14750 1950 -1951 0
14910 -830 831 0
14910 830 -831 0
14910 -2110 2111 0
14910 2110 -2111 0
15070 -990 991 0
15070 990 -991 0
15070 -2270 2271 0
15070 2270 -2271 0
15230 -1150 1151 0
15230 1150 -1151 0
15230 -2430 2431 0
15230 2430 -2431 0
-30 -10270 -31 0
30 -10270 31 0
-10430 -1471 0
-190 -10430 191 0
190 -10430 -191 0
-11710 1471 0
-10590 -1631 0
-350 -10590 351 0
350 -10590 -351 0
-11870 1631 0
-10750 -1791 0
-510 -10750 511 0
510 -10750 -511 0
-12030 1791 0
-10910 -1951 0
-670 -10910 671 0
670 -10910 -671 0
-12190 1951 0
-11070 -2111 0
-830 -11070 831 0
830 -11070 -831 0
-12350 2111 0
-11230 -2271 0
-990 -11230 991 0
990 -11230 -991 0
-12510 2271 0
-190 -11710 -191 0
190 -11710 191 0
-350 -11870 -351 0
350 -11870 351 0
-510 -12030 -511 0
510 -12030 511 0
-670 -12190 -671 0
670 -12190 671 0
-830 -12350 -831 0
830 -12350 831 0
-990 -12510 -991 0
990 -12510 991 0
-1150 -12670 -1151 0
1150 -12670 1151 0
14111 -31 32 0
14111 31 -32 0
14111 -1311 1312 0
14111 1311 -1312 0
14271 -191 192 0
14271 191 -192 0
14271 -1471 1472 0
14271 1471 -1472 0
14431 -351 352 0
14431 351 -352 0
14431 -1631 1632 0
14431 1631 -1632 0
14591 -511 512 0
14591 511 -512 0
14591 -1791 1792 0
14591 1791 -1792 0
14751 -671 672 0
14751 671 -672 0
14751 -1951 1952 0
14751 1951 -1952 0
14911 -831 832 0
14911 831 -832 0
14911 -2111 2112 0
14911 2111 -2112 0
15071 -991 992 0
15071 991 -992 0
15071 -2271 2272 0
15071 2271 -2272 0
15231 -1151 1152 0
15231 1151 -1152 0
15231 -2431 2432 0
15231 2431 -2432 0
-31 -10271 -32 0
31 -10271 32 0
-10431 -1472 0
-191 -10431 192 0
191 -10431 -192 0
-11711 1472 0
-10591 -1632 0
-351 -10591 352 0
351 -10591 -352 0
-11871 1632 0
-10751 -1792 0
-511 -10751 512 0
511 -10751 -512 0
-12031 1792 0
-10911 -1952 0
-671 -10911 672 0
671 -10911 -672 0
-12191 1952 0
-11071 -2112 0
-831 -11071 832 0
831 -11071 -832 0
-12351 2112 0
-11231 -2272 0
-991 -11231 992 0
991 -11231 -992 0
-12511 2272 0
-191 -11711 -192 0
191 -11711 192 0
-351 -11871 -352 0
351 -11871 352 0
-511 -12031 -512 0
511 -12031 512 0
-671 -12191 -672 0
671 -12191 672 0
-831 -12351 -832 0
831 -12351 832 0
-991 -12511 -992 0
991 -12511 992 0
-1151 -12671 -1152 0
1151 -12671 1152 0
14112 -32 33 0
14112 32 -33 0
14112 -1312 1313 0
14112 1312 -1313 0
14272 -192 193 0
14272 192 -193 0
14272 -1472 1473 0
14272 1472 -1473 0
14432 -352 353 0
14432 352 -353 0
14432 -1632 1633 0
14432 1632 -1633 0
14592 -512 513 0
14592 512 -513 0
14592 -1792 1793 0
14592 1792 -1793 0
14752 -672 673 0
14752 672 -673 0
14752 -1952 1953 0
14752 1952 -1953 0
14912 -832 833 0
14912 832 -833 0
14912 -2112 2113 0
14912 2112 -2113 0
15072 -992 993 0
15072 992 -993 0
15072 -2272 2273 0
15072 2272 -2273 0
15232 -1152 1153 0
15232 1152 -1153 0
15232 -2432 2433 0
15232 2432 -2433 0
-32 -10272 -33 0
32 -10272 33 0
-10432 -1473 0
-192 -10432 193 0
192 -10432 -193 0
-11712 1473 0
-10592 -1633 0
-352 -10592 353 0
352 -10592 -353 0
-11872 1633 0
-10752 -1793 0
-512 -10752 513 0
512 -10752 -513 0
-12032 1793 0
-10912 -1953 0
-672 -10912 673 0
672 -10912 -673 0
-12192 1953 0
-11072 -2113 0
-832 -11072 833 0
832 -11072 -833 0
-12352 2113 0
-11232 -2273 0
-992 -11232 993 0
992 -11232 -993 0
-12512 2273 0
-192 -11712 -193 0
192 -11712 193 0
-352 -11872 -353 0
352 -11872 353 0
-512 -12032 -513 0
512 -12032 513 0
-672 -12192 -673 0
672 -12192 673 0
-832 -12352 -833 0
832 -12352 833 0
-992 -12512 -993 0
992 -12512 993 0
-1152 -12672 -1153 0
1152 -12672 1153 0
14113 -33 34 0
14113 33 -34 0
14113 -1313 1314 0
14113 1313 -1314 0
14273 -193 194 0
14273 193 -194 0
14273 -1473 1474 0
14273 1473 -1474 0
14433 -353 354 0
14433 353 -354 0
14433 -1633 1634 0
14433 1633 -1634 0
14593 -513 514 0
14593 513 -514 0
14593 -1793 1794 0
14593 1793 -1794 0
14753 -673 674 0
14753 673 -674 0
14753 -1953 1954 0
14753 1953 -1954 0
14913 -833 834 0
14913 833 -834 0
14913 -2113 2114 0
14913 2113 -2114 0
15073 -993 994 0
15073 993 -994 0
15073 -2273 2274 0
15073 2273 -2274 0
15233 -1153 1154 0
15233 1153 -1154 0
15233 -2433 2434 0
15233 2433 -2434 0
-33 -10273 -34 0
33 -10273 34 0
-10433 -1474 0
-193 -10433 194 0
193 -10433 -194 0
-11713 1474 0
-10593 -1634 0
-353 -10593 354 0
353 -10593 -354 0
-11873 1634 0
-10753 -1794 0
-513 -10753 514 0
513 -10753 -514 0
-12033 1794 0
-10913 -1954 0
-673 -10913 674 0
673 -10913 -674 0
-12193 1954 0
-11073 -2114 0
-833 -11073 834 0
833 -11073 -834 0
-12353 2114 0
-11233 -2274 0
-993 -11233 994 0
993 -11233 -994 0
-12513 2274 0
-193 -11713 -194 0
193 -11713 194 0
-353 -11873 -354 0
353 -11873 354 0
-513 -12033 -514 0
513 -12033 514 0
-673 -12193 -674 0
673 -12193 674 0
-833 -12353 -834 0
833 -12353 834 0
-993 -12513 -994 0
993 -12513 994 0
-1153 -12673 -1154 0
1153 -12673 1154 0
14114 -34 35 0
14114 34 -35 0
14114 -1314 1315 0
14114 1314 -1315 0
14274 -194 195 0
14274 194 -195 0
14274 -1474 1475 0
14274 1474 -1475 0
14434 -354 355 0
14434 354 -355 0
14434 -1634 1635 0
14434 1634 -1635 0
14594 -514 515 0
14594 514 -515 0
14594 -1794 1795 0
14594 1794 -1795 0
14754 -674 675 0
14754 674 -675 0
14754 -1954 1955 0
14754 1954 -1955 0
14914 -834 835 0
14914 834 -835 0
14914 -2114 2115 0
14914 2114 -2115 0
15074 -994 995 0
15074 994 -995 0
15074 -2274 2275 0
15074 2274 -2275 0
15234 -1154 1155 0
15234 1154 -1155 0
15234 -2434 2435 0
15234 2434 -2435 0
-34 -10274 -35 0
34 -10274 35 0
-10434 -1475 0
-194 -10434 195 0
194 -10434 -195 0
-11714 1475 0
-10594 -1635 0
-354 -10594 355 0
354 -10594 -355 0
-11874 1635 0
-10754 -1795 0
-514 -10754 515 0
514 -10754 -515 0
-12034 1795 0
-10914 -1955 0
-674 -10914 675 0
674 -10914 -675 0
-12194 1955 0
-11074 -2115 0
-834 -11074 835 0
834 -11074 -835 0
-12354 2115 0
-11234 -2275 0
-994 -11234 995 0
994 -11234 -995 0
-12514 2275 0
-194 -11714 -195 0
194 -11714 195 0
-354 -11874 -355 0
354 -11874 355 0
-514 -12034 -515 0
514 -12034 515 0
-674 -12194 -675 0
674 -12194 675 0
-834 -12354 -835 0
834 -12354 835 0
-994 -12514 -995 0
994 -12514 995 0
-1154 -12674 -1155 0
1154 -12674 1155 0
14115 -35 36 0
14115 35 -36 0
14115 -1315 1316 0
14115 1315 -1316 0
14275 -195 196 0
14275 195 -196 0
14275 -1475 1476 0
14275 1475 -1476 0
14435 -355 356 0
14435 355 -356 0
14435 -1635 1636 0
14435 1635 -1636 0
14595 -515 516 0
14595 515 -516 0
14595 -1795 1796 0
14595 1795 -1796 0
14755 -675 676 0
14755 675 -676 0
14755 -1955 1956 0
14755 1955 -1956 0
14915 -835 836 0
14915 835 -836 0
14915 -2115 2116 0
14915 2115 -2116 0
15075 -995 996 0
15075 995 -996 0
15075 -2275 2276 0
15075 2275 -2276 0
15235 -1155 1156 0
15235 1155 -1156 0
15235 -2435 2436 0
15235 2435 -2436 0
-35 -10275 -36 0
35 -10275 36 0
-10435 -1476 0
-195 -10435 196 0
195 -10435 -196 0
-11715 1476 0
-10595 -1636 0
-355 -10595 356 0
355 -10595 -356 0
-11875 1636 0
-10755 -1796 0
-515 -10755 516 0
515 -10755 -516 0
-12035 1796 0
-10915 -1956 0
-675 -10915 676 0
675 -10915 -676 0
-12195 1956 0
-11075 -2116 0
-835 -11075 836 0
835 -11075 -836 0
-12355 2116 0
-11235 -2276 0
-995 -11235 996 0
995 -11235 -996 0
-12515 2276 0
-195 -11715 -196 0
195 -11715 196 0
-355 -11875 -356 0
355 -11875 356 0
-515 -12035 -516 0
515 -12035 516 0
-675 -12195 -676 0
675 -12195 676 0
-835 -12355 -836 0
835 -12355 836 0
-995 -12515 -996 0
995 -12515 996 0
-1155 -12675 -1156 0
1155 -12675 1156 0
14116 -36 37 0
14116 36 -37 0
14116 -1316 1317 0
14116 1316 -1317 0
14276 -196 197 0
14276 196 -197 0
14276 -1476 1477 0
14276 1476 -1477 0
14436 -356 357 0
14436 356 -357 0
14436 -1636 1637 0
14436 1636 -1637 0
14596 -516 517 0
14596 516 -517 0
14596 -1796 1797 0
14596 1796 -1797 0
14756 -676 677 0
14756 676 -677 0
14756 -1956 1957 0
14756 1956 -1957 0
14916 -836 837 0
14916 836 -837 0
14916 -2116 2117 0
14916 2116 -2117 0
15076 -996 997 0
15076 996 -997 0
15076 -2276 2277 0
15076 2276 -2277 0
15236 -1156 1157 0
15236 1156 -1157 0
15236 -2436 2437 0
15236 2436 -2437 0
-36 -10276 -37 0
36 -10276 37 0
-10436 -1477 0
-196 -10436 197 0
196 -10436 -197 0
-11716 1477 0
-10596 -1637 0
-356 -10596 357 0
356 -10596 -357 0
-11876 1637 0
-10756 -1797 0
-516 -10756 517 0
516 -10756 -517 0
-12036 1797 0
-10916 -1957 0
-676 -10916 677 0
676 -10916 -677 0
-12196 1957 0
-11076 -2117 0
-836 -11076 837 0
836 -11076 -837 0
-12356 2117 0
-11236 -2277 0
-996 -11236 997 0
996 -11236 -997 0
-12516 2277 0
-196 -11716 -197 0
196 -11716 197 0
-356 -11876 -357 0
356 -11876 357 0
-516 -12036 -517 0
516 -12036 517 0
-676 -12196 -677 0
676 -12196 677 0
-836 -12356 -837 0
836 -12356 837 0
-996 -12516 -997 0
996 -12516 997 0
-1156 -12676 -1157 0
1156 -12676 1157 0
14117 -37 38 0
14117 37 -38 0
14117 -1317 1318 0
14117 1317 -1318 0
14277 -197 198 0
14277 197 -198 0
14277 -1477 1478 0
14277 1477 -1478 0
14437 -357 358 0
14437 357 -358 0
14437 -1637 1638 0
14437 1637 -1638 0
14597 -517 518 0
14597 517 -518 0
14597 -1797 1798 0
14597 1797 -1798 0
14757 -677 678 0
14757 677 -678 0
14757 -1957 1958 0
14757 1957 -1958 0
14917 -837 838 0
14917 837 -838 0
14917 -2117 2118 0
14917 2117 -2118 0
15077 -997 998 0
15077 997 -998 0
15077 -2277 2278 0
15077 2277 -2278 0
15237 -1157 1158 0
15237 1157 -1158 0
15237 -2437 2438 0
15237 2437 -2438 0
-37 -10277 -38 0
37 -10277 38 0
-10437 -1478 0
-197 -10437 198 0
197 -10437 -198 0
-11717 1478 0
-10597 -1638 0
-357 -10597 358 0
357 -10597 -358 0
-11877 1638 0
-10757 -1798 0
-517 -10757 518 0
517 -10757 -518 0
-12037 1798 0
-10917 -1958 0
-677 -10917 678 0
677 -10917 -678 0
-12197 1958 0
-11077 -2118 0
-837 -11077 838 0
837 -11077 -838 0
-12357 2118 0
-11237 -2278 0
-997 -11237 998 0
997 -11237 -998 0
-12517 2278 0
-197 -11717 -198 0
197 -11717 198 0
-357 -11877 -358 0
357 -11877 358 0
-517 -12037 -518 0
517 -12037 518 0
-677 -12197 -678 0
677 -12197 678 0
-837 -12357 -838 0
837 -12357 838 0
-997 -12517 -998 0
997 -12517 998 0
-1157 -12677 -1158 0
1157 -12677 1158 0
14118 -38 39 0
14118 38 -39 0
14118 -1318 1319 0
14118 1318 -1319 0
14278 -198 199 0
14278 198 -199 0
14278 -1478 1479 0
14278 1478 -1479 0
14438 -358 359 0
14438 358 -359 0
14438 -1638 1639 0
14438 1638 -1639 0
14598 -518 519 0
14598 518 -519 0
14598 -1798 1799 0
14598 1798 -1799 0
14758 -678 679 0
14758 678 -679 0
14758 -1958 1959 0
14758 1958 -1959 0
14918 -838 839 0
14918 838 -839 0
14918 -2118 2119 0
14918 2118 -2119 0
15078 -998 999 0
15078 998 -999 0
15078 -2278 2279 0
15078 2278 -2279 0
15238 -1158 1159 0
15238 1158 -1159 0
15238 -2438 2439 0
15238 2438 -2439 0
-38 -10278 -39 0
38 -10278 39 0
-10438 -1479 0
-198 -10438 199 0
198 -10438 -199 0
-11718 1479 0
-10598 -1639 0
-358 -10598 359 0
358 -10598 -359 0
-11878 1639 0
-10758 -1799 0
-518 -10758 519 0
518 -10758 -519 0
-12038 1799 0
-10918 -1959 0
-678 -10918 679 0
678 -10918 -679 0
-12198 1959 0
-11078 -2119 0
-838 -11078 839 0
838 -11078 -839 0
-12358 2119 0
-11238 -2279 0
-998 -11238 999 0
998 -11238 -999 0
-12518 2279 0
-198 -11718 -199 0
198 -11718 199 0
-358 -11878 -359 0
358 -11878 359 0
-518 -12038 -519 0
518 -12038 519 0
-678 -12198 -679 0
678 -12198 679 0
-838 -12358 -839 0
838 -12358 839 0
-998 -12518 -999 0
998 -12518 999 0
-1158 -12678 -1159 0
1158 -12678 1159 0
14119 -39 40 0
14119 39 -40 0
14119 -1319 1320 0
14119 1319 -1320 0
14279 -199 200 0
14279 199 -200 0
14279 -1479 1480 0
14279 1479 -1480 0
14439 -359 360 0
14439 359 -360 0
14439 -1639 1640 0
14439 1639 -1640 0
14599 -519 520 0
14599 519 -520 0
14599 -1799 1800 0
14599 1799 -1800 0
14759 -679 680 0
14759 679 -680 0
14759 -1959 1960 0
14759 1959 -1960 0
14919 -839 840 0
14919 839 -840 0
14919 -2119 2120 0
14919 2119 -2120 0
15079 -999 1000 0
15079 999 -1000 0
15079 -2279 2280 0
15079 2279 -2280 0
15239 -1159 1160 0
15239 1159 -1160 0
15239 -2439 2440 0
15239 2439 -2440 0
-39 -10279 -40 0
39 -10279 40 0
-10439 -1480 0
-199 -10439 200 0
199 -10439 -200 0
-11719 1480 0
-10599 -1640 0
-359 -10599 360 0
359 -10599 -360 0
-11879 1640 0
-10759 -1800 0
-519 -10759 520 0
519 -10759 -520 0
-12039 1800 0
-10919 -1960 0
-679 -10919 680 0
679 -10919 -680 0
-12199 1960 0
-11079 -2120 0
-839 -11079 840 0
839 -11079 -840 0
-12359 2120 0
-11239 -2280 0
-999 -11239 1000 0
999 -11239 -1000 0
-12519 2280 0
-199 -11719 -200 0
199 -11719 200 0
-359 -11879 -360 0
359 -11879 360 0
-519 -12039 -520 0
519 -12039 520 0
-679 -12199 -680 0
679 -12199 680 0
-839 -12359 -840 0
839 -12359 840 0
-999 -12519 -1000 0
999 -12519 1000 0
-1159 -12679 -1160 0
1159 -12679 1160 0
14120 -40 41 0
14120 40 -41 0
14120 -1320 1321 0
14120 1320 -1321 0
14280 -200 201 0
14280 200 -201 0
14280 -1480 1481 0
14280 1480 -1481 0
14440 -360 361 0
14440 360 -361 0
14440 -1640 1641 0
14440 1640 -1641 0
14600 -520 521 0
14600 520 -521 0
14600 -1800 1801 0
14600 1800 -1801 0
14760 -680 681 0
14760 680 -681 0
14760 -1960 1961 0
14760 1960 -1961 0
14920 -840 841 0
14920 840 -841 0
14920 -2120 2121 0
14920 2120 -2121 0
15080 -1000 1001 0
15080 1000 -1001 0
15080 -2280 2281 0
15080 2280 -2281 0
15240 -1160 1161 0
15240 1160 -1161 0
15240 -2440 2441 0
15240 2440 -2441 0
-40 -10280 -41 0
40 -10280 41 0
-10440 -1481 0
-200 -10440 201 0
200 -10440 -201 0
-11720 1481 0
-10600 -1641 0
-360 -10600 361 0
360 -10600 -361 0
-11880 1641 0
-10760 -1801 0
-520 -10760 521 0
520 -10760 -521 0
-12040 1801 0
-10920 -1961 0
-680 -10920 681 0
680 -10920 -681 0
-12200 1961 0
-11080 -2121 0
-840 -11080 841 0
840 -11080 -841 0
-12360 2121 0
-11240 -2281 0
-1000 -11240 1001 0
1000 -11240 -1001 0
-12520 2281 0
-200 -11720 -201 0
200 -11720 201 0
-360 -11880 -361 0
360 -11880 361 0
-520 -12040 -521 0
520 -12040 521 0
-680 -12200 -681 0
680 -12200 681 0
-840 -12360 -841 0
840 -12360 841 0
-1000 -12520 -1001 0
1000 -12520 1001 0
-1160 -12680 -1161 0
1160 -12680 1161 0
14121 -41 42 0
14121 41 -42 0
14121 -1321 1322 0
14121 1321 -1322 0
14281 -201 202 0
14281 201 -202 0
14281 -1481 1482 0
14281 1481 -1482 0
14441 -361 362 0
14441 361 -362 0
14441 -1641 1642 0
14441 1641 -1642 0
14601 -521 522 0
14601 521 -522 0
14601 -1801 1802 0
14601 1801 -1802 0
14761 -681 682 0
14761 681 -682 0
14761 -1961 1962 0
14761 1961 -1962 0
14921 -841 842 0
14921 841 -842 0
14921 -2121 2122 0
14921 2121 -2122 0
15081 -1001 1002 0
15081 1001 -1002 0
15081 -2281 2282 0
15081 2281 -2282 0
15241 -1161 1162 0
15241 1161 -1162 0
15241 -2441 2442 0
15241 2441 -2442 0
-41 -10281 -42 0
41 -10281 42 0
-10441 -1482 0
-201 -10441 202 0
201 -10441 -202 0
-11721 1482 0
-10601 -1642 0
-361 -10601 362 0
361 -10601 -362 0
-11881 1642 0
-10761 -1802 0
-521 -10761 522 0
521 -10761 -522 0
-12041 1802 0
-10921 -1962 0
-681 -10921 682 0
681 -10921 -682 0
-12201 1962 0
-11081 -2122 0
-841 -11081 842 0
841 -11081 -842 0
-12361 2122 0
-11241 -2282 0
-1001 -11241 1002 0
1001 -11241 -1002 0
-12521 2282 0
-201 -11721 -202 0
201 -11721 202 0
-361 -11881 -362 0
361 -11881 362 0
-521 -12041 -522 0
521 -12041 522 0
-681 -12201 -682 0
681 -12201 682 0
-841 -12361 -842 0
841 -12361 842 0
-1001 -12521 -1002 0
1001 -12521 1002 0
-1161 -12681 -1162 0
1161 -12681 1162 0
14122 -42 43 0
14122 42 -43 0
14122 -1322 1323 0
14122 1322 -1323 0
14282 -202 203 0
14282 202 -203 0
14282 -1482 1483 0
14282 1482 -1483 0
14442 -362 363 0
14442 362 -363 0
14442 -1642 1643 0
14442 1642 -1643 0
14602 -522 523 0
14602 522 -523 0
14602 -1802 1803 0
14602 1802 -1803 0
14762 -682 683 0
14762 682 -683 0
14762 -1962 1963 0
14762 1962 -1963 0
14922 -842 843 0
14922 842 -843 0
14922 -2122 2123 0
14922 2122 -2123 0
15082 -1002 1003 0
15082 1002 -1003 0
15082 -2282 2283 0
15082 2282 -2283 0
15242 -1162 1163 0
15242 1162 -1163 0
15242 -2442 2443 0
15242 2442 -2443 0
-42 -10282 -43 0
42 -10282 43 0
-10442 -1483 0
-202 -10442 203 0
202 -10442 -203 0
-11722 1483 0
-10602 -1643 0
-362 -10602 363 0
362 -10602 -363 0
-11882 1643 0
-10762 -1803 0
-522 -10762 523 0
522 -10762 -523 0
-12042 1803 0
-10922 -1963 0
-682 -10922 683 0
682 -10922 -683 0
-12202 1963 0
-11082 -2123 0
-842 -11082 843 0
842 -11082 -843 0
-12362 2123 0
-11242 -2283 0
-1002 -11242 1003 0
1002 -11242 -1003 0
-12522 2283 0
-202 -11722 -203 0
202 -11722 203 0
-362 -11882 -363 0
362 -11882 363 0
-522 -12042 -523 0
522 -12042 523 0
-682 -12202 -683 0
682 -12202 683 0
-842 -12362 -843 0
842 -12362 843 0
-1002 -12522 -1003 0
1002 -12522 1003 0
-1162 -12682 -1163 0
1162 -12682 1163 0
14123 -43 44 0
14123 43 -44 0
14123 -1323 1324 0
14123 1323 -1324 0
14283 -203 204 0
14283 203 -204 0
14283 -1483 1484 0
14283 1483 -1484 0
14443 -363 364 0
14443 363 -364 0
14443 -1643 1644 0
14443 1643 -1644 0
14603 -523 524 0
14603 523 -524 0
14603 -1803 1804 0
14603 1803 -1804 0
14763 -683 684 0
14763 683 -684 0
14763 -1963 1964 0
14763 1963 -1964 0
14923 -843 844 0
14923 843 -844 0
14923 -2123 2124 0
14923 2123 -2124 0
15083 -1003 1004 0
15083 1003 -1004 0
15083 -2283 2284 0
15083 2283 -2284 0
15243 -1163 1164 0
15243 1163 -1164 0
15243 -2443 2444 0
15243 2443 -2444 0
-43 -10283 -44 0
43 -10283 44 0
-10443 -1484 0
-203 -10443 204 0
203 -10443 -204 0
-11723 1484 0
-10603 -1644 0
-363 -10603 364 0
363 -10603 -364 0
-11883 1644 0
-10763 -1804 0
-523 -10763 524 0
523 -10763 -524 0
-12043 1804 0
-10923 -1964 0
-683 -10923 684 0
683 -10923 -684 0
-12203 1964 0
-11083 -2124 0
-843 -11083 844 0
843 -11083 -844 0
-12363 2124 0
-11243 -2284 0
-1003 -11243 1004 0
1003 -11243 -1004 0
-12523 2284 0
-203 -11723 -204 0
203 -11723 204 0
-363 -11883 -364 0
363 -11883 364 0
-523 -12043 -524 0
523 -12043 524 0
-683 -12203 -684 0
683 -12203 684 0
-843 -12363 -844 0
843 -12363 844 0
-1003 -12523 -1004 0
1003 -12523 1004 0
-1163 -12683 -1164 0
1163 -12683 1164 0
14124 -44 45 0
14124 44 -45 0
14124 -1324 1325 0
14124 1324 -1325 0
14284 -204 205 0
14284 204 -205 0
14284 -1484 1485 0
14284 1484 -1485 0
14444 -364 365 0
14444 364 -365 0
14444 -1644 1645 0
14444 1644 -1645 0
14604 -524 525 0
14604 524 -525 0
14604 -1804 1805 0
14604 1804 -1805 0
14764 -684 685 0
14764 684 -685 0
14764 -1964 1965 0
14764 1964 -1965 0
14924 -844 845 0
14924 844 -845 0
14924 -2124 2125 0
14924 2124 -2125 0
15084 -1004 1005 0
15084 1004 -1005 0
15084 -2284 2285 0
15084 2284 -2285 0
15244 -1164 1165 0
15244 1164 -1165 0
15244 -2444 2445 0
15244 2444 -2445 0
-44 -10284 -45 0
44 -10284 45 0
-10444 -1485 0
-204 -10444 205 0
204 -10444 -205 0
-11724 1485 0
-10604 -1645 0
-364 -10604 365 0
364 -10604 -365 0
-11884 1645 0
-10764 -1805 0
-524 -10764 525 0
524 -10764 -525 0
-12044 1805 0
-10924 -1965 0
-684 -10924 685 0
684 -10924 -685 0
-12204 1965 0
-11084 -2125 0
-844 -11084 845 0
844 -11084 -845 0
-12364 2125 0
-11244 -2285 0
-1004 -11244 1005 0
1004 -11244 -1005 0
-12524 2285 0
-204 -11724 -205 0
204 -11724 205 0
-364 -11884 -365 0
364 -11884 365 0
-524 -12044 -525 0
524 -12044 525 0
-684 -12204 -685 0
684 -12204 685 0
-844 -12364 -845 0
844 -12364 845 0
-1004 -12524 -1005 0
1004 -12524 1005 0
-1164 -12684 -1165 0
1164 -12684 1165 0
14125 -45 46 0
14125 45 -46 0
14125 -1325 1326 0
14125 1325 -1326 0
14285 -205 206 0
14285 205 -206 0
14285 -1485 1486 0
14285 1485 -1486 0
14445 -365 366 0
14445 365 -366 0
14445 -1645 1646 0
14445 1645 -1646 0
14605 -525 526 0
14605 525 -526 0
14605 -1805 1806 0
14605 1805 -1806 0
14765 -685 686 0
14765 685 -686 0
14765 -1965 1966 0
14765 1965 -1966 0
14925 -845 846 0
14925 845 -846 0
14925 -2125 2126 0
14925 2125 -2126 0
15085 -1005 1006 0
15085 1005 -1006 0
15085 -2285 2286 0
15085 2285 -2286 0
15245 -1165 1166 0
15245 1165 -1166 0
15245 -2445 2446 0
15245 2445 -2446 0
-45 -10285 -46 0
45 -10285 46 0
-10445 -1486 0
-205 -10445 206 0
205 -10445 -206 0
-11725 1486 0
-10605 -1646 0
-365 -10605 366 0
365 -10605 -366 0
-11885 1646 0
-10765 -1806 0
-525 -10765 526 0
525 -10765 -526 0
-12045 1806 0
-10925 -1966 0
-685 -10925 686 0
685 -10925 -686 0
-12205 1966 0
-11085 -2126 0
-845 -11085 846 0
845 -11085 -846 0
-12365 2126 0
-11245 -2286 0
-1005 -11245 1006 0
1005 -11245 -1006 0
-12525 2286 0
-205 -11725 -206 0
205 -11725 206 0
-365 -11885 -366 0
365 -11885 366 0
-525 -12045 -526 0
525 -12045 526 0
-685 -12205 -686 0
685 -12205 686 0
-845 -12365 -846 0
845 -12365 846 0
-1005 -12525 -1006 0
1005 -12525 1006 0
-1165 -12685 -1166 0
1165 -12685 1166 0
14126 -46 47 0
14126 46 -47 0
14126 -1326 1327 0
14126 1326 -1327 0
14286 -206 207 0
14286 206 -207 0
14286 -1486 1487 0
14286 1486 -1487 0
14446 -366 367 0
14446 366 -367 0
14446 -1646 1647 0
14446 1646 -1647 0
14606 -526 527 0
14606 526 -527 0
14606 -1806 1807 0
14606 1806 -1807 0
14766 -686 687 0
14766 686 -687 0
14766 -1966 1967 0
14766 1966 -1967 0
14926 -846 847 0
14926 846 -847 0
14926 -2126 2127 0
14926 2126 -2127 0
15086 -1006 1007 0
15086 1006 -1007 0
15086 -2286 2287 0
15086 2286 -2287 0
15246 -1166 1167 0
15246 1166 -1167 0
15246 -2446 2447 0
15246 2446 -2447 0
-46 -10286 -47 0
46 -10286 47 0
-10446 -1487 0
-206 -10446 207 0
206 -10446 -207 0
-11726 1487 0
-10606 -1647 0
-366 -10606 367 0
366 -10606 -367 0
-11886 1647 0
-10766 -1807 0
-526 -10766 527 0
526 -10766 -527 0
-12046 1807 0
-10926 -1967 0
-686 -10926 687 0
686 -10926 -687 0
-12206 1967 0
-11086 -2127 0
-846 -11086 847 0
846 -11086 -847 0
-12366 2127 0
-11246 -2287 0
-1006 -11246 1007 0
1006 -11246 -1007 0
-12526 2287 0
-206 -11726 -207 0
206 -11726 207 0
-366 -11886 -367 0
366 -11886 367 0
-526 -12046 -527 0
526 -12046 527 0
-686 -12206 -687 0
686 -12206 687 0
-846 -12366 -847 0
846 -12366 847 0
-1006 -12526 -1007 0
1006 -12526 1007 0
-1166 -12686 -1167 0
1166 -12686 1167 0
14127 -47 48 0
14127 47 -48 0
14127 -1327 1328 0
14127 1327 -1328 0
14287 -207 208 0
14287 207 -208 0
14287 -1487 1488 0
14287 1487 -1488 0
14447 -367 368 0
14447 367 -368 0
14447 -1647 1648 0
14447 1647 -1648 0
14607 -527 528 0
14607 527 -528 0
14607 -1807 1808 0
14607 1807 -1808 0
14767 -687 688 0
14767 687 -688 0
14767 -1967 1968 0
14767 1967 -1968 0
14927 -847 848 0
14927 847 -848 0
14927 -2127 2128 0
14927 2127 -2128 0
15087 -1007 1008 0
15087 1007 -1008 0
15087 -2287 2288 0
15087 2287 -2288 0
15247 -1167 1168 0
15247 1167 -1168 0
15247 -2447 2448 0
15247 2447 -2448 0
-47 -10287 -48 0
47 -10287 48 0
-10447 -1488 0
-207 -10447 208 0
207 -10447 -208 0
-11727 1488 0
-10607 -1648 0
-367 -10607 368 0
367 -10607 -368 0
-11887 1648 0
-10767 -1808 0
-527 -10767 528 0
527 -10767 -528 0
-12047 1808 0
-10927 -1968 0
-687 -10927 688 0
687 -10927 -688 0
-12207 1968 0
-11087 -2128 0
-847 -11087 848 0
847 -11087 -848 0
-12367 2128 0
-11247 -2288 0
-1007 -11247 1008 0
1007 -11247 -1008 0
-12527 2288 0
-207 -11727 -208 0
207 -11727 208 0
-367 -11887 -368 0
367 -11887 368 0
-527 -12047 -528 0
527 -12047 528 0
-687 -12207 -688 0
687 -12207 688 0
-847 -12367 -848 0
847 -12367 848 0
-1007 -12527 -1008 0
1007 -12527 1008 0
-1167 -12687 -1168 0
1167 -12687 1168 0
14128 -48 49 0
14128 48 -49 0
14128 -1328 1329 0
14128 1328 -1329 0
14288 -208 209 0
14288 208 -209 0
14288 -1488 1489 0
14288 1488 -1489 0
14448 -368 369 0
14448 368 -369 0
14448 -1648 1649 0
14448 1648 -1649 0
14608 -528 529 0
14608 528 -529 0
14608 -1808 1809 0
14608 1808 -1809 0
14768 -688 689 0
14768 688 -689 0
14768 -1968 1969 0
14768 1968 -1969 0
14928 -848 849 0
14928 848 -849 0
14928 -2128 2129 0
14928 2128 -2129 0
15088 -1008 1009 0
15088 1008 -1009 0
15088 -2288 2289 0
15088 2288 -2289 0
15248 -1168 1169 0
15248 1168 -1169 0
15248 -2448 2449 0
15248 2448 -2449 0
-48 -10288 -49 0
48 -10288 49 0
-10448 -1489 0
-208 -10448 209 0
208 -10448 -209 0
-11728 1489 0
-10608 -1649 0
-368 -10608 369 0
368 -10608 -369 0
-11888 1649 0
-10768 -1809 0
-528 -10768 529 0
528 -10768 -529 0
-12048 1809 0
-10928 -1969 0
-688 -10928 689 0
688 -10928 -689 0
-12208 1969 0
-11088 -2129 0
-848 -11088 849 0
848 -11088 -849 0
-12368 2129 0
-11248 -2289 0
-1008 -11248 1009 0
1008 -11248 -1009 0
-12528 2289 0
-208 -11728 -209 0
208 -11728 209 0
-368 -11888 -369 0
368 -11888 369 0
-528 -12048 -529 0
528 -12048 529 0
-688 -12208 -689 0
688 -12208 689 0
-848 -12368 -849 0
848 -12368 849 0
-1008 -12528 -1009 0
1008 -12528 1009 0
-1168 -12688 -1169 0
1168 -12688 1169 0
14129 -49 50 0
14129 49 -50 0
14129 -1329 1330 0
14129 1329 -1330 0
14289 -209 210 0
14289 209 -210 0
14289 -1489 1490 0
14289 1489 -1490 0
14449 -369 370 0
14449 369 -370 0
14449 -1649 1650 0
14449 1649 -1650 0
14609 -529 530 0
14609 529 -530 0
14609 -1809 1810 0
14609 1809 -1810 0
14769 -689 690 0
14769 689 -690 0
14769 -1969 1970 0
14769 1969 -1970 0
14929 -849 850 0
14929 849 -850 0
14929 -2129 2130 0
14929 2129 -2130 0
15089 -1009 1010 0
15089 1009 -1010 0
15089 -2289 2290 0
15089 2289 -2290 0
15249 -1169 1170 0
15249 1169 -1170 0
15249 -2449 2450 0
15249 2449 -2450 0
-49 -10289 -50 0
49 -10289 50 0
-10449 -1490 0
-209 -10449 210 0
209 -10449 -210 0
-11729 1490 0
-10609 -1650 0
-369 -10609 370 0
369 -10609 -370 0
-11889 1650 0
-10769 -1810 0
-529 -10769 530 0
529 -10769 -530 0
-12049 1810 0
-10929 -1970 0
-689 -10929 690 0
689 -10929 -690 0
-12209 1970 0
-11089 -2130 0
-849 -11089 850 0
849 -11089 -850 0
-12369 2130 0
-11249 -2290 0
-1009 -11249 1010 0
1009 -11249 -1010 0
-12529 2290 0
-209 -11729 -210 0
209 -11729 210 0
-369 -11889 -370 0
369 -11889 370 0
-529 -12049 -530 0
529 -12049 530 0
-689 -12209 -690 0
689 -12209 690 0
-849 -12369 -850 0
849 -12369 850 0
-1009 -12529 -1010 0
1009 -12529 1010 0
-1169 -12689 -1170 0
1169 -12689 1170 0
14130 -50 51 0
14130 50 -51 0
14130 -1330 1331 0
14130 1330 -1331 0
14290 -210 211 0
14290 210 -211 0
14290 -1490 1491 0
14290 1490 -1491 0
14450 -370 371 0
14450 370 -371 0
14450 -1650 1651 0
14450 1650 -1651 0
14610 -530 531 0
14610 530 -531 0
14610 -1810 1811 0
14610 1810 -1811 0
14770 -690 691 0
14770 690 -691 0
14770 -1970 1971 0
14770 1970 -1971 0
14930 -850 851 0
14930 850 -851 0
14930 -2130 2131 0
14930 2130 -2131 0
15090 -1010 1011 0
15090 1010 -1011 0
15090 -2290 2291 0
15090 2290 -2291 0
15250 -1170 1171 0
15250 1170 -1171 0
15250 -2450 2451 0
15250 2450 -2451 0
-50 -10290 -51 0
50 -10290 51 0
-10450 -1491 0
-210 -10450 211 0
210 -10450 -211 0
-11730 1491 0
-10610 -1651 0
-370 -10610 371 0
370 -10610 -371 0
-11890 1651 0
-10770 -1811 0
-530 -10770 531 0
530 -10770 -531 0
-12050 1811 0
-10930 -1971 0
-690 -10930 691 0
690 -10930 -691 0
-12210 1971 0
-11090 -2131 0
-850 -11090 851 0
850 -11090 -851 0
-12370 2131 0
-11250 -2291 0
-1010 -11250 1011 0
1010 -11250 -1011 0
-12530 2291 0
-210 -11730 -211 0
210 -11730 211 0
-370 -11890 -371 0
370 -11890 371 0
-530 -12050 -531 0
530 -12050 531 0
-690 -12210 -691 0
690 -12210 691 0
-850 -12370 -851 0
850 -12370 851 0
-1010 -12530 -1011 0
1010 -12530 1011 0
-1170 -12690 -1171 0
1170 -12690 1171 0
14131 -51 52 0
14131 51 -52 0
14131 -1331 1332 0
14131 1331 -1332 0
14291 -211 212 0
14291 211 -212 0
14291 -1491 1492 0
14291 1491 -1492 0
14451 -371 372 0
14451 371 -372 0
14451 -1651 1652 0
14451 1651 -1652 0
14611 -531 532 0
14611 531 -532 0
14611 -1811 1812 0
14611 1811 -1812 0
14771 -691 692 0
14771 691 -692 0
14771 -1971 1972 0
14771 1971 -1972 0
14931 -851 852 0
14931 851 -852 0
14931 -2131 2132 0
14931 2131 -2132 0
15091 -1011 1012 0
15091 1011 -1012 0
15091 -2291 2292 0
15091 2291 -2292 0
15251 -1171 1172 0
15251 1171 -1172 0
15251 -2451 2452 0
15251 2451 -2452 0
-51 -10291 -52 0
51 -10291 52 0
-10451 -1492 0
-211 -10451 212 0
211 -10451 -212 0
-11731 1492 0
-10611 -1652 0
-371 -10611 372 0
371 -10611 -372 0
-11891 1652 0
-10771 -1812 0
-531 -10771 532 0
531 -10771 -532 0
-12051 1812 0
-10931 -1972 0
-691 -10931 692 0
691 -10931 -692 0
-12211 1972 0
-11091 -2132 0
-851 -11091 852 0
851 -11091 -852 0
-12371 2132 0
-11251 -2292 0
-1011 -11251 1012 0
1011 -11251 -1012 0
-12531 2292 0
-211 -11731 -212 0
211 -11731 212 0
-371 -11891 -372 0
371 -11891 372 0
-531 -12051 -532 0
531 -12051 532 0
-691 -12211 -692 0
691 -12211 692 0
-851 -12371 -852 0
851 -12371 852 0
-1011 -12531 -1012 0
1011 -12531 1012 0
-1171 -12691 -1172 0
1171 -12691 1172 0
14132 -52 53 0
14132 52 -53 0
14132 -1332 1333 0
14132 1332 -1333 0
14292 -212 213 0
14292 212 -213 0
14292 -1492 1493 0
14292 1492 -1493 0
14452 -372 373 0
14452 372 -373 0
14452 -1652 1653 0
14452 1652 -1653 0
14612 -532 533 0
14612 532 -533 0
14612 -1812 1813 0
14612 1812 -1813 0
14772 -692 693 0
14772 692 -693 0
14772 -1972 1973 0
14772 1972 -1973 0
14932 -852 853 0
14932 852 -853 0
14932 -2132 2133 0
14932 2132 -2133 0
15092 -1012 1013 0
15092 1012 -1013 0
15092 -2292 2293 0
15092 2292 -2293 0
15252 -1172 1173 0
15252 1172 -1173 0
15252 -2452 2453 0
15252 2452 -2453 0
-52 -10292 -53 0
52 -10292 53 0
-10452 -1493 0
-212 -10452 213 0
212 -10452 -213 0
-11732 1493 0
-10612 -1653 0
-372 -10612 373 0
372 -10612 -373 0
-11892 1653 0
-10772 -1813 0
-532 -10772 533 0
532 -10772 -533 0
-12052 1813 0
-10932 -1973 0
-692 -10932 693 0
692 -10932 -693 0
-12212 1973 0
-11092 -2133 0
-852 -11092 853 0
852 -11092 -853 0
-12372 2133 0
-11252 -2293 0
-1012 -11252 1013 0
1012 -11252 -1013 0
-12532 2293 0
-212 -11732 -213 0
212 -11732 213 0
-372 -11892 -373 0
372 -11892 373 0
-532 -12052 -533 0
532 -12052 533 0
-692 -12212 -693 0
692 -12212 693 0
-852 -12372 -853 0
852 -12372 853 0
-1012 -12532 -1013 0
1012 -12532 1013 0
-1172 -12692 -1173 0
1172 -12692 1173 0
14133 -53 54 0
14133 53 -54 0
14133 -1333 1334 0
14133 1333 -1334 0
14293 -213 214 0
14293 213 -214 0
14293 -1493 1494 0
14293 1493 -1494 0
14453 -373 374 0
14453 373 -374 0
14453 -1653 1654 0
14453 1653 -1654 0
14613 -533 534 0
14613 533 -534 0
14613 -1813 1814 0
14613 1813 -1814 0
14773 -693 694 0
14773 693 -694 0
14773 -1973 1974 0
14773 1973 -1974 0
14933 -853 854 0
14933 853 -854 0
14933 -2133 2134 0
14933 2133 -2134 0
15093 -1013 1014 0
15093 1013 -1014 0
15093 -2293 2294 0
15093 2293 -2294 0
15253 -1173 1174 0
15253 1173 -1174 0
15253 -2453 2454 0
15253 2453 -2454 0
-53 -10293 -54 0
53 -10293 54 0
-10453 -1494 0
-213 -10453 214 0
213 -10453 -214 0
-11733 1494 0
-10613 -1654 0
-373 -10613 374 0
373 -10613 -374 0
-11893 1654 0
-10773 -1814 0
-533 -10773 534 0
533 -10773 -534 0
-12053 1814 0
-10933 -1974 0
-693 -10933 694 0
693 -10933 -694 0
-12213 1974 0
-11093 -2134 0
-853 -11093 854 0
853 -11093 -854 0
-12373 2134 0
-11253 -2294 0
-1013 -11253 1014 0
1013 -11253 -1014 0
-12533 2294 0
-213 -11733 -214 0
213 -11733 214 0
-373 -11893 -374 0
373 -11893 374 0
-533 -12053 -534 0
533 -12053 534 0
-693 -12213 -694 0
693 -12213 694 0
-853 -12373 -854 0
853 -12373 854 0
-1013 -12533 -1014 0
1013 -12533 1014 0
-1173 -12693 -1174 0
1173 -12693 1174 0
14134 -54 55 0
14134 54 -55 0
14134 -1334 1335 0
14134 1334 -1335 0
14294 -214 215 0
14294 214 -215 0
14294 -1494 1495 0
14294 1494 -1495 0
14454 -374 375 0
14454 374 -375 0
14454 -1654 1655 0
14454 1654 -1655 0
14614 -534 535 0
14614 534 -535 0
14614 -1814 1815 0
14614 1814 -1815 0
14774 -694 695 0
14774 694 -695 0
14774 -1974 1975 0
14774 1974 -1975 0
14934 -854 855 0
14934 854 -855 0
14934 -2134 2135 0
14934 2134 -2135 0
15094 -1014 1015 0
15094 1014 -1015 0
15094 -2294 2295 0
15094 2294 -2295 0
15254 -1174 1175 0
15254 1174 -1175 0
15254 -2454 2455 0
15254 2454 -2455 0
-54 -10294 -55 0
54 -10294 55 0
-10454 -1495 0
-214 -10454 215 0
214 -10454 -215 0
-11734 1495 0
-10614 -1655 0
-374 -10614 375 0
374 -10614 -375 0
-11894 1655 0
-10774 -1815 0
-534 -10774 535 0
534 -10774 -535 0
-12054 1815 0
-10934 -1975 0
-694 -10934 695 0
694 -10934 -695 0
-12214 1975 0
-11094 -2135 0
-854 -11094 855 0
854 -11094 -855 0
-12374 2135 0
-11254 -2295 0
-1014 -11254 1015 0
1014 -11254 -1015 0
-12534 2295 0
-214 -11734 -215 0
214 -11734 215 0
-374 -11894 -375 0
374 -11894 375 0
-534 -12054 -535 0
534 -12054 535 0
-694 -12214 -695 0
694 -12214 695 0
-854 -12374 -855 0
854 -12374 855 0
-1014 -12534 -1015 0
1014 -12534 1015 0
-1174 -12694 -1175 0
1174 -12694 1175 0
14135 -55 56 0
14135 55 -56 0
14135 -1335 1336 0
14135 1335 -1336 0
14295 -215 216 0
14295 215 -216 0
14295 -1495 1496 0
14295 1495 -1496 0
14455 -375 376 0
14455 375 -376 0
14455 -1655 1656 0
14455 1655 -1656 0
14615 -535 536 0
14615 535 -536 0
14615 -1815 1816 0
14615 1815 -1816 0
14775 -695 696 0
14775 695 -696 0
14775 -1975 1976 0
14775 1975 -1976 0
14935 -855 856 0
14935 855 -856 0
14935 -2135 2136 0
14935 2135 -2136 0
15095 -1015 1016 0
15095 1015 -1016 0
15095 -2295 2296 0
15095 2295 -2296 0
15255 -1175 1176 0
15255 1175 -1176 0
15255 -2455 2456 0
15255 2455 -2456 0
-55 -10295 -56 0
55 -10295 56 0
-10455 -1496 0
-215 -10455 216 0
215 -10455 -216 0
-11735 1496 0
-10615 -1656 0
-375 -10615 376 0
375 -10615 -376 0
-11895 1656 0
-10775 -1816 0
-535 -10775 536 0
535 -10775 -536 0
-12055 1816 0
-10935 -1976 0
-695 -10935 696 0
695 -10935 -696 0
-12215 1976 0
-11095 -2136 0
-855 -11095 856 0
855 -11095 -856 0
-12375 2136 0
-11255 -2296 0
-1015 -11255 1016 0
1015 -11255 -1016 0
-12535 2296 0
-215 -11735 -216 0
215 -11735 216 0
-375 -11895 -376 0
375 -11895 376 0
-535 -12055 -536 0
535 -12055 536 0
-695 -12215 -696 0
695 -12215 696 0
-855 -12375 -856 0
855 -12375 856 0
-1015 -12535 -1016 0
1015 -12535 1016 0
-1175 -12695 -1176 0
1175 -12695 1176 0
14136 -56 57 0
14136 56 -57 0
14136 -1336 1337 0
14136 1336 -1337 0
14296 -216 217 0
14296 216 -217 0
14296 -1496 1497 0
14296 1496 -1497 0
14456 -376 377 0
14456 376 -377 0
14456 -1656 1657 0
14456 1656 -1657 0
14616 -536 537 0
14616 536 -537 0
14616 -1816 1817 0
14616 1816 -1817 0
14776 -696 697 0
14776 696 -697 0
14776 -1976 1977 0
14776 1976 -1977 0
14936 -856 857 0
14936 856 -857 0
14936 -2136 2137 0
14936 2136 -2137 0
15096 -1016 1017 0
15096 1016 -1017 0
15096 -2296 2297 0
15096 2296 -2297 0
15256 -1176 1177 0
15256 1176 -1177 0
15256 -2456 2457 0
15256 2456 -2457 0
-56 -10296 -57 0
56 -10296 57 0
-10456 -1497 0
-216 -10456 217 0
216 -10456 -217 0
-11736 1497 0
-10616 -1657 0
-376 -10616 377 0
376 -10616 -377 0
-11896 1657 0
-10776 -1817 0
-536 -10776 537 0
536 -10776 -537 0
-12056 1817 0
-10936 -1977 0
-696 -10936 697 0
696 -10936 -697 0
-12216 1977 0
-11096 -2137 0
-856 -11096 857 0
856 -11096 -857 0
-12376 2137 0
-11256 -2297 0
-1016 -11256 1017 0
1016 -11256 -1017 0
-12536 2297 0
-216 -11736 -217 0
216 -11736 217 0
-376 -11896 -377 0
376 -11896 377 0
-536 -12056 -537 0
536 -12056 537 0
-696 -12216 -697 0
696 -12216 697 0
-856 -12376 -857 0
856 -12376 857 0
-1016 -12536 -1017 0
1016 -12536 1017 0
-1176 -12696 -1177 0
1176 -12696 1177 0
14137 -57 58 0
14137 57 -58 0
14137 -1337 1338 0
14137 1337 -1338 0
14297 -217 218 0
14297 217 -218 0
14297 -1497 1498 0
14297 1497 -1498 0
14457 -377 378 0
14457 377 -378 0
14457 -1657 1658 0
14457 1657 -1658 0
14617 -537 538 0
14617 537 -538 0
14617 -1817 1818 0
14617 1817 -1818 0
14777 -697 698 0
14777 697 -698 0
14777 -1977 1978 0
14777 1977 -1978 0
14937 -857 858 0
14937 857 -858 0
14937 -2137 2138 0
14937 2137 -2138 0
15097 -1017 1018 0
15097 1017 -1018 0
15097 -2297 2298 0
15097 2297 -2298 0
15257 -1177 1178 0
15257 1177 -1178 0
15257 -2457 2458 0
15257 2457 -2458 0
-57 -10297 -58 0
57 -10297 58 0
-10457 -1498 0
-217 -10457 218 0
217 -10457 -218 0
-11737 1498 0
-10617 -1658 0
-377 -10617 378 0
377 -10617 -378 0
-11897 1658 0
-10777 -1818 0
-537 -10777 538 0
537 -10777 -538 0
-12057 1818 0
-10937 -1978 0
-697 -10937 698 0
697 -10937 -698 0
-12217 1978 0
-11097 -2138 0
-857 -11097 858 0
857 -11097 -858 0
-12377 2138 0
-11257 -2298 0
-1017 -11257 1018 0
1017 -11257 -1018 0
-12537 2298 0
-217 -11737 -218 0
217 -11737 218 0
-377 -11897 -378 0
377 -11897 378 0
-537 -12057 -538 0
537 -12057 538 0
-697 -12217 -698 0
697 -12217 698 0
-857 -12377 -858 0
857 -12377 858 0
-1017 -12537 -1018 0
1017 -12537 1018 0
-1177 -12697 -1178 0
1177 -12697 1178 0
14138 -58 59 0
14138 58 -59 0
14138 -1338 1339 0
14138 1338 -1339 0
14298 -218 219 0
14298 218 -219 0
14298 -1498 1499 0
14298 1498 -1499 0
14458 -378 379 0
14458 378 -379 0
14458 -1658 1659 0
14458 1658 -1659 0
14618 -538 539 0
14618 538 -539 0
14618 -1818 1819 0
14618 1818 -1819 0
14778 -698 699 0
14778 698 -699 0
14778 -1978 1979 0
14778 1978 -1979 0
14938 -858 859 0
14938 858 -859 0
14938 -2138 2139 0
14938 2138 -2139 0
15098 -1018 1019 0
15098 1018 -1019 0
15098 -2298 2299 0
15098 2298 -2299 0
15258 -1178 1179 0
15258 1178 -1179 0
15258 -2458 2459 0
15258 2458 -2459 0
-58 -10298 -59 0
58 -10298 59 0
-10458 -1499 0
-218 -10458 219 0
218 -10458 -219 0
-11738 1499 0
-10618 -1659 0
-378 -10618 379 0
378 -10618 -379 0
-11898 1659 0
-10778 -1819 0
-538 -10778 539 0
538 -10778 -539 0
-12058 1819 0
-10938 -1979 0
-698 -10938 699 0
698 -10938 -699 0
-12218 1979 0
-11098 -2139 0
-858 -11098 859 0
858 -11098 -859 0
-12378 2139 0
-11258 -2299 0
-1018 -11258 1019 0
1018 -11258 -1019 0
-12538 2299 0
-218 -11738 -219 0
218 -11738 219 0
-378 -11898 -379 0
378 -11898 379 0
-538 -12058 -539 0
538 -12058 539 0
-698 -12218 -699 0
698 -12218 699 0
-858 -12378 -859 0
858 -12378 859 0
-1018 -12538 -1019 0
1018 -12538 1019 0
-1178 -12698 -1179 0
1178 -12698 1179 0
14139 -59 60 0
14139 59 -60 0
14139 -1339 1340 0
14139 1339 -1340 0
14299 -219 220 0
14299 219 -220 0
14299 -1499 1500 0
14299 1499 -1500 0
14459 -379 380 0
14459 379 -380 0
14459 -1659 1660 0
14459 1659 -1660 0
14619 -539 540 0
14619 539 -540 0
14619 -1819 1820 0
14619 1819 -1820 0
14779 -699 700 0
14779 699 -700 0
14779 -1979 1980 0
14779 1979 -1980 0
14939 -859 860 0
14939 859 -860 0
14939 -2139 2140 0
14939 2139 -2140 0
15099 -1019 1020 0
15099 1019 -1020 0
15099 -2299 2300 0
15099 2299 -2300 0
15259 -1179 1180 0
15259 1179 -1180 0
15259 -2459 2460 0
15259 2459 -2460 0
-59 -10299 -60 0
59 -10299 60 0
-10459 -1500 0
-219 -10459 220 0
219 -10459 -220 0
-11739 1500 0
-10619 -1660 0
-379 -10619 380 0
379 -10619 -380 0
-11899 1660 0
-10779 -1820 0
-539 -10779 540 0
539 -10779 -540 0
-12059 1820 0
-10939 -1980 0
-699 -10939 700 0
699 -10939 -700 0
-12219 1980 0
-11099 -2140 0
-859 -11099 860 0
859 -11099 -860 0
-12379 2140 0
-11259 -2300 0
-1019 -11259 1020 0
1019 -11259 -1020 0
-12539 2300 0
-219 -11739 -220 0
219 -11739 220 0
-379 -11899 -380 0
379 -11899 380 0
-539 -12059 -540 0
539 -12059 540 0
-699 -12219 -700 0
699 -12219 700 0
-859 -12379 -860 0
859 -12379 860 0
-1019 -12539 -1020 0
1019 -12539 1020 0
-1179 -12699 -1180 0
1179 -12699 1180 0
14140 -60 61 0
14140 60 -61 0
14140 -1340 1341 0
14140 1340 -1341 0
14300 -220 221 0
14300 220 -221 0
14300 -1500 1501 0
14300 1500 -1501 0
14460 -380 381 0
14460 380 -381 0
14460 -1660 1661 0
14460 1660 -1661 0
14620 -540 541 0
14620 540 -541 0
14620 -1820 1821 0
14620 1820 -1821 0
14780 -700 701 0
14780 700 -701 0
14780 -1980 1981 0
14780 1980 -1981 0
14940 -860 861 0
14940 860 -861 0
14940 -2140 2141 0
14940 2140 -2141 0
15100 -1020 1021 0
15100 1020 -1021 0
15100 -2300 2301 0
15100 2300 -2301 0
15260 -1180 1181 0
15260 1180 -1181 0
15260 -2460 2461 0
15260 2460 -2461 0
-60 -10300 -61 0
60 -10300 61 0
-10460 -1501 0
-220 -10460 221 0
220 -10460 -221 0
-11740 1501 0
-10620 -1661 0
-380 -10620 381 0
380 -10620 -381 0
-11900 1661 0
-10780 -1821 0
-540 -10780 541 0
540 -10780 -541 0
-12060 1821 0
-10940 -1981 0
-700 -10940 701 0
700 -10940 -701 0
-12220 1981 0
-11100 -2141 0
-860 -11100 861 0
860 -11100 -861 0
-12380 2141 0
-11260 -2301 0
-1020 -11260 1021 0
1020 -11260 -1021 0
-12540 2301 0
-220 -11740 -221 0
220 -11740 221 0
-380 -11900 -381 0
380 -11900 381 0
-540 -12060 -541 0
540 -12060 541 0
-700 -12220 -701 0
700 -12220 701 0
-860 -12380 -861 0
860 -12380 861 0
-1020 -12540 -1021 0
1020 -12540 1021 0
-1180 -12700 -1181 0
1180 -12700 1181 0
14141 -61 62 0
14141 61 -62 0
14141 -1341 1342 0
14141 1341 -1342 0
14301 -221 222 0
14301 221 -222 0
14301 -1501 1502 0
14301 1501 -1502 0
14461 -381 382 0
14461 381 -382 0
14461 -1661 1662 0
14461 1661 -1662 0
14621 -541 542 0
14621 541 -542 0
14621 -1821 1822 0
14621 1821 -1822 0
14781 -701 702 0
14781 701 -702 0
14781 -1981 1982 0
14781 1981 -1982 0
14941 -861 862 0
14941 861 -862 0
14941 -2141 2142 0
14941 2141 -2142 0
15101 -1021 1022 0
15101 1021 -1022 0
15101 -2301 2302 0
15101 2301 -2302 0
15261 -1181 1182 0
15261 1181 -1182 0
15261 -2461 2462 0
15261 2461 -2462 0
-61 -10301 -62 0
61 -10301 62 0
-10461 -1502 0
-221 -10461 222 0
221 -10461 -222 0
-11741 1502 0
-10621 -1662 0
-381 -10621 382 0
381 -10621 -382 0
-11901 1662 0
-10781 -1822 0
-541 -10781 542 0
541 -10781 -542 0
-12061 1822 0
-10941 -1982 0
-701 -10941 702 0
701 -10941 -702 0
-12221 1982 0
-11101 -2142 0
-861 -11101 862 0
861 -11101 -862 0
-12381 2142 0
-11261 -2302 0
-1021 -11261 1022 0
1021 -11261 -1022 0
-12541 2302 0
-221 -11741 -222 0
221 -11741 222 0
-381 -11901 -382 0
381 -11901 382 0
-541 -12061 -542 0
541 -12061 542 0
-701 -12221 -702 0
701 -12221 702 0
-861 -12381 -862 0
861 -12381 862 0
-1021 -12541 -1022 0
1021 -12541 1022 0
-1181 -12701 -1182 0
1181 -12701 1182 0
14142 -62 63 0
14142 62 -63 0
14142 -1342 1343 0
14142 1342 -1343 0
14302 -222 223 0
14302 222 -223 0
14302 -1502 1503 0
14302 1502 -1503 0
14462 -382 383 0
14462 382 -383 0
14462 -1662 1663 0
14462 1662 -1663 0
14622 -542 543 0
14622 542 -543 0
14622 -1822 1823 0
14622 1822 -1823 0
14782 -702 703 0
14782 702 -703 0
14782 -1982 1983 0
14782 1982 -1983 0
14942 -862 863 0
14942 862 -863 0
14942 -2142 2143 0
14942 2142 -2143 0
15102 -1022 1023 0
15102 1022 -1023 0
15102 -2302 2303 0
15102 2302 -2303 0
15262 -1182 1183 0
15262 1182 -1183 0
15262 -2462 2463 0
15262 2462 -2463 0
-62 -10302 -63 0
62 -10302 63 0
-10462 -1503 0
-222 -10462 223 0
222 -10462 -223 0
-11742 1503 0
-10622 -1663 0
-382 -10622 383 0
382 -10622 -383 0
-11902 1663 0
-10782 -1823 0
-542 -10782 543 0
542 -10782 -543 0
-12062 1823 0
-10942 -1983 0
-702 -10942 703 0
702 -10942 -703 0
-12222 1983 0
-11102 -2143 0
-862 -11102 863 0
862 -11102 -863 0
-12382 2143 0
-11262 -2303 0
-1022 -11262 1023 0
1022 -11262 -1023 0
-12542 2303 0
-222 -11742 -223 0
222 -11742 223 0
-382 -11902 -383 0
382 -11902 383 0
-542 -12062 -543 0
542 -12062 543 0
-702 -12222 -703 0
702 -12222 703 0
-862 -12382 -863 0
862 -12382 863 0
-1022 -12542 -1023 0
1022 -12542 1023 0
-1182 -12702 -1183 0
1182 -12702 1183 0
14143 -63 64 0
14143 63 -64 0
14143 -1343 1344 0
14143 1343 -1344 0
14303 -223 224 0
14303 223 -224 0
14303 -1503 1504 0
14303 1503 -1504 0
14463 -383 384 0
14463 383 -384 0
14463 -1663 1664 0
14463 1663 -1664 0
14623 -543 544 0
14623 543 -544 0
14623 -1823 1824 0
14623 1823 -1824 0
14783 -703 704 0
14783 703 -704 0
14783 -1983 1984 0
14783 1983 -1984 0
14943 -863 864 0
14943 863 -864 0
14943 -2143 2144 0
14943 2143 -2144 0
15103 -1023 1024 0
15103 1023 -1024 0
15103 -2303 2304 0
15103 2303 -2304 0
15263 -1183 1184 0
15263 1183 -1184 0
15263 -2463 2464 0
15263 2463 -2464 0
-63 -10303 -64 0
63 -10303 64 0
-10463 -1504 0
-223 -10463 224 0
223 -10463 -224 0
-11743 1504 0
-10623 -1664 0
-383 -10623 384 0
383 -10623 -384 0
-11903 1664 0
-10783 -1824 0
-543 -10783 544 0
543 -10783 -544 0
-12063 1824 0
-10943 -1984 0
-703 -10943 704 0
703 -10943 -704 0
-12223 1984 0
-11103 -2144 0
-863 -11103 864 0
863 -11103 -864 0
-12383 2144 0
-11263 -2304 0
-1023 -11263 1024 0
1023 -11263 -1024 0
-12543 2304 0
-223 -11743 -224 0
223 -11743 224 0
-383 -11903 -384 0
383 -11903 384 0
-543 -12063 -544 0
543 -12063 544 0
-703 -12223 -704 0
703 -12223 704 0
-863 -12383 -864 0
863 -12383 864 0
-1023 -12543 -1024 0
1023 -12543 1024 0
-1183 -12703 -1184 0
1183 -12703 1184 0
14144 -64 65 0
14144 64 -65 0
14144 -1344 1345 0
14144 1344 -1345 0
14304 -224 225 0
14304 224 -225 0
14304 -1504 1505 0
14304 1504 -1505 0
14464 -384 385 0
14464 384 -385 0
14464 -1664 1665 0
14464 1664 -1665 0
14624 -544 545 0
14624 544 -545 0
14624 -1824 1825 0
14624 1824 -1825 0
14784 -704 705 0
14784 704 -705 0
14784 -1984 1985 0
14784 1984 -1985 0
14944 -864 865 0
14944 864 -865 0
14944 -2144 2145 0
14944 2144 -2145 0
15104 -1024 1025 0
15104 1024 -1025 0
15104 -2304 2305 0
15104 2304 -2305 0
15264 -1184 1185 0
15264 1184 -1185 0
15264 -2464 2465 0
15264 2464 -2465 0
-64 -10304 -65 0
64 -10304 65 0
-10464 -1505 0
-224 -10464 225 0
224 -10464 -225 0
-11744 1505 0
-10624 -1665 0
-384 -10624 385 0
384 -10624 -385 0
-11904 1665 0
-10784 -1825 0
-544 -10784 545 0
544 -10784 -545 0
-12064 1825 0
-10944 -1985 0
-704 -10944 705 0
704 -10944 -705 0
-12224 1985 0
-11104 -2145 0
-864 -11104 865 0
864 -11104 -865 0
-12384 2145 0
-11264 -2305 0
-1024 -11264 1025 0
1024 -11264 -1025 0
-12544 2305 0
-224 -11744 -225 0
224 -11744 225 0
-384 -11904 -385 0
384 -11904 385 0
-544 -12064 -545 0
544 -12064 545 0
-704 -12224 -705 0
704 -12224 705 0
-864 -12384 -865 0
864 -12384 865 0
-1024 -12544 -1025 0
1024 -12544 1025 0
-1184 -12704 -1185 0
1184 -12704 1185 0
14145 -65 66 0
14145 65 -66 0
14145 -1345 1346 0
14145 1345 -1346 0
14305 -225 226 0
14305 225 -226 0
14305 -1505 1506 0
14305 1505 -1506 0
14465 -385 386 0
14465 385 -386 0
14465 -1665 1666 0
14465 1665 -1666 0
14625 -545 546 0
14625 545 -546 0
14625 -1825 1826 0
14625 1825 -1826 0
14785 -705 706 0
14785 705 -706 0
14785 -1985 1986 0
14785 1985 -1986 0
14945 -865 866 0
14945 865 -866 0
14945 -2145 2146 0
14945 2145 -2146 0
15105 -1025 1026 0
15105 1025 -1026 0
15105 -2305 2306 0
15105 2305 -2306 0
15265 -1185 1186 0
15265 1185 -1186 0
15265 -2465 2466 0
15265 2465 -2466 0
-65 -10305 -66 0
65 -10305 66 0
-10465 -1506 0
-225 -10465 226 0
225 -10465 -226 0
-11745 1506 0
-10625 -1666 0
-385 -10625 386 0
385 -10625 -386 0
-11905 1666 0
-10785 -1826 0
-545 -10785 546 0
545 -10785 -546 0
-12065 1826 0
-10945 -1986 0
-705 -10945 706 0
705 -10945 -706 0
-12225 1986 0
-11105 -2146 0
-865 -11105 866 0
865 -11105 -866 0
-12385 2146 0
-11265 -2306 0
-1025 -11265 1026 0
1025 -11265 -1026 0
-12545 2306 0
-225 -11745 -226 0
225 -11745 226 0
-385 -11905 -386 0
385 -11905 386 0
-545 -12065 -546 0
545 -12065 546 0
-705 -12225 -706 0
705 -12225 706 0
-865 -12385 -866 0
865 -12385 866 0
-1025 -12545 -1026 0
1025 -12545 1026 0
-1185 -12705 -1186 0
1185 -12705 1186 0
14146 -66 67 0
14146 66 -67 0
14146 -1346 1347 0
14146 1346 -1347 0
14306 -226 227 0
14306 226 -227 0
14306 -1506 1507 0
14306 1506 -1507 0
14466 -386 387 0
14466 386 -387 0
14466 -1666 1667 0
14466 1666 -1667 0
14626 -546 547 0
14626 546 -547 0
14626 -1826 1827 0
14626 1826 -1827 0
14786 -706 707 0
14786 706 -707 0
14786 -1986 1987 0
14786 1986 -1987 0
14946 -866 867 0
14946 866 -867 0
14946 -2146 2147 0
14946 2146 -2147 0
15106 -1026 1027 0
15106 1026 -1027 0
15106 -2306 2307 0
15106 2306 -2307 0
15266 -1186 1187 0
15266 1186 -1187 0
15266 -2466 2467 0
15266 2466 -2467 0
-66 -10306 -67 0
66 -10306 67 0
-10466 -1507 0
-226 -10466 227 0
226 -10466 -227 0
-11746 1507 0
-10626 -1667 0
-386 -10626 387 0
386 -10626 -387 0
-11906 1667 0
-10786 -1827 0
-546 -10786 547 0
546 -10786 -547 0
-12066 1827 0
-10946 -1987 0
-706 -10946 707 0
706 -10946 -707 0
-12226 1987 0
-11106 -2147 0
-866 -11106 867 0
866 -11106 -867 0
-12386 2147 0
-11266 -2307 0
-1026 -11266 1027 0
1026 -11266 -1027 0
-12546 2307 0
-226 -11746 -227 0
226 -11746 227 0
-386 -11906 -387 0
386 -11906 387 0
-546 -12066 -547 0
546 -12066 547 0
-706 -12226 -707 0
706 -12226 707 0
-866 -12386 -867 0
866 -12386 867 0
-1026 -12546 -1027 0
1026 -12546 1027 0
-1186 -12706 -1187 0
1186 -12706 1187 0
14147 -67 68 0
14147 67 -68 0
14147 -1347 1348 0
14147 1347 -1348 0
14307 -227 228 0
14307 227 -228 0
14307 -1507 1508 0
14307 1507 -1508 0
14467 -387 388 0
14467 387 -388 0
14467 -1667 1668 0
14467 1667 -1668 0
14627 -547 548 0
14627 547 -548 0
14627 -1827 1828 0
14627 1827 -1828 0
14787 -707 708 0
14787 707 -708 0
14787 -1987 1988 0
14787 1987 -1988 0
14947 -867 868 0
14947 867 -868 0
14947 -2147 2148 0
14947 2147 -2148 0
15107 -1027 1028 0
15107 1027 -1028 0
15107 -2307 2308 0
15107 2307 -2308 0
15267 -1187 1188 0
15267 1187 -1188 0
15267 -2467 2468 0
15267 2467 -2468 0
-67 -10307 -68 0
67 -10307 68 0
-10467 -1508 0
-227 -10467 228 0
227 -10467 -228 0
-11747 1508 0
-10627 -1668 0
-387 -10627 388 0
387 -10627 -388 0
-11907 1668 0
-10787 -1828 0
-547 -10787 548 0
547 -10787 -548 0
-12067 1828 0
-10947 -1988 0
-707 -10947 708 0
707 -10947 -708 0
-12227 1988 0
-11107 -2148 0
-867 -11107 868 0
867 -11107 -868 0
-12387 2148 0
-11267 -2308 0
-1027 -11267 1028 0
1027 -11267 -1028 0
-12547 2308 0
-227 -11747 -228 0
227 -11747 228 0
-387 -11907 -388 0
387 -11907 388 0
-547 -12067 -548 0
547 -12067 548 0
-707 -12227 -708 0
707 -12227 708 0
-867 -12387 -868 0
867 -12387 868 0
-1027 -12547 -1028 0
1027 -12547 1028 0
-1187 -12707 -1188 0
1187 -12707 1188 0
14148 -68 69 0
14148 68 -69 0
14148 -1348 1349 0
14148 1348 -1349 0
14308 -228 229 0
14308 228 -229 0
14308 -1508 1509 0
14308 1508 -1509 0
14468 -388 389 0
14468 388 -389 0
14468 -1668 1669 0
14468 1668 -1669 0
14628 -548 549 0
14628 548 -549 0
14628 -1828 1829 0
14628 1828 -1829 0
14788 -708 709 0
14788 708 -709 0
14788 -1988 1989 0
14788 1988 -1989 0
14948 -868 869 0
14948 868 -869 0
14948 -2148 2149 0
14948 2148 -2149 0
15108 -1028 1029 0
15108 1028 -1029 0
15108 -2308 2309 0
15108 2308 -2309 0
15268 -1188 1189 0
15268 1188 -1189 0
15268 -2468 2469 0
15268 2468 -2469 0
-68 -10308 -69 0
68 -10308 69 0
-10468 -1509 0
-228 -10468 229 0
228 -10468 -229 0
-11748 1509 0
-10628 -1669 0
-388 -10628 389 0
388 -10628 -389 0
-11908 1669 0
-10788 -1829 0
-548 -10788 549 0
548 -10788 -549 0
-12068 1829 0
-10948 -1989 0
-708 -10948 709 0
708 -10948 -709 0
-12228 1989 0
-11108 -2149 0
-868 -11108 869 0
868 -11108 -869 0
-12388 2149 0
-11268 -2309 0
-1028 -11268 1029 0
1028 -11268 -1029 0
-12548 2309 0
-228 -11748 -229 0
228 -11748 229 0
-388 -11908 -389 0
388 -11908 389 0
-548 -12068 -549 0
548 -12068 549 0
-708 -12228 -709 0
708 -12228 709 0
-868 -12388 -869 0
868 -12388 869 0
-1028 -12548 -1029 0
1028 -12548 1029 0
-1188 -12708 -1189 0
1188 -12708 1189 0
14149 -69 70 0
14149 69 -70 0
14149 -1349 1350 0
14149 1349 -1350 0
14309 -229 230 0
14309 229 -230 0
14309 -1509 1510 0
14309 1509 -1510 0
14469 -389 390 0
14469 389 -390 0
14469 -1669 1670 0
14469 1669 -1670 0
14629 -549 550 0
14629 549 -550 0
14629 -1829 1830 0
14629 1829 -1830 0
14789 -709 710 0
14789 709 -710 0
14789 -1989 1990 0
14789 1989 -1990 0
14949 -869 870 0
14949 869 -870 0
14949 -2149 2150 0
14949 2149 -2150 0
15109 -1029 1030 0
15109 1029 -1030 0
15109 -2309 2310 0
15109 2309 -2310 0
15269 -1189 1190 0
15269 1189 -1190 0
15269 -2469 2470 0
15269 2469 -2470 0
-69 -10309 -70 0
69 -10309 70 0
-10469 -1510 0
-229 -10469 230 0
229 -10469 -230 0
-11749 1510 0
-10629 -1670 0
-389 -10629 390 0
389 -10629 -390 0
-11909 1670 0
-10789 -1830 0
-549 -10789 550 0
549 -10789 -550 0
-12069 1830 0
-10949 -1990 0
-709 -10949 710 0
709 -10949 -710 0
-12229 1990 0
-11109 -2150 0
-869 -11109 870 0
869 -11109 -870 0
-12389 2150 0
-11269 -2310 0
-1029 -11269 1030 0
1029 -11269 -1030 0
-12549 2310 0
-229 -11749 -230 0
229 -11749 230 0
-389 -11909 -390 0
389 -11909 390 0
-549 -12069 -550 0
549 -12069 550 0
-709 -12229 -710 0
709 -12229 710 0
-869 -12389 -870 0
869 -12389 870 0
-1029 -12549 -1030 0
1029 -12549 1030 0
-1189 -12709 -1190 0
1189 -12709 1190 0
14150 -70 71 0
14150 70 -71 0
14150 -1350 1351 0
14150 1350 -1351 0
14310 -230 231 0
14310 230 -231 0
14310 -1510 1511 0
14310 1510 -1511 0
14470 -390 391 0
14470 390 -391 0
14470 -1670 1671 0
14470 1670 -1671 0
14630 -550 551 0
14630 550 -551 0
14630 -1830 1831 0
14630 1830 -1831 0
14790 -710 711 0
14790 710 -711 0
14790 -1990 1991 0
14790 1990 -1991 0
14950 -870 871 0
14950 870 -871 0
14950 -2150 2151 0
14950 2150 -2151 0
15110 -1030 1031 0
15110 1030 -1031 0
15110 -2310 2311 0
15110 2310 -2311 0
15270 -1190 1191 0
15270 1190 -1191 0
15270 -2470 2471 0
15270 2470 -2471 0
-70 -10310 -71 0
70 -10310 71 0
-10470 -1511 0
-230 -10470 231 0
230 -10470 -231 0
-11750 1511 0
-10630 -1671 0
-390 -10630 391 0
390 -10630 -391 0
-11910 1671 0
-10790 -1831 0
-550 -10790 551 0
550 -10790 -551 0
-12070 1831 0
-10950 -1991 0
-710 -10950 711 0
710 -10950 -711 0
-12230 1991 0
-11110 -2151 0
-870 -11110 871 0
870 -11110 -871 0
-12390 2151 0
-11270 -2311 0
-1030 -11270 1031 0
1030 -11270 -1031 0
-12550 2311 0
-230 -11750 -231 0
230 -11750 231 0
-390 -11910 -391 0
390 -11910 391 0
-550 -12070 -551 0
550 -12070 551 0
-710 -12230 -711 0
710 -12230 711 0
-870 -12390 -871 0
870 -12390 871 0
-1030 -12550 -1031 0
1030 -12550 1031 0
-1190 -12710 -1191 0
1190 -12710 1191 0
14151 -71 72 0
14151 71 -72 0
14151 -1351 1352 0
14151 1351 -1352 0
14311 -231 232 0
14311 231 -232 0
14311 -1511 1512 0
14311 1511 -1512 0
14471 -391 392 0
14471 391 -392 0
14471 -1671 1672 0
14471 1671 -1672 0
14631 -551 552 0
14631 551 -552 0
14631 -1831 1832 0
14631 1831 -1832 0
14791 -711 712 0
14791 711 -712 0
14791 -1991 1992 0
14791 1991 -1992 0
14951 -871 872 0
14951 871 -872 0
14951 -2151 2152 0
14951 2151 -2152 0
15111 -1031 1032 0
15111 1031 -1032 0
15111 -2311 2312 0
15111 2311 -2312 0
15271 -1191 1192 0
15271 1191 -1192 0
15271 -2471 2472 0
15271 2471 -2472 0
-71 -10311 -72 0
71 -10311 72 0
-10471 -1512 0
-231 -10471 232 0
231 -10471 -232 0
-11751 1512 0
-10631 -1672 0
-391 -10631 392 0
391 -10631 -392 0
-11911 1672 0
-10791 -1832 0
-551 -10791 552 0
551 -10791 -552 0
-12071 1832 0
-10951 -1992 0
-711 -10951 712 0
711 -10951 -712 0
-12231 1992 0
-11111 -2152 0
-871 -11111 872 0
871 -11111 -872 0
-12391 2152 0
-11271 -2312 0
-1031 -11271 1032 0
1031 -11271 -1032 0
-12551 2312 0
-231 -11751 -232 0
231 -11751 232 0
-391 -11911 -392 0
391 -11911 392 0
-551 -12071 -552 0
551 -12071 552 0
-711 -12231 -712 0
711 -12231 712 0
-871 -12391 -872 0
871 -12391 872 0
-1031 -12551 -1032 0
1031 -12551 1032 0
-1191 -12711 -1192 0
1191 -12711 1192 0
14152 -72 73 0
14152 72 -73 0
14152 -1352 1353 0
14152 1352 -1353 0
14312 -232 233 0
14312 232 -233 0
14312 -1512 1513 0
14312 1512 -1513 0
14472 -392 393 0
14472 392 -393 0
14472 -1672 1673 0
14472 1672 -1673 0
14632 -552 553 0
14632 552 -553 0
14632 -1832 1833 0
14632 1832 -1833 0
14792 -712 713 0
14792 712 -713 0
14792 -1992 1993 0
14792 1992 -1993 0
14952 -872 873 0
14952 872 -873 0
14952 -2152 2153 0
14952 2152 -2153 0
15112 -1032 1033 0
15112 1032 -1033 0
15112 -2312 2313 0
15112 2312 -2313 0
15272 -1192 1193 0
15272 1192 -1193 0
15272 -2472 2473 0
15272 2472 -2473 0
-72 -10312 -73 0
72 -10312 73 0
-10472 -1513 0
-232 -10472 233 0
232 -10472 -233 0
-11752 1513 0
-10632 -1673 0
-392 -10632 393 0
392 -10632 -393 0
-11912 1673 0
-10792 -1833 0
-552 -10792 553 0
552 -10792 -553 0
-12072 1833 0
-10952 -1993 0
-712 -10952 713 0
712 -10952 -713 0
-12232 1993 0
-11112 -2153 0
-872 -11112 873 0
872 -11112 -873 0
-12392 2153 0
-11272 -2313 0
-1032 -11272 1033 0
1032 -11272 -1033 0
-12552 2313 0
-232 -11752 -233 0
232 -11752 233 0
-392 -11912 -393 0
392 -11912 393 0
-552 -12072 -553 0
552 -12072 553 0
-712 -12232 -713 0
712 -12232 713 0
-872 -12392 -873 0
872 -12392 873 0
-1032 -12552 -1033 0
1032 -12552 1033 0
-1192 -12712 -1193 0
1192 -12712 1193 0
14153 -73 74 0
14153 73 -74 0
14153 -1353 1354 0
14153 1353 -1354 0
14313 -233 234 0
14313 233 -234 0
14313 -1513 1514 0
14313 1513 -1514 0
14473 -393 394 0
14473 393 -394 0
14473 -1673 1674 0
14473 1673 -1674 0
14633 -553 554 0
14633 553 -554 0
14633 -1833 1834 0
14633 1833 -1834 0
14793 -713 714 0
14793 713 -714 0
14793 -1993 1994 0
14793 1993 -1994 0
14953 -873 874 0
14953 873 -874 0
14953 -2153 2154 0
14953 2153 -2154 0
15113 -1033 1034 0
15113 1033 -1034 0
15113 -2313 2314 0
15113 2313 -2314 0
15273 -1193 1194 0
15273 1193 -1194 0
15273 -2473 2474 0
15273 2473 -2474 0
-73 -10313 -74 0
73 -10313 74 0
-10473 -1514 0
-233 -10473 234 0
233 -10473 -234 0
-11753 1514 0
-10633 -1674 0
-393 -10633 394 0
393 -10633 -394 0
-11913 1674 0
-10793 -1834 0
-553 -10793 554 0
553 -10793 -554 0
-12073 1834 0
-10953 -1994 0
-713 -10953 714 0
713 -10953 -714 0
-12233 1994 0
-11113 -2154 0
-873 -11113 874 0
873 -11113 -874 0
-12393 2154 0
-11273 -2314 0
-1033 -11273 1034 0
1033 -11273 -1034 0
-12553 2314 0
-233 -11753 -234 0
233 -11753 234 0
-393 -11913 -394 0
393 -11913 394 0
-553 -12073 -554 0
553 -12073 554 0
-713 -12233 -714 0
713 -12233 714 0
-873 -12393 -874 0
873 -12393 874 0
-1033 -12553 -1034 0
1033 -12553 1034 0
-1193 -12713 -1194 0
1193 -12713 1194 0
14154 -74 75 0
14154 74 -75 0
14154 -1354 1355 0
14154 1354 -1355 0
14314 -234 235 0
14314 234 -235 0
14314 -1514 1515 0
14314 1514 -1515 0
14474 -394 395 0
14474 394 -395 0
14474 -1674 1675 0
14474 1674 -1675 0
14634 -554 555 0
14634 554 -555 0
14634 -1834 1835 0
14634 1834 -1835 0
14794 -714 715 0
14794 714 -715 0
14794 -1994 1995 0
14794 1994 -1995 0
14954 -874 875 0
14954 874 -875 0
14954 -2154 2155 0
14954 2154 -2155 0
15114 -1034 1035 0
15114 1034 -1035 0
15114 -2314 2315 0
15114 2314 -2315 0
15274 -1194 1195 0
15274 1194 -1195 0
15274 -2474 2475 0
15274 2474 -2475 0
-74 -10314 -75 0
74 -10314 75 0
-10474 -1515 0
-234 -10474 235 0
234 -10474 -235 0
-11754 1515 0
-10634 -1675 0
-394 -10634 395 0
394 -10634 -395 0
-11914 1675 0
-10794 -1835 0
-554 -10794 555 0
554 -10794 -555 0
-12074 1835 0
-10954 -1995 0
-714 -10954 715 0
714 -10954 -715 0
-12234 1995 0
-11114 -2155 0
-874 -11114 875 0
874 -11114 -875 0
-12394 2155 0
-11274 -2315 0
-1034 -11274 1035 0
1034 -11274 -1035 0
-12554 2315 0
-234 -11754 -235 0
234 -11754 235 0
-394 -11914 -395 0
394 -11914 395 0
-554 -12074 -555 0
554 -12074 555 0
-714 -12234 -715 0
714 -12234 715 0
-874 -12394 -875 0
874 -12394 875 0
-1034 -12554 -1035 0
1034 -12554 1035 0
-1194 -12714 -1195 0
1194 -12714 1195 0
14155 -75 76 0
14155 75 -76 0
14155 -1355 1356 0
14155 1355 -1356 0
14315 -235 236 0
14315 235 -236 0
14315 -1515 1516 0
14315 1515 -1516 0
14475 -395 396 0
14475 395 -396 0
14475 -1675 1676 0
14475 1675 -1676 0
14635 -555 556 0
14635 555 -556 0
14635 -1835 1836 0
14635 1835 -1836 0
14795 -715 716 0
14795 715 -716 0
14795 -1995 1996 0
14795 1995 -1996 0
14955 -875 876 0
14955 875 -876 0
14955 -2155 2156 0
14955 2155 -2156 0
15115 -1035 1036 0
15115 1035 -1036 0
15115 -2315 2316 0
15115 2315 -2316 0
15275 -1195 1196 0
15275 1195 -1196 0
15275 -2475 2476 0
15275 2475 -2476 0
-75 -10315 -76 0
75 -10315 76 0
-10475 -1516 0
-235 -10475 236 0
235 -10475 -236 0
-11755 1516 0
-10635 -1676 0
-395 -10635 396 0
395 -10635 -396 0
-11915 1676 0
-10795 -1836 0
-555 -10795 556 0
555 -10795 -556 0
-12075 1836 0
-10955 -1996 0
-715 -10955 716 0
715 -10955 -716 0
-12235 1996 0
-11115 -2156 0
-875 -11115 876 0
875 -11115 -876 0
-12395 2156 0
-11275 -2316 0
-1035 -11275 1036 0
1035 -11275 -1036 0
-12555 2316 0
-235 -11755 -236 0
235 -11755 236 0
-395 -11915 -396 0
395 -11915 396 0
-555 -12075 -556 0
555 -12075 556 0
-715 -12235 -716 0
715 -12235 716 0
-875 -12395 -876 0
875 -12395 876 0
-1035 -12555 -1036 0
1035 -12555 1036 0
-1195 -12715 -1196 0
1195 -12715 1196 0
14156 -76 77 0
14156 76 -77 0
14156 -1356 1357 0
14156 1356 -1357 0
14316 -236 237 0
14316 236 -237 0
14316 -1516 1517 0
14316 1516 -1517 0
14476 -396 397 0
14476 396 -397 0
14476 -1676 1677 0
14476 1676 -1677 0
14636 -556 557 0
14636 556 -557 0
14636 -1836 1837 0
14636 1836 -1837 0
14796 -716 717 0
14796 716 -717 0
14796 -1996 1997 0
14796 1996 -1997 0
14956 -876 877 0
14956 876 -877 0
14956 -2156 2157 0
14956 2156 -2157 0
15116 -1036 1037 0
15116 1036 -1037 0
15116 -2316 2317 0
15116 2316 -2317 0
15276 -1196 1197 0
15276 1196 -1197 0
15276 -2476 2477 0
15276 2476 -2477 0
-76 -10316 -77 0
76 -10316 77 0
-10476 -1517 0
-236 -10476 237 0
236 -10476 -237 0
-11756 1517 0
-10636 -1677 0
-396 -10636 397 0
396 -10636 -397 0
-11916 1677 0
-10796 -1837 0
-556 -10796 557 0
556 -10796 -557 0
-12076 1837 0
-10956 -1997 0
-716 -10956 717 0
716 -10956 -717 0
-12236 1997 0
-11116 -2157 0
-876 -11116 877 0
876 -11116 -877 0
-12396 2157 0
-11276 -2317 0
-1036 -11276 1037 0
1036 -11276 -1037 0
-12556 2317 0
-236 -11756 -237 0
236 -11756 237 0
-396 -11916 -397 0
396 -11916 397 0
-556 -12076 -557 0
556 -12076 557 0
-716 -12236 -717 0
716 -12236 717 0
-876 -12396 -877 0
876 -12396 877 0
-1036 -12556 -1037 0
1036 -12556 1037 0
-1196 -12716 -1197 0
1196 -12716 1197 0
14157 -77 78 0
14157 77 -78 0
14157 -1357 1358 0
14157 1357 -1358 0
14317 -237 238 0
14317 237 -238 0
14317 -1517 1518 0
14317 1517 -1518 0
14477 -397 398 0
14477 397 -398 0
14477 -1677 1678 0
14477 1677 -1678 0
14637 -557 558 0
14637 557 -558 0
14637 -1837 1838 0
14637 1837 -1838 0
14797 -717 718 0
14797 717 -718 0
14797 -1997 1998 0
14797 1997 -1998 0
14957 -877 878 0
14957 877 -878 0
14957 -2157 2158 0
14957 2157 -2158 0
15117 -1037 1038 0
15117 1037 -1038 0
15117 -2317 2318 0
15117 2317 -2318 0
15277 -1197 1198 0
15277 1197 -1198 0
15277 -2477 2478 0
15277 2477 -2478 0
-77 -10317 -78 0
77 -10317 78 0
-10477 -1518 0
-237 -10477 238 0
237 -10477 -238 0
-11757 1518 0
-10637 -1678 0
-397 -10637 398 0
397 -10637 -398 0
-11917 1678 0
-10797 -1838 0
-557 -10797 558 0
557 -10797 -558 0
-12077 1838 0
-10957 -1998 0
-717 -10957 718 0
717 -10957 -718 0
-12237 1998 0
-11117 -2158 0
-877 -11117 878 0
877 -11117 -878 0
-12397 2158 0
-11277 -2318 0
-1037 -11277 1038 0
1037 -11277 -1038 0
-12557 2318 0
-237 -11757 -238 0
237 -11757 238 0
-397 -11917 -398 0
397 -11917 398 0
-557 -12077 -558 0
557 -12077 558 0
-717 -12237 -718 0
717 -12237 718 0
-877 -12397 -878 0
877 -12397 878 0
-1037 -12557 -1038 0
1037 -12557 1038 0
-1197 -12717 -1198 0
1197 -12717 1198 0
14158 -78 79 0
14158 78 -79 0
14158 -1358 1359 0
14158 1358 -1359 0
14318 -238 239 0
14318 238 -239 0
14318 -1518 1519 0
14318 1518 -1519 0
14478 -398 399 0
14478 398 -399 0
14478 -1678 1679 0
14478 1678 -1679 0
14638 -558 559 0
14638 558 -559 0
14638 -1838 1839 0
14638 1838 -1839 0
14798 -718 719 0
14798 718 -719 0
14798 -1998 1999 0
14798 1998 -1999 0
14958 -878 879 0
14958 878 -879 0
14958 -2158 2159 0
14958 2158 -2159 0
15118 -1038 1039 0
15118 1038 -1039 0
15118 -2318 2319 0
15118 2318 -2319 0
15278 -1198 1199 0
15278 1198 -1199 0
15278 -2478 2479 0
15278 2478 -2479 0
-78 -10318 -79 0
78 -10318 79 0
-10478 -1519 0
-238 -10478 239 0
238 -10478 -239 0
-11758 1519 0
-10638 -1679 0
-398 -10638 399 0
398 -10638 -399 0
-11918 1679 0
-10798 -1839 0
-558 -10798 559 0
558 -10798 -559 0
-12078 1839 0
-10958 -1999 0
-718 -10958 719 0
718 -10958 -719 0
-12238 1999 0
-11118 -2159 0
-878 -11118 879 0
878 -11118 -879 0
-12398 2159 0
-11278 -2319 0
-1038 -11278 1039 0
1038 -11278 -1039 0
-12558 2319 0
-238 -11758 -239 0
238 -11758 239 0
-398 -11918 -399 0
398 -11918 399 0
-558 -12078 -559 0
558 -12078 559 0
-718 -12238 -719 0
718 -12238 719 0
-878 -12398 -879 0
878 -12398 879 0
-1038 -12558 -1039 0
1038 -12558 1039 0
-1198 -12718 -1199 0
1198 -12718 1199 0
14159 -79 80 0
14159 79 -80 0
14159 -1359 1360 0
14159 1359 -1360 0
14319 -239 240 0
14319 239 -240 0
14319 -1519 1520 0
14319 1519 -1520 0
14479 -399 400 0
14479 399 -400 0
14479 -1679 1680 0
14479 1679 -1680 0
14639 -559 560 0
14639 559 -560 0
14639 -1839 1840 0
14639 1839 -1840 0
14799 -719 720 0
14799 719 -720 0
14799 -1999 2000 0
14799 1999 -2000 0
14959 -879 880 0
14959 879 -880 0
14959 -2159 2160 0
14959 2159 -2160 0
15119 -1039 1040 0
15119 1039 -1040 0
15119 -2319 2320 0
15119 2319 -2320 0
15279 -1199 1200 0
15279 1199 -1200 0
15279 -2479 2480 0
15279 2479 -2480 0
-79 -10319 -80 0
79 -10319 80 0
-10479 -1520 0
-239 -10479 240 0
239 -10479 -240 0
-11759 1520 0
-10639 -1680 0
-399 -10639 400 0
399 -10639 -400 0
-11919 1680 0
-10799 -1840 0
-559 -10799 560 0
559 -10799 -560 0
-12079 1840 0
-10959 -2000 0
-719 -10959 720 0
719 -10959 -720 0
-12239 2000 0
-11119 -2160 0
-879 -11119 880 0
879 -11119 -880 0
-12399 2160 0
-11279 -2320 0
-1039 -11279 1040 0
1039 -11279 -1040 0
-12559 2320 0
-239 -11759 -240 0
239 -11759 240 0
-399 -11919 -400 0
399 -11919 400 0
-559 -12079 -560 0
559 -12079 560 0
-719 -12239 -720 0
719 -12239 720 0
-879 -12399 -880 0
879 -12399 880 0
-1039 -12559 -1040 0
1039 -12559 1040 0
-1199 -12719 -1200 0
1199 -12719 1200 0
14160 -80 81 0
14160 80 -81 0
14160 -1360 1361 0
14160 1360 -1361 0
14320 -240 241 0
14320 240 -241 0
14320 -1520 1521 0
14320 1520 -1521 0
14480 -400 401 0
14480 400 -401 0
14480 -1680 1681 0
14480 1680 -1681 0
14640 -560 561 0
14640 560 -561 0
14640 -1840 1841 0
14640 1840 -1841 0
14800 -720 721 0
14800 720 -721 0
14800 -2000 2001 0
14800 2000 -2001 0
14960 -880 881 0
14960 880 -881 0
14960 -2160 2161 0
14960 2160 -2161 0
15120 -1040 1041 0
15120 1040 -1041 0
15120 -2320 2321 0
15120 2320 -2321 0
15280 -1200 1201 0
15280 1200 -1201 0
15280 -2480 2481 0
15280 2480 -2481 0
-80 -10320 -81 0
80 -10320 81 0
-10480 -1521 0
-240 -10480 241 0
240 -10480 -241 0
-11760 1521 0
-10640 -1681 0
-400 -10640 401 0
400 -10640 -401 0
-11920 1681 0
-10800 -1841 0
-560 -10800 561 0
560 -10800 -561 0
-12080 1841 0
-10960 -2001 0
-720 -10960 721 0
720 -10960 -721 0
-12240 2001 0
-11120 -2161 0
-880 -11120 881 0
880 -11120 -881 0
-12400 2161 0
-11280 -2321 0
-1040 -11280 1041 0
1040 -11280 -1041 0
-12560 2321 0
-240 -11760 -241 0
240 -11760 241 0
-400 -11920 -401 0
400 -11920 401 0
-560 -12080 -561 0
560 -12080 561 0
-720 -12240 -721 0
720 -12240 721 0
-880 -12400 -881 0
880 -12400 881 0
-1040 -12560 -1041 0
1040 -12560 1041 0
-1200 -12720 -1201 0
1200 -12720 1201 0
14161 -81 82 0
14161 81 -82 0
14161 -1361 1362 0
14161 1361 -1362 0
14321 -241 242 0
14321 241 -242 0
14321 -1521 1522 0
14321 1521 -1522 0
14481 -401 402 0
14481 401 -402 0
14481 -1681 1682 0
14481 1681 -1682 0
14641 -561 562 0
14641 561 -562 0
14641 -1841 1842 0
14641 1841 -1842 0
14801 -721 722 0
14801 721 -722 0
14801 -2001 2002 0
14801 2001 -2002 0
14961 -881 882 0
14961 881 -882 0
14961 -2161 2162 0
14961 2161 -2162 0
15121 -1041 1042 0
15121 1041 -1042 0
15121 -2321 2322 0
15121 2321 -2322 0
15281 -1201 1202 0
15281 1201 -1202 0
15281 -2481 2482 0
15281 2481 -2482 0
-81 -10321 -82 0
81 -10321 82 0
-10481 -1522 0
-241 -10481 242 0
241 -10481 -242 0
-11761 1522 0
-10641 -1682 0
-401 -10641 402 0
401 -10641 -402 0
-11921 1682 0
-10801 -1842 0
-561 -10801 562 0
561 -10801 -562 0
-12081 1842 0
-10961 -2002 0
-721 -10961 722 0
721 -10961 -722 0
-12241 2002 0
-11121 -2162 0
-881 -11121 882 0
881 -11121 -882 0
-12401 2162 0
-11281 -2322 0
-1041 -11281 1042 0
1041 -11281 -1042 0
-12561 2322 0
-241 -11761 -242 0
241 -11761 242 0
-401 -11921 -402 0
401 -11921 402 0
-561 -12081 -562 0
561 -12081 562 0
-721 -12241 -722 0
721 -12241 722 0
-881 -12401 -882 0
881 -12401 882 0
-1041 -12561 -1042 0
1041 -12561 1042 0
-1201 -12721 -1202 0
1201 -12721 1202 0
14162 -82 83 0
14162 82 -83 0
14162 -1362 1363 0
14162 1362 -1363 0
14322 -242 243 0
14322 242 -243 0
14322 -1522 1523 0
14322 1522 -1523 0
14482 -402 403 0
14482 402 -403 0
14482 -1682 1683 0
14482 1682 -1683 0
14642 -562 563 0
14642 562 -563 0
14642 -1842 1843 0
14642 1842 -1843 0
14802 -722 723 0
14802 722 -723 0
14802 -2002 2003 0
14802 2002 -2003 0
14962 -882 883 0
14962 882 -883 0
14962 -2162 2163 0
14962 2162 -2163 0
15122 -1042 1043 0
15122 1042 -1043 0
15122 -2322 2323 0
15122 2322 -2323 0
15282 -1202 1203 0
15282 1202 -1203 0
15282 -2482 2483 0
15282 2482 -2483 0
-82 -10322 -83 0
82 -10322 83 0
-10482 -1523 0
-242 -10482 243 0
242 -10482 -243 0
-11762 1523 0
-10642 -1683 0
-402 -10642 403 0
402 -10642 -403 0
-11922 1683 0
-10802 -1843 0
-562 -10802 563 0
562 -10802 -563 0
-12082 1843 0
-10962 -2003 0
-722 -10962 723 0
722 -10962 -723 0
-12242 2003 0
-11122 -2163 0
-882 -11122 883 0
882 -11122 -883 0
-12402 2163 0
-11282 -2323 0
-1042 -11282 1043 0
1042 -11282 -1043 0
-12562 2323 0
-242 -11762 -243 0
242 -11762 243 0
-402 -11922 -403 0
402 -11922 403 0
-562 -12082 -563 0
562 -12082 563 0
-722 -12242 -723 0
722 -12242 723 0
-882 -12402 -883 0
882 -12402 883 0
-1042 -12562 -1043 0
1042 -12562 1043 0
-1202 -12722 -1203 0
1202 -12722 1203 0
14163 -83 84 0
14163 83 -84 0
14163 -1363 1364 0
14163 1363 -1364 0
14323 -243 244 0
14323 243 -244 0
14323 -1523 1524 0
14323 1523 -1524 0
14483 -403 404 0
14483 403 -404 0
14483 -1683 1684 0
14483 1683 -1684 0
14643 -563 564 0
14643 563 -564 0
14643 -1843 1844 0
14643 1843 -1844 0
14803 -723 724 0
14803 723 -724 0
14803 -2003 2004 0
14803 2003 -2004 0
14963 -883 884 0
14963 883 -884 0
14963 -2163 2164 0
14963 2163 -2164 0
15123 -1043 1044 0
15123 1043 -1044 0
15123 -2323 2324 0
15123 2323 -2324 0
15283 -1203 1204 0
15283 1203 -1204 0
15283 -2483 2484 0
15283 2483 -2484 0
-83 -10323 -84 0
83 -10323 84 0
-10483 -1524 0
-243 -10483 244 0
243 -10483 -244 0
-11763 1524 0
-10643 -1684 0
-403 -10643 404 0
403 -10643 -404 0
-11923 1684 0
-10803 -1844 0
-563 -10803 564 0
563 -10803 -564 0
-12083 1844 0
-10963 -2004 0
-723 -10963 724 0
723 -10963 -724 0
-12243 2004 0
-11123 -2164 0
-883 -11123 884 0
883 -11123 -884 0
-12403 2164 0
-11283 -2324 0
-1043 -11283 1044 0
1043 -11283 -1044 0
-12563 2324 0
-243 -11763 -244 0
243 -11763 244 0
-403 -11923 -404 0
403 -11923 404 0
-563 -12083 -564 0
563 -12083 564 0
-723 -12243 -724 0
723 -12243 724 0
-883 -12403 -884 0
883 -12403 884 0
-1043 -12563 -1044 0
1043 -12563 1044 0
-1203 -12723 -1204 0
1203 -12723 1204 0
14164 -84 85 0
14164 84 -85 0
14164 -1364 1365 0
14164 1364 -1365 0
14324 -244 245 0
14324 244 -245 0
14324 -1524 1525 0
14324 1524 -1525 0
14484 -404 405 0
14484 404 -405 0
14484 -1684 1685 0
14484 1684 -1685 0
14644 -564 565 0
14644 564 -565 0
14644 -1844 1845 0
14644 1844 -1845 0
14804 -724 725 0
14804 724 -725 0
14804 -2004 2005 0
14804 2004 -2005 0
14964 -884 885 0
14964 884 -885 0
14964 -2164 2165 0
14964 2164 -2165 0
15124 -1044 1045 0
15124 1044 -1045 0
15124 -2324 2325 0
15124 2324 -2325 0
15284 -1204 1205 0
15284 1204 -1205 0
15284 -2484 2485 0
15284 2484 -2485 0
-84 -10324 -85 0
84 -10324 85 0
-10484 -1525 0
-244 -10484 245 0
244 -10484 -245 0
-11764 1525 0
-10644 -1685 0
-404 -10644 405 0
404 -10644 -405 0
-11924 1685 0
-10804 -1845 0
-564 -10804 565 0
564 -10804 -565 0
-12084 1845 0
-10964 -2005 0
-724 -10964 725 0
724 -10964 -725 0
-12244 2005 0
-11124 -2165 0
-884 -11124 885 0
884 -11124 -885 0
-12404 2165 0
-11284 -2325 0
-1044 -11284 1045 0
1044 -11284 -1045 0
-12564 2325 0
-244 -11764 -245 0
244 -11764 245 0
-404 -11924 -405 0
404 -11924 405 0
-564 -12084 -565 0
564 -12084 565 0
-724 -12244 -725 0
724 -12244 725 0
-884 -12404 -885 0
884 -12404 885 0
-1044 -12564 -1045 0
1044 -12564 1045 0
-1204 -12724 -1205 0
1204 -12724 1205 0
14165 -85 86 0
14165 85 -86 0
14165 -1365 1366 0
14165 1365 -1366 0
14325 -245 246 0
14325 245 -246 0
14325 -1525 1526 0
14325 1525 -1526 0
14485 -405 406 0
14485 405 -406 0
14485 -1685 1686 0
14485 1685 -1686 0
14645 -565 566 0
14645 565 -566 0
14645 -1845 1846 0
14645 1845 -1846 0
14805 -725 726 0
14805 725 -726 0
14805 -2005 2006 0
14805 2005 -2006 0
14965 -885 886 0
14965 885 -886 0
14965 -2165 2166 0
14965 2165 -2166 0
15125 -1045 1046 0
15125 1045 -1046 0
15125 -2325 2326 0
15125 2325 -2326 0
15285 -1205 1206 0
15285 1205 -1206 0
15285 -2485 2486 0
15285 2485 -2486 0
-85 -10325 -86 0
85 -10325 86 0
-10485 -1526 0
-245 -10485 246 0
245 -10485 -246 0
-11765 1526 0
-10645 -1686 0
-405 -10645 406 0
405 -10645 -406 0
-11925 1686 0
-10805 -1846 0
-565 -10805 566 0
565 -10805 -566 0
-12085 1846 0
-10965 -2006 0
-725 -10965 726 0
725 -10965 -726 0
-12245 2006 0
-11125 -2166 0
-885 -11125 886 0
885 -11125 -886 0
-12405 2166 0
-11285 -2326 0
-1045 -11285 1046 0
1045 -11285 -1046 0
-12565 2326 0
-245 -11765 -246 0
245 -11765 246 0
-405 -11925 -406 0
405 -11925 406 0
-565 -12085 -566 0
565 -12085 566 0
-725 -12245 -726 0
725 -12245 726 0
-885 -12405 -886 0
885 -12405 886 0
-1045 -12565 -1046 0
1045 -12565 1046 0
-1205 -12725 -1206 0
1205 -12725 1206 0
14166 -86 87 0
14166 86 -87 0
14166 -1366 1367 0
14166 1366 -1367 0
14326 -246 247 0
14326 246 -247 0
14326 -1526 1527 0
14326 1526 -1527 0
14486 -406 407 0
14486 406 -407 0
14486 -1686 1687 0
14486 1686 -1687 0
14646 -566 567 0
14646 566 -567 0
14646 -1846 1847 0
14646 1846 -1847 0
14806 -726 727 0
14806 726 -727 0
14806 -2006 2007 0
14806 2006 -2007 0
14966 -886 887 0
14966 886 -887 0
14966 -2166 2167 0
14966 2166 -2167 0
15126 -1046 1047 0
15126 1046 -1047 0
15126 -2326 2327 0
15126 2326 -2327 0
15286 -1206 1207 0
15286 1206 -1207 0
15286 -2486 2487 0
15286 2486 -2487 0
-86 -10326 -87 0
86 -10326 87 0
-10486 -1527 0
-246 -10486 247 0
246 -10486 -247 0
-11766 1527 0
-10646 -1687 0
-406 -10646 407 0
406 -10646 -407 0
-11926 1687 0
-10806 -1847 0
-566 -10806 567 0
566 -10806 -567 0
-12086 1847 0
-10966 -2007 0
-726 -10966 727 0
726 -10966 -727 0
-12246 2007 0
-11126 -2167 0
-886 -11126 887 0
886 -11126 -887 0
-12406 2167 0
-11286 -2327 0
-1046 -11286 1047 0
1046 -11286 -1047 0
-12566 2327 0
-246 -11766 -247 0
246 -11766 247 0
-406 -11926 -407 0
406 -11926 407 0
-566 -12086 -567 0
566 -12086 567 0
-726 -12246 -727 0
726 -12246 727 0
-886 -12406 -887 0
886 -12406 887 0
-1046 -12566 -1047 0
1046 -12566 1047 0
-1206 -12726 -1207 0
1206 -12726 1207 0
14167 -87 88 0
14167 87 -88 0
14167 -1367 1368 0
14167 1367 -1368 0
14327 -247 248 0
14327 247 -248 0
14327 -1527 1528 0
14327 1527 -1528 0
14487 -407 408 0
14487 407 -408 0
14487 -1687 1688 0
14487 1687 -1688 0
14647 -567 568 0
14647 567 -568 0
14647 -1847 1848 0
14647 1847 -1848 0
14807 -727 728 0
14807 727 -728 0
14807 -2007 2008 0
14807 2007 -2008 0
14967 -887 888 0
14967 887 -888 0
14967 -2167 2168 0
14967 2167 -2168 0
15127 -1047 1048 0
15127 1047 -1048 0
15127 -2327 2328 0
15127 2327 -2328 0
15287 -1207 1208 0
15287 1207 -1208 0
15287 -2487 2488 0
15287 2487 -2488 0
-87 -10327 -88 0
87 -10327 88 0
-10487 -1528 0
-247 -10487 248 0
247 -10487 -248 0
-11767 1528 0
-10647 -1688 0
-407 -10647 408 0
407 -10647 -408 0
-11927 1688 0
-10807 -1848 0
-567 -10807 568 0
567 -10807 -568 0
-12087 1848 0
-10967 -2008 0
-727 -10967 728 0
727 -10967 -728 0
-12247 2008 0
-11127 -2168 0
-887 -11127 888 0
887 -11127 -888 0
-12407 2168 0
-11287 -2328 0
-1047 -11287 1048 0
1047 -11287 -1048 0
-12567 2328 0
-247 -11767 -248 0
247 -11767 248 0
-407 -11927 -408 0
407 -11927 408 0
-567 -12087 -568 0
567 -12087 568 0
-727 -12247 -728 0
727 -12247 728 0
-887 -12407 -888 0
887 -12407 888 0
-1047 -12567 -1048 0
1047 -12567 1048 0
-1207 -12727 -1208 0
1207 -12727 1208 0
14168 -88 89 0
14168 88 -89 0
14168 -1368 1369 0
14168 1368 -1369 0
14328 -248 249 0
14328 248 -249 0
14328 -1528 1529 0
14328 1528 -1529 0
14488 -408 409 0
14488 408 -409 0
14488 -1688 1689 0
14488 1688 -1689 0
14648 -568 569 0
14648 568 -569 0
14648 -1848 1849 0
14648 1848 -1849 0
14808 -728 729 0
14808 728 -729 0
14808 -2008 2009 0
14808 2008 -2009 0
14968 -888 889 0
14968 888 -889 0
14968 -2168 2169 0
14968 2168 -2169 0
15128 -1048 1049 0
15128 1048 -1049 0
15128 -2328 2329 0
15128 2328 -2329 0
15288 -1208 1209 0
15288 1208 -1209 0
15288 -2488 2489 0
15288 2488 -2489 0
-88 -10328 -89 0
88 -10328 89 0
-10488 -1529 0
-248 -10488 249 0
248 -10488 -249 0
-11768 1529 0
-10648 -1689 0
-408 -10648 409 0
408 -10648 -409 0
-11928 1689 0
-10808 -1849 0
-568 -10808 569 0
568 -10808 -569 0
-12088 1849 0
-10968 -2009 0
-728 -10968 729 0
728 -10968 -729 0
-12248 2009 0
-11128 -2169 0
-888 -11128 889 0
888 -11128 -889 0
-12408 2169 0
-11288 -2329 0
-1048 -11288 1049 0
1048 -11288 -1049 0
-12568 2329 0
-248 -11768 -249 0
248 -11768 249 0
-408 -11928 -409 0
408 -11928 409 0
-568 -12088 -569 0
568 -12088 569 0
-728 -12248 -729 0
728 -12248 729 0
-888 -12408 -889 0
888 -12408 889 0
-1048 -12568 -1049 0
1048 -12568 1049 0
-1208 -12728 -1209 0
1208 -12728 1209 0
14169 -89 90 0
14169 89 -90 0
14169 -1369 1370 0
14169 1369 -1370 0
14329 -249 250 0
14329 249 -250 0
14329 -1529 1530 0
14329 1529 -1530 0
14489 -409 410 0
14489 409 -410 0
14489 -1689 1690 0
14489 1689 -1690 0
14649 -569 570 0
14649 569 -570 0
14649 -1849 1850 0
14649 1849 -1850 0
14809 -729 730 0
14809 729 -730 0
14809 -2009 2010 0
14809 2009 -2010 0
14969 -889 890 0
14969 889 -890 0
14969 -2169 2170 0
14969 2169 -2170 0
15129 -1049 1050 0
15129 1049 -1050 0
15129 -2329 2330 0
15129 2329 -2330 0
15289 -1209 1210 0
15289 1209 -1210 0
15289 -2489 2490 0
15289 2489 -2490 0
-89 -10329 -90 0
89 -10329 90 0
-10489 -1530 0
-249 -10489 250 0
249 -10489 -250 0
-11769 1530 0
-10649 -1690 0
-409 -10649 410 0
409 -10649 -410 0
-11929 1690 0
-10809 -1850 0
-569 -10809 570 0
569 -10809 -570 0
-12089 1850 0
-10969 -2010 0
-729 -10969 730 0
729 -10969 -730 0
-12249 2010 0
-11129 -2170 0
-889 -11129 890 0
889 -11129 -890 0
-12409 2170 0
-11289 -2330 0
-1049 -11289 1050 0
1049 -11289 -1050 0
-12569 2330 0
-249 -11769 -250 0
249 -11769 250 0
-409 -11929 -410 0
409 -11929 410 0
-569 -12089 -570 0
569 -12089 570 0
-729 -12249 -730 0
729 -12249 730 0
-889 -12409 -890 0
889 -12409 890 0
-1049 -12569 -1050 0
1049 -12569 1050 0
-1209 -12729 -1210 0
1209 -12729 1210 0
14170 -90 91 0
14170 90 -91 0
14170 -1370 1371 0
14170 1370 -1371 0
14330 -250 251 0
14330 250 -251 0
14330 -1530 1531 0
14330 1530 -1531 0
14490 -410 411 0
14490 410 -411 0
14490 -1690 1691 0
14490 1690 -1691 0
14650 -570 571 0
14650 570 -571 0
14650 -1850 1851 0
14650 1850 -1851 0
14810 -730 731 0
14810 730 -731 0
14810 -2010 2011 0
14810 2010 -2011 0
14970 -890 891 0
14970 890 -891 0
14970 -2170 2171 0
14970 2170 -2171 0
15130 -1050 1051 0
15130 1050 -1051 0
15130 -2330 2331 0
15130 2330 -2331 0
15290 -1210 1211 0
15290 1210 -1211 0
15290 -2490 2491 0
15290 2490 -2491 0
-90 -10330 -91 0
90 -10330 91 0
-10490 -1531 0
-250 -10490 251 0
250 -10490 -251 0
-11770 1531 0
-10650 -1691 0
-410 -10650 411 0
410 -10650 -411 0
-11930 1691 0
-10810 -1851 0
-570 -10810 571 0
570 -10810 -571 0
-12090 1851 0
-10970 -2011 0
-730 -10970 731 0
730 -10970 -731 0
-12250 2011 0
-11130 -2171 0
-890 -11130 891 0
890 -11130 -891 0
-12410 2171 0
-11290 -2331 0
-1050 -11290 1051 0
1050 -11290 -1051 0
-12570 2331 0
-250 -11770 -251 0
250 -11770 251 0
-410 -11930 -411 0
410 -11930 411 0
-570 -12090 -571 0
570 -12090 571 0
-730 -12250 -731 0
730 -12250 731 0
-890 -12410 -891 0
890 -12410 891 0
-1050 -12570 -1051 0
1050 -12570 1051 0
-1210 -12730 -1211 0
1210 -12730 1211 0
14171 -91 92 0
14171 91 -92 0
14171 -1371 1372 0
14171 1371 -1372 0
14331 -251 252 0
14331 251 -252 0
14331 -1531 1532 0
14331 1531 -1532 0
14491 -411 412 0
14491 411 -412 0
14491 -1691 1692 0
14491 1691 -1692 0
14651 -571 572 0
14651 571 -572 0
14651 -1851 1852 0
14651 1851 -1852 0
14811 -731 732 0
14811 731 -732 0
14811 -2011 2012 0
14811 2011 -2012 0
14971 -891 892 0
14971 891 -892 0
14971 -2171 2172 0
14971 2171 -2172 0
15131 -1051 1052 0
15131 1051 -1052 0
15131 -2331 2332 0
15131 2331 -2332 0
15291 -1211 1212 0
15291 1211 -1212 0
15291 -2491 2492 0
15291 2491 -2492 0
-91 -10331 -92 0
91 -10331 92 0
-10491 -1532 0
-251 -10491 252 0
251 -10491 -252 0
-11771 1532 0
-10651 -1692 0
-411 -10651 412 0
411 -10651 -412 0
-11931 1692 0
-10811 -1852 0
-571 -10811 572 0
571 -10811 -572 0
-12091 1852 0
-10971 -2012 0
-731 -10971 732 0
731 -10971 -732 0
-12251 2012 0
-11131 -2172 0
-891 -11131 892 0
891 -11131 -892 0
-12411 2172 0
-11291 -2332 0
-1051 -11291 1052 0
1051 -11291 -1052 0
-12571 2332 0
-251 -11771 -252 0
251 -11771 252 0
-411 -11931 -412 0
411 -11931 412 0
-571 -12091 -572 0
571 -12091 572 0
-731 -12251 -732 0
731 -12251 732 0
-891 -12411 -892 0
891 -12411 892 0
-1051 -12571 -1052 0
1051 -12571 1052 0
-1211 -12731 -1212 0
1211 -12731 1212 0
14172 -92 93 0
14172 92 -93 0
14172 -1372 1373 0
14172 1372 -1373 0
14332 -252 253 0
14332 252 -253 0
14332 -1532 1533 0
14332 1532 -1533 0
14492 -412 413 0
14492 412 -413 0
14492 -1692 1693 0
14492 1692 -1693 0
14652 -572 573 0
14652 572 -573 0
14652 -1852 1853 0
14652 1852 -1853 0
14812 -732 733 0
14812 732 -733 0
14812 -2012 2013 0
14812 2012 -2013 0
14972 -892 893 0
14972 892 -893 0
14972 -2172 2173 0
14972 2172 -2173 0
15132 -1052 1053 0
15132 1052 -1053 0
15132 -2332 2333 0
15132 2332 -2333 0
15292 -1212 1213 0
15292 1212 -1213 0
15292 -2492 2493 0
15292 2492 -2493 0
-92 -10332 -93 0
92 -10332 93 0
-10492 -1533 0
-252 -10492 253 0
252 -10492 -253 0
-11772 1533 0
-10652 -1693 0
-412 -10652 413 0
412 -10652 -413 0
-11932 1693 0
-10812 -1853 0
-572 -10812 573 0
572 -10812 -573 0
-12092 1853 0
-10972 -2013 0
-732 -10972 733 0
732 -10972 -733 0
-12252 2013 0
-11132 -2173 0
-892 -11132 893 0
892 -11132 -893 0
-12412 2173 0
-11292 -2333 0
-1052 -11292 1053 0
1052 -11292 -1053 0
-12572 2333 0
-252 -11772 -253 0
252 -11772 253 0
-412 -11932 -413 0
412 -11932 413 0
-572 -12092 -573 0
572 -12092 573 0
-732 -12252 -733 0
732 -12252 733 0
-892 -12412 -893 0
892 -12412 893 0
-1052 -12572 -1053 0
1052 -12572 1053 0
-1212 -12732 -1213 0
1212 -12732 1213 0
14173 -93 94 0
14173 93 -94 0
14173 -1373 1374 0
14173 1373 -1374 0
14333 -253 254 0
14333 253 -254 0
14333 -1533 1534 0
14333 1533 -1534 0
14493 -413 414 0
14493 413 -414 0
14493 -1693 1694 0
14493 1693 -1694 0
14653 -573 574 0
14653 573 -574 0
14653 -1853 1854 0
14653 1853 -1854 0
14813 -733 734 0
14813 733 -734 0
14813 -2013 2014 0
14813 2013 -2014 0
14973 -893 894 0
14973 893 -894 0
14973 -2173 2174 0
14973 2173 -2174 0
15133 -1053 1054 0
15133 1053 -1054 0
15133 -2333 2334 0
15133 2333 -2334 0
15293 -1213 1214 0
15293 1213 -1214 0
15293 -2493 2494 0
15293 2493 -2494 0
-93 -10333 -94 0
93 -10333 94 0
-10493 -1534 0
-253 -10493 254 0
253 -10493 -254 0
-11773 1534 0
-10653 -1694 0
-413 -10653 414 0
413 -10653 -414 0
-11933 1694 0
-10813 -1854 0
-573 -10813 574 0
573 -10813 -574 0
-12093 1854 0
-10973 -2014 0
-733 -10973 734 0
733 -10973 -734 0
-12253 2014 0
-11133 -2174 0
-893 -11133 894 0
893 -11133 -894 0
-12413 2174 0
-11293 -2334 0
-1053 -11293 1054 0
1053 -11293 -1054 0
-12573 2334 0
-253 -11773 -254 0
253 -11773 254 0
-413 -11933 -414 0
413 -11933 414 0
-573 -12093 -574 0
573 -12093 574 0
-733 -12253 -734 0
733 -12253 734 0
-893 -12413 -894 0
893 -12413 894 0
-1053 -12573 -1054 0
1053 -12573 1054 0
-1213 -12733 -1214 0
1213 -12733 1214 0
14174 -94 95 0
14174 94 -95 0
14174 -1374 1375 0
14174 1374 -1375 0
14334 -254 255 0
14334 254 -255 0
14334 -1534 1535 0
14334 1534 -1535 0
14494 -414 415 0
14494 414 -415 0
14494 -1694 1695 0
14494 1694 -1695 0
14654 -574 575 0
14654 574 -575 0
14654 -1854 1855 0
14654 1854 -1855 0
14814 -734 735 0
14814 734 -735 0
14814 -2014 2015 0
14814 2014 -2015 0
14974 -894 895 0
14974 894 -895 0
14974 -2174 2175 0
14974 2174 -2175 0
15134 -1054 1055 0
15134 1054 -1055 0
15134 -2334 2335 0
15134 2334 -2335 0
15294 -1214 1215 0
15294 1214 -1215 0
15294 -2494 2495 0
15294 2494 -2495 0
-94 -10334 -95 0
94 -10334 95 0
-10494 -1535 0
-254 -10494 255 0
254 -10494 -255 0
-11774 1535 0
-10654 -1695 0
-414 -10654 415 0
414 -10654 -415 0
-11934 1695 0
-10814 -1855 0
-574 -10814 575 0
574 -10814 -575 0
-12094 1855 0
-10974 -2015 0
-734 -10974 735 0
734 -10974 -735 0
-12254 2015 0
-11134 -2175 0
-894 -11134 895 0
894 -11134 -895 0
-12414 2175 0
-11294 -2335 0
-1054 -11294 1055 0
1054 -11294 -1055 0
-12574 2335 0
-254 -11774 -255 0
254 -11774 255 0
-414 -11934 -415 0
414 -11934 415 0
-574 -12094 -575 0
574 -12094 575 0
-734 -12254 -735 0
734 -12254 735 0
-894 -12414 -895 0
894 -12414 895 0
-1054 -12574 -1055 0
1054 -12574 1055 0
-1214 -12734 -1215 0
1214 -12734 1215 0
14175 -95 96 0
14175 95 -96 0
14175 -1375 1376 0
14175 1375 -1376 0
14335 -255 256 0
14335 255 -256 0
14335 -1535 1536 0
14335 1535 -1536 0
14495 -415 416 0
14495 415 -416 0
14495 -1695 1696 0
14495 1695 -1696 0
14655 -575 576 0
14655 575 -576 0
14655 -1855 1856 0
14655 1855 -1856 0
14815 -735 736 0
14815 735 -736 0
14815 -2015 2016 0
14815 2015 -2016 0
14975 -895 896 0
14975 895 -896 0
14975 -2175 2176 0
14975 2175 -2176 0
15135 -1055 1056 0
15135 1055 -1056 0
15135 -2335 2336 0
15135 2335 -2336 0
15295 -1215 1216 0
15295 1215 -1216 0
15295 -2495 2496 0
15295 2495 -2496 0
-95 -10335 -96 0
95 -10335 96 0
-10495 -1536 0
-255 -10495 256 0
255 -10495 -256 0
-11775 1536 0
-10655 -1696 0
-415 -10655 416 0
415 -10655 -416 0
-11935 1696 0
-10815 -1856 0
-575 -10815 576 0
575 -10815 -576 0
-12095 1856 0
-10975 -2016 0
-735 -10975 736 0
735 -10975 -736 0
-12255 2016 0
-11135 -2176 0
-895 -11135 896 0
895 -11135 -896 0
-12415 2176 0
-11295 -2336 0
-1055 -11295 1056 0
1055 -11295 -1056 0
-12575 2336 0
-255 -11775 -256 0
255 -11775 256 0
-415 -11935 -416 0
415 -11935 416 0
-575 -12095 -576 0
575 -12095 576 0
-735 -12255 -736 0
735 -12255 736 0
-895 -12415 -896 0
895 -12415 896 0
-1055 -12575 -1056 0
1055 -12575 1056 0
-1215 -12735 -1216 0
1215 -12735 1216 0
14176 -96 97 0
14176 96 -97 0
14176 -1376 1377 0
14176 1376 -1377 0
14336 -256 257 0
14336 256 -257 0
14336 -1536 1537 0
14336 1536 -1537 0
14496 -416 417 0
14496 416 -417 0
14496 -1696 1697 0
14496 1696 -1697 0
14656 -576 577 0
14656 576 -577 0
14656 -1856 1857 0
14656 1856 -1857 0
14816 -736 737 0
14816 736 -737 0
14816 -2016 2017 0
14816 2016 -2017 0
14976 -896 897 0
14976 896 -897 0
14976 -2176 2177 0
14976 2176 -2177 0
15136 -1056 1057 0
15136 1056 -1057 0
15136 -2336 2337 0
15136 2336 -2337 0
15296 -1216 1217 0
15296 1216 -1217 0
15296 -2496 2497 0
15296 2496 -2497 0
-96 -10336 -97 0
96 -10336 97 0
-10496 -1537 0
-256 -10496 257 0
256 -10496 -257 0
-11776 1537 0
-10656 -1697 0
-416 -10656 417 0
416 -10656 -417 0
-11936 1697 0
-10816 -1857 0
-576 -10816 577 0
576 -10816 -577 0
-12096 1857 0
-10976 -2017 0
-736 -10976 737 0
736 -10976 -737 0
-12256 2017 0
-11136 -2177 0
-896 -11136 897 0
896 -11136 -897 0
-12416 2177 0
-11296 -2337 0
-1056 -11296 1057 0
1056 -11296 -1057 0
-12576 2337 0
-256 -11776 -257 0
256 -11776 257 0
-416 -11936 -417 0
416 -11936 417 0
-576 -12096 -577 0
576 -12096 577 0
-736 -12256 -737 0
736 -12256 737 0
-896 -12416 -897 0
896 -12416 897 0
-1056 -12576 -1057 0
1056 -12576 1057 0
-1216 -12736 -1217 0
1216 -12736 1217 0
14177 -97 98 0
14177 97 -98 0
14177 -1377 1378 0
14177 1377 -1378 0
14337 -257 258 0
14337 257 -258 0
14337 -1537 1538 0
14337 1537 -1538 0
14497 -417 418 0
14497 417 -418 0
14497 -1697 1698 0
14497 1697 -1698 0
14657 -577 578 0
14657 577 -578 0
14657 -1857 1858 0
14657 1857 -1858 0
14817 -737 738 0
14817 737 -738 0
14817 -2017 2018 0
14817 2017 -2018 0
14977 -897 898 0
14977 897 -898 0
14977 -2177 2178 0
14977 2177 -2178 0
15137 -1057 1058 0
15137 1057 -1058 0
15137 -2337 2338 0
15137 2337 -2338 0
15297 -1217 1218 0
15297 1217 -1218 0
15297 -2497 2498 0
15297 2497 -2498 0
-97 -10337 -98 0
97 -10337 98 0
-10497 -1538 0
-257 -10497 258 0
257 -10497 -258 0
-11777 1538 0
-10657 -1698 0
-417 -10657 418 0
417 -10657 -418 0
-11937 1698 0
-10817 -1858 0
-577 -10817 578 0
577 -10817 -578 0
-12097 1858 0
-10977 -2018 0
-737 -10977 738 0
737 -10977 -738 0
-12257 2018 0
-11137 -2178 0
-897 -11137 898 0
897 -11137 -898 0
-12417 2178 0
-11297 -2338 0
-1057 -11297 1058 0
1057 -11297 -1058 0
-12577 2338 0
-257 -11777 -258 0
257 -11777 258 0
-417 -11937 -418 0
417 -11937 418 0
-577 -12097 -578 0
577 -12097 578 0
-737 -12257 -738 0
737 -12257 738 0
-897 -12417 -898 0
897 -12417 898 0
-1057 -12577 -1058 0
1057 -12577 1058 0
-1217 -12737 -1218 0
1217 -12737 1218 0
14178 -98 99 0
14178 98 -99 0
14178 -1378 1379 0
14178 1378 -1379 0
14338 -258 259 0
14338 258 -259 0
14338 -1538 1539 0
14338 1538 -1539 0
14498 -418 419 0
14498 418 -419 0
14498 -1698 1699 0
14498 1698 -1699 0
14658 -578 579 0
14658 578 -579 0
14658 -1858 1859 0
14658 1858 -1859 0
14818 -738 739 0
14818 738 -739 0
14818 -2018 2019 0
14818 2018 -2019 0
14978 -898 899 0
14978 898 -899 0
14978 -2178 2179 0
14978 2178 -2179 0
15138 -1058 1059 0
15138 1058 -1059 0
15138 -2338 2339 0
15138 2338 -2339 0
15298 -1218 1219 0
15298 1218 -1219 0
15298 -2498 2499 0
15298 2498 -2499 0
-98 -10338 -99 0
98 -10338 99 0
-10498 -1539 0
-258 -10498 259 0
258 -10498 -259 0
-11778 1539 0
-10658 -1699 0
-418 -10658 419 0
418 -10658 -419 0
-11938 1699 0
-10818 -1859 0
-578 -10818 579 0
578 -10818 -579 0
-12098 1859 0
-10978 -2019 0
-738 -10978 739 0
738 -10978 -739 0
-12258 2019 0
-11138 -2179 0
-898 -11138 899 0
898 -11138 -899 0
-12418 2179 0
-11298 -2339 0
-1058 -11298 1059 0
1058 -11298 -1059 0
-12578 2339 0
-258 -11778 -259 0
258 -11778 259 0
-418 -11938 -419 0
418 -11938 419 0
-578 -12098 -579 0
578 -12098 579 0
-738 -12258 -739 0
738 -12258 739 0
-898 -12418 -899 0
898 -12418 899 0
-1058 -12578 -1059 0
1058 -12578 1059 0
-1218 -12738 -1219 0
1218 -12738 1219 0
14179 -99 100 0
14179 99 -100 0
14179 -1379 1380 0
14179 1379 -1380 0
14339 -259 260 0
14339 259 -260 0
14339 -1539 1540 0
14339 1539 -1540 0
14499 -419 420 0
14499 419 -420 0
14499 -1699 1700 0
14499 1699 -1700 0
14659 -579 580 0
14659 579 -580 0
14659 -1859 1860 0
14659 1859 -1860 0
14819 -739 740 0
14819 739 -740 0
14819 -2019 2020 0
14819 2019 -2020 0
14979 -899 900 0
14979 899 -900 0
14979 -2179 2180 0
14979 2179 -2180 0
15139 -1059 1060 0
15139 1059 -1060 0
15139 -2339 2340 0
15139 2339 -2340 0
15299 -1219 1220 0
15299 1219 -1220 0
15299 -2499 2500 0
15299 2499 -2500 0
-99 -10339 -100 0
99 -10339 100 0
-10499 -1540 0
-259 -10499 260 0
259 -10499 -260 0
-11779 1540 0
-10659 -1700 0
-419 -10659 420 0
419 -10659 -420 0
-11939 1700 0
-10819 -1860 0
-579 -10819 580 0
579 -10819 -580 0
-12099 1860 0
-10979 -2020 0
-739 -10979 740 0
739 -10979 -740 0
-12259 2020 0
-11139 -2180 0
-899 -11139 900 0
899 -11139 -900 0
-12419 2180 0
-11299 -2340 0
-1059 -11299 1060 0
1059 -11299 -1060 0
-12579 2340 0
-259 -11779 -260 0
259 -11779 260 0
-419 -11939 -420 0
419 -11939 420 0
-579 -12099 -580 0
579 -12099 580 0
-739 -12259 -740 0
739 -12259 740 0
-899 -12419 -900 0
899 -12419 900 0
-1059 -12579 -1060 0
1059 -12579 1060 0
-1219 -12739 -1220 0
1219 -12739 1220 0
14180 -100 101 0
14180 100 -101 0
14180 -1380 1381 0
14180 1380 -1381 0
14340 -260 261 0
14340 260 -261 0
14340 -1540 1541 0
14340 1540 -1541 0
14500 -420 421 0
14500 420 -421 0
14500 -1700 1701 0
14500 1700 -1701 0
14660 -580 581 0
14660 580 -581 0
14660 -1860 1861 0
14660 1860 -1861 0
14820 -740 741 0
14820 740 -741 0
14820 -2020 2021 0
14820 2020 -2021 0
14980 -900 901 0
14980 900 -901 0
14980 -2180 2181 0
14980 2180 -2181 0
15140 -1060 1061 0
15140 1060 -1061 0
15140 -2340 2341 0
15140 2340 -2341 0
15300 -1220 1221 0
15300 1220 -1221 0
15300 -2500 2501 0
15300 2500 -2501 0
-100 -10340 -101 0
100 -10340 101 0
-10500 -1541 0
-260 -10500 261 0
260 -10500 -261 0
-11780 1541 0
-10660 -1701 0
-420 -10660 421 0
420 -10660 -421 0
-11940 1701 0
-10820 -1861 0
-580 -10820 581 0
580 -10820 -581 0
-12100 1861 0
-10980 -2021 0
-740 -10980 741 0
740 -10980 -741 0
-12260 2021 0
-11140 -2181 0
-900 -11140 901 0
900 -11140 -901 0
-12420 2181 0
-11300 -2341 0
-1060 -11300 1061 0
1060 -11300 -1061 0
-12580 2341 0
-260 -11780 -261 0
260 -11780 261 0
-420 -11940 -421 0
420 -11940 421 0
-580 -12100 -581 0
580 -12100 581 0
-740 -12260 -741 0
740 -12260 741 0
-900 -12420 -901 0
900 -12420 901 0
-1060 -12580 -1061 0
1060 -12580 1061 0
-1220 -12740 -1221 0
1220 -12740 1221 0
14181 -101 102 0
14181 101 -102 0
14181 -1381 1382 0
14181 1381 -1382 0
14341 -261 262 0
14341 261 -262 0
14341 -1541 1542 0
14341 1541 -1542 0
14501 -421 422 0
14501 421 -422 0
14501 -1701 1702 0
14501 1701 -1702 0
14661 -581 582 0
14661 581 -582 0
14661 -1861 1862 0
14661 1861 -1862 0
14821 -741 742 0
14821 741 -742 0
14821 -2021 2022 0
14821 2021 -2022 0
14981 -901 902 0
14981 901 -902 0
14981 -2181 2182 0
14981 2181 -2182 0
15141 -1061 1062 0
15141 1061 -1062 0
15141 -2341 2342 0
15141 2341 -2342 0
15301 -1221 1222 0
15301 1221 -1222 0
15301 -2501 2502 0
15301 2501 -2502 0
-101 -10341 -102 0
101 -10341 102 0
-10501 -1542 0
-261 -10501 262 0
261 -10501 -262 0
-11781 1542 0
-10661 -1702 0
-421 -10661 422 0
421 -10661 -422 0
-11941 1702 0
-10821 -1862 0
-581 -10821 582 0
581 -10821 -582 0
-12101 1862 0
-10981 -2022 0
-741 -10981 742 0
741 -10981 -742 0
-12261 2022 0
-11141 -2182 0
-901 -11141 902 0
901 -11141 -902 0
-12421 2182 0
-11301 -2342 0
-1061 -11301 1062 0
1061 -11301 -1062 0
-12581 2342 0
-261 -11781 -262 0
261 -11781 262 0
-421 -11941 -422 0
421 -11941 422 0
-581 -12101 -582 0
581 -12101 582 0
-741 -12261 -742 0
741 -12261 742 0
-901 -12421 -902 0
901 -12421 902 0
-1061 -12581 -1062 0
1061 -12581 1062 0
-1221 -12741 -1222 0
1221 -12741 1222 0
14182 -102 103 0
14182 102 -103 0
14182 -1382 1383 0
14182 1382 -1383 0
14342 -262 263 0
14342 262 -263 0
14342 -1542 1543 0
14342 1542 -1543 0
14502 -422 423 0
14502 422 -423 0
14502 -1702 1703 0
14502 1702 -1703 0
14662 -582 583 0
14662 582 -583 0
14662 -1862 1863 0
14662 1862 -1863 0
14822 -742 743 0
14822 742 -743 0
14822 -2022 2023 0
14822 2022 -2023 0
14982 -902 903 0
14982 902 -903 0
14982 -2182 2183 0
14982 2182 -2183 0
15142 -1062 1063 0
15142 1062 -1063 0
15142 -2342 2343 0
15142 2342 -2343 0
15302 -1222 1223 0
15302 1222 -1223 0
15302 -2502 2503 0
15302 2502 -2503 0
-102 -10342 -103 0
102 -10342 103 0
-10502 -1543 0
-262 -10502 263 0
262 -10502 -263 0
-11782 1543 0
-10662 -1703 0
-422 -10662 423 0
422 -10662 -423 0
-11942 1703 0
-10822 -1863 0
-582 -10822 583 0
582 -10822 -583 0
-12102 1863 0
-10982 -2023 0
-742 -10982 743 0
742 -10982 -743 0
-12262 2023 0
-11142 -2183 0
-902 -11142 903 0
902 -11142 -903 0
-12422 2183 0
-11302 -2343 0
-1062 -11302 1063 0
1062 -11302 -1063 0
-12582 2343 0
-262 -11782 -263 0
262 -11782 263 0
-422 -11942 -423 0
422 -11942 423 0
-582 -12102 -583 0
582 -12102 583 0
-742 -12262 -743 0
742 -12262 743 0
-902 -12422 -903 0
902 -12422 903 0
-1062 -12582 -1063 0
1062 -12582 1063 0
-1222 -12742 -1223 0
1222 -12742 1223 0
14183 -103 104 0
14183 103 -104 0
14183 -1383 1384 0
14183 1383 -1384 0
14343 -263 264 0
14343 263 -264 0
14343 -1543 1544 0
14343 1543 -1544 0
14503 -423 424 0
14503 423 -424 0
14503 -1703 1704 0
14503 1703 -1704 0
14663 -583 584 0
14663 583 -584 0
14663 -1863 1864 0
14663 1863 -1864 0
14823 -743 744 0
14823 743 -744 0
14823 -2023 2024 0
14823 2023 -2024 0
14983 -903 904 0
14983 903 -904 0
14983 -2183 2184 0
14983 2183 -2184 0
15143 -1063 1064 0
15143 1063 -1064 0
15143 -2343 2344 0
15143 2343 -2344 0
15303 -1223 1224 0
15303 1223 -1224 0
15303 -2503 2504 0
15303 2503 -2504 0
-103 -10343 -104 0
103 -10343 104 0
-10503 -1544 0
-263 -10503 264 0
263 -10503 -264 0
-11783 1544 0
-10663 -1704 0
-423 -10663 424 0
423 -10663 -424 0
-11943 1704 0
-10823 -1864 0
-583 -10823 584 0
583 -10823 -584 0
-12103 1864 0
-10983 -2024 0
-743 -10983 744 0
743 -10983 -744 0
-12263 2024 0
-11143 -2184 0
-903 -11143 904 0
903 -11143 -904 0
-12423 2184 0
-11303 -2344 0
-1063 -11303 1064 0
1063 -11303 -1064 0
-12583 2344 0
-263 -11783 -264 0
263 -11783 264 0
-423 -11943 -424 0
423 -11943 424 0
-583 -12103 -584 0
583 -12103 584 0
-743 -12263 -744 0
743 -12263 744 0
-903 -12423 -904 0
903 -12423 904 0
-1063 -12583 -1064 0
1063 -12583 1064 0
-1223 -12743 -1224 0
1223 -12743 1224 0
14184 -104 105 0
14184 104 -105 0
14184 -1384 1385 0
14184 1384 -1385 0
14344 -264 265 0
14344 264 -265 0
14344 -1544 1545 0
14344 1544 -1545 0
14504 -424 425 0
14504 424 -425 0
14504 -1704 1705 0
14504 1704 -1705 0
14664 -584 585 0
14664 584 -585 0
14664 -1864 1865 0
14664 1864 -1865 0
14824 -744 745 0
14824 744 -745 0
14824 -2024 2025 0
14824 2024 -2025 0
14984 -904 905 0
14984 904 -905 0
14984 -2184 2185 0
14984 2184 -2185 0
15144 -1064 1065 0
15144 1064 -1065 0
15144 -2344 2345 0
15144 2344 -2345 0
15304 -1224 1225 0
15304 1224 -1225 0
15304 -2504 2505 0
15304 2504 -2505 0
-104 -10344 -105 0
104 -10344 105 0
-10504 -1545 0
-264 -10504 265 0
264 -10504 -265 0
-11784 1545 0
-10664 -1705 0
-424 -10664 425 0
424 -10664 -425 0
-11944 1705 0
-10824 -1865 0
-584 -10824 585 0
584 -10824 -585 0
-12104 1865 0
-10984 -2025 0
-744 -10984 745 0
744 -10984 -745 0
-12264 2025 0
-11144 -2185 0
-904 -11144 905 0
904 -11144 -905 0
-12424 2185 0
-11304 -2345 0
-1064 -11304 1065 0
1064 -11304 -1065 0
-12584 2345 0
-264 -11784 -265 0
264 -11784 265 0
-424 -11944 -425 0
424 -11944 425 0
-584 -12104 -585 0
584 -12104 585 0
-744 -12264 -745 0
744 -12264 745 0
-904 -12424 -905 0
904 -12424 905 0
-1064 -12584 -1065 0
1064 -12584 1065 0
-1224 -12744 -1225 0
1224 -12744 1225 0
14185 -105 106 0
14185 105 -106 0
14185 -1385 1386 0
14185 1385 -1386 0
14345 -265 266 0
14345 265 -266 0
14345 -1545 1546 0
14345 1545 -1546 0
14505 -425 426 0
14505 425 -426 0
14505 -1705 1706 0
14505 1705 -1706 0
14665 -585 586 0
14665 585 -586 0
14665 -1865 1866 0
14665 1865 -1866 0
14825 -745 746 0
14825 745 -746 0
14825 -2025 2026 0
14825 2025 -2026 0
14985 -905 906 0
14985 905 -906 0
14985 -2185 2186 0
14985 2185 -2186 0
15145 -1065 1066 0
15145 1065 -1066 0
15145 -2345 2346 0
15145 2345 -2346 0
15305 -1225 1226 0
15305 1225 -1226 0
15305 -2505 2506 0
15305 2505 -2506 0
-105 -10345 -106 0
105 -10345 106 0
-10505 -1546 0
-265 -10505 266 0
265 -10505 -266 0
-11785 1546 0
-10665 -1706 0
-425 -10665 426 0
425 -10665 -426 0
-11945 1706 0
-10825 -1866 0
-585 -10825 586 0
585 -10825 -586 0
-12105 1866 0
-10985 -2026 0
-745 -10985 746 0
745 -10985 -746 0
-12265 2026 0
-11145 -2186 0
-905 -11145 906 0
905 -11145 -906 0
-12425 2186 0
-11305 -2346 0
-1065 -11305 1066 0
1065 -11305 -1066 0
-12585 2346 0
-265 -11785 -266 0
265 -11785 266 0
-425 -11945 -426 0
425 -11945 426 0
-585 -12105 -586 0
585 -12105 586 0
-745 -12265 -746 0
745 -12265 746 0
-905 -12425 -906 0
905 -12425 906 0
-1065 -12585 -1066 0
1065 -12585 1066 0
-1225 -12745 -1226 0
1225 -12745 1226 0
14186 -106 107 0
14186 106 -107 0
14186 -1386 1387 0
14186 1386 -1387 0
14346 -266 267 0
14346 266 -267 0
14346 -1546 1547 0
14346 1546 -1547 0
14506 -426 427 0
14506 426 -427 0
14506 -1706 1707 0
14506 1706 -1707 0
14666 -586 587 0
14666 586 -587 0
14666 -1866 1867 0
14666 1866 -1867 0
14826 -746 747 0
14826 746 -747 0
14826 -2026 2027 0
14826 2026 -2027 0
14986 -906 907 0
14986 906 -907 0
14986 -2186 2187 0
14986 2186 -2187 0
15146 -1066 1067 0
15146 1066 -1067 0
15146 -2346 2347 0
15146 2346 -2347 0
15306 -1226 1227 0
15306 1226 -1227 0
15306 -2506 2507 0
15306 2506 -2507 0
-106 -10346 -107 0
106 -10346 107 0
-10506 -1547 0
-266 -10506 267 0
266 -10506 -267 0
-11786 1547 0
-10666 -1707 0
-426 -10666 427 0
426 -10666 -427 0
-11946 1707 0
-10826 -1867 0
-586 -10826 587 0
586 -10826 -587 0
-12106 1867 0
-10986 -2027 0
-746 -10986 747 0
746 -10986 -747 0
-12266 2027 0
-11146 -2187 0
-906 -11146 907 0
906 -11146 -907 0
-12426 2187 0
-11306 -2347 0
-1066 -11306 1067 0
1066 -11306 -1067 0
-12586 2347 0
-266 -11786 -267 0
266 -11786 267 0
-426 -11946 -427 0
426 -11946 427 0
-586 -12106 -587 0
586 -12106 587 0
-746 -12266 -747 0
746 -12266 747 0
-906 -12426 -907 0
906 -12426 907 0
-1066 -12586 -1067 0
1066 -12586 1067 0
-1226 -12746 -1227 0
1226 -12746 1227 0
14187 -107 108 0
14187 107 -108 0
14187 -1387 1388 0
14187 1387 -1388 0
14347 -267 268 0
14347 267 -268 0
14347 -1547 1548 0
14347 1547 -1548 0
14507 -427 428 0
14507 427 -428 0
14507 -1707 1708 0
14507 1707 -1708 0
14667 -587 588 0
14667 587 -588 0
14667 -1867 1868 0
14667 1867 -1868 0
14827 -747 748 0
14827 747 -748 0
14827 -2027 2028 0
14827 2027 -2028 0
14987 -907 908 0
14987 907 -908 0
14987 -2187 2188 0
14987 2187 -2188 0
15147 -1067 1068 0
15147 1067 -1068 0
15147 -2347 2348 0
15147 2347 -2348 0
15307 -1227 1228 0
15307 1227 -1228 0
15307 -2507 2508 0
15307 2507 -2508 0
-107 -10347 -108 0
107 -10347 108 0
-10507 -1548 0
-267 -10507 268 0
267 -10507 -268 0
-11787 1548 0
-10667 -1708 0
-427 -10667 428 0
427 -10667 -428 0
-11947 1708 0
-10827 -1868 0
-587 -10827 588 0
587 -10827 -588 0
-12107 1868 0
-10987 -2028 0
-747 -10987 748 0
747 -10987 -748 0
-12267 2028 0
-11147 -2188 0
-907 -11147 908 0
907 -11147 -908 0
-12427 2188 0
-11307 -2348 0
-1067 -11307 1068 0
1067 -11307 -1068 0
-12587 2348 0
-267 -11787 -268 0
267 -11787 268 0
-427 -11947 -428 0
427 -11947 428 0
-587 -12107 -588 0
587 -12107 588 0
-747 -12267 -748 0
747 -12267 748 0
-907 -12427 -908 0
907 -12427 908 0
-1067 -12587 -1068 0
1067 -12587 1068 0
-1227 -12747 -1228 0
1227 -12747 1228 0
14188 -108 109 0
14188 108 -109 0
14188 -1388 1389 0
14188 1388 -1389 0
14348 -268 269 0
14348 268 -269 0
14348 -1548 1549 0
14348 1548 -1549 0
14508 -428 429 0
14508 428 -429 0
14508 -1708 1709 0
14508 1708 -1709 0
14668 -588 589 0
14668 588 -589 0
14668 -1868 1869 0
14668 1868 -1869 0
14828 -748 749 0
14828 748 -749 0
14828 -2028 2029 0
14828 2028 -2029 0
14988 -908 909 0
14988 908 -909 0
14988 -2188 2189 0
14988 2188 -2189 0
15148 -1068 1069 0
15148 1068 -1069 0
15148 -2348 2349 0
15148 2348 -2349 0
15308 -1228 1229 0
15308 1228 -1229 0
15308 -2508 2509 0
15308 2508 -2509 0
-108 -10348 -109 0
108 -10348 109 0
-10508 -1549 0
-268 -10508 269 0
268 -10508 -269 0
-11788 1549 0
-10668 -1709 0
-428 -10668 429 0
428 -10668 -429 0
-11948 1709 0
-10828 -1869 0
-588 -10828 589 0
588 -10828 -589 0
-12108 1869 0
-10988 -2029 0
-748 -10988 749 0
748 -10988 -749 0
-12268 2029 0
-11148 -2189 0
-908 -11148 909 0
908 -11148 -909 0
-12428 2189 0
-11308 -2349 0
-1068 -11308 1069 0
1068 -11308 -1069 0
-12588 2349 0
-268 -11788 -269 0
268 -11788 269 0
-428 -11948 -429 0
428 -11948 429 0
-588 -12108 -589 0
588 -12108 589 0
-748 -12268 -749 0
748 -12268 749 0
-908 -12428 -909 0
908 -12428 909 0
-1068 -12588 -1069 0
1068 -12588 1069 0
-1228 -12748 -1229 0
1228 -12748 1229 0
14189 -109 110 0
14189 109 -110 0
14189 -1389 1390 0
14189 1389 -1390 0
14349 -269 270 0
14349 269 -270 0
14349 -1549 1550 0
14349 1549 -1550 0
14509 -429 430 0
14509 429 -430 0
14509 -1709 1710 0
14509 1709 -1710 0
14669 -589 590 0
14669 589 -590 0
14669 -1869 1870 0
14669 1869 -1870 0
14829 -749 750 0
14829 749 -750 0
14829 -2029 2030 0
14829 2029 -2030 0
14989 -909 910 0
14989 909 -910 0
14989 -2189 2190 0
14989 2189 -2190 0
15149 -1069 1070 0
15149 1069 -1070 0
15149 -2349 2350 0
15149 2349 -2350 0
15309 -1229 1230 0
15309 1229 -1230 0
15309 -2509 2510 0
15309 2509 -2510 0
-109 -10349 -110 0
109 -10349 110 0
-10509 -1550 0
-269 -10509 270 0
269 -10509 -270 0
-11789 1550 0
-10669 -1710 0
-429 -10669 430 0
429 -10669 -430 0
-11949 1710 0
-10829 -1870 0
-589 -10829 590 0
589 -10829 -590 0
-12109 1870 0
-10989 -2030 0
-749 -10989 750 0
749 -10989 -750 0
-12269 2030 0
-11149 -2190 0
-909 -11149 910 0
909 -11149 -910 0
-12429 2190 0
-11309 -2350 0
-1069 -11309 1070 0
1069 -11309 -1070 0
-12589 2350 0
-269 -11789 -270 0
269 -11789 270 0
-429 -11949 -430 0
429 -11949 430 0
-589 -12109 -590 0
589 -12109 590 0
-749 -12269 -750 0
749 -12269 750 0
-909 -12429 -910 0
909 -12429 910 0
-1069 -12589 -1070 0
1069 -12589 1070 0
-1229 -12749 -1230 0
1229 -12749 1230 0
14190 -110 111 0
14190 110 -111 0
14190 -1390 1391 0
14190 1390 -1391 0
14350 -270 271 0
14350 270 -271 0
14350 -1550 1551 0
14350 1550 -1551 0
14510 -430 431 0
14510 430 -431 0
14510 -1710 1711 0
14510 1710 -1711 0
14670 -590 591 0
14670 590 -591 0
14670 -1870 1871 0
14670 1870 -1871 0
14830 -750 751 0
14830 750 -751 0
14830 -2030 2031 0
14830 2030 -2031 0
14990 -910 911 0
14990 910 -911 0
14990 -2190 2191 0
14990 2190 -2191 0
15150 -1070 1071 0
15150 1070 -1071 0
15150 -2350 2351 0
15150 2350 -2351 0
15310 -1230 1231 0
15310 1230 -1231 0
15310 -2510 2511 0
15310 2510 -2511 0
-110 -10350 -111 0
110 -10350 111 0
-10510 -1551 0
-270 -10510 271 0
270 -10510 -271 0
-11790 1551 0
-10670 -1711 0
-430 -10670 431 0
430 -10670 -431 0
-11950 1711 0
-10830 -1871 0
-590 -10830 591 0
590 -10830 -591 0
-12110 1871 0
-10990 -2031 0
-750 -10990 751 0
750 -10990 -751 0
-12270 2031 0
-11150 -2191 0
-910 -11150 911 0
910 -11150 -911 0
-12430 2191 0
-11310 -2351 0
-1070 -11310 1071 0
1070 -11310 -1071 0
-12590 2351 0
-270 -11790 -271 0
270 -11790 271 0
-430 -11950 -431 0
430 -11950 431 0
-590 -12110 -591 0
590 -12110 591 0
-750 -12270 -751 0
750 -12270 751 0
-910 -12430 -911 0
910 -12430 911 0
-1070 -12590 -1071 0
1070 -12590 1071 0
-1230 -12750 -1231 0
1230 -12750 1231 0
14191 -111 112 0
14191 111 -112 0
14191 -1391 1392 0
14191 1391 -1392 0
14351 -271 272 0
14351 271 -272 0
14351 -1551 1552 0
14351 1551 -1552 0
14511 -431 432 0
14511 431 -432 0
14511 -1711 1712 0
14511 1711 -1712 0
14671 -591 592 0
14671 591 -592 0
14671 -1871 1872 0
14671 1871 -1872 0
14831 -751 752 0
14831 751 -752 0
14831 -2031 2032 0
14831 2031 -2032 0
14991 -911 912 0
14991 911 -912 0
14991 -2191 2192 0
14991 2191 -2192 0
15151 -1071 1072 0
15151 1071 -1072 0
15151 -2351 2352 0
15151 2351 -2352 0
15311 -1231 1232 0
15311 1231 -1232 0
15311 -2511 2512 0
15311 2511 -2512 0
-111 -10351 -112 0
111 -10351 112 0
-10511 -1552 0
-271 -10511 272 0
271 -10511 -272 0
-11791 1552 0
-10671 -1712 0
-431 -10671 432 0
431 -10671 -432 0
-11951 1712 0
-10831 -1872 0
-591 -10831 592 0
591 -10831 -592 0
-12111 1872 0
-10991 -2032 0
-751 -10991 752 0
751 -10991 -752 0
-12271 2032 0
-11151 -2192 0
-911 -11151 912 0
911 -11151 -912 0
-12431 2192 0
-11311 -2352 0
-1071 -11311 1072 0
1071 -11311 -1072 0
-12591 2352 0
-271 -11791 -272 0
271 -11791 272 0
-431 -11951 -432 0
431 -11951 432 0
-591 -12111 -592 0
591 -12111 592 0
-751 -12271 -752 0
751 -12271 752 0
-911 -12431 -912 0
911 -12431 912 0
-1071 -12591 -1072 0
1071 -12591 1072 0
-1231 -12751 -1232 0
1231 -12751 1232 0
14192 -112 113 0
14192 112 -113 0
14192 -1392 1393 0
14192 1392 -1393 0
14352 -272 273 0
14352 272 -273 0
14352 -1552 1553 0
14352 1552 -1553 0
14512 -432 433 0
14512 432 -433 0
14512 -1712 1713 0
14512 1712 -1713 0
14672 -592 593 0
14672 592 -593 0
14672 -1872 1873 0
14672 1872 -1873 0
14832 -752 753 0
14832 752 -753 0
14832 -2032 2033 0
14832 2032 -2033 0
14992 -912 913 0
14992 912 -913 0
14992 -2192 2193 0
14992 2192 -2193 0
15152 -1072 1073 0
15152 1072 -1073 0
15152 -2352 2353 0
15152 2352 -2353 0
15312 -1232 1233 0
15312 1232 -1233 0
15312 -2512 2513 0
15312 2512 -2513 0
-112 -10352 -113 0
112 -10352 113 0
-10512 -1553 0
-272 -10512 273 0
272 -10512 -273 0
-11792 1553 0
-10672 -1713 0
-432 -10672 433 0
432 -10672 -433 0
-11952 1713 0
-10832 -1873 0
-592 -10832 593 0
592 -10832 -593 0
-12112 1873 0
-10992 -2033 0
-752 -10992 753 0
752 -10992 -753 0
-12272 2033 0
-11152 -2193 0
-912 -11152 913 0
912 -11152 -913 0
-12432 2193 0
-11312 -2353 0
-1072 -11312 1073 0
1072 -11312 -1073 0
-12592 2353 0
-272 -11792 -273 0
272 -11792 273 0
-432 -11952 -433 0
432 -11952 433 0
-592 -12112 -593 0
592 -12112 593 0
-752 -12272 -753 0
752 -12272 753 0
-912 -12432 -913 0
912 -12432 913 0
-1072 -12592 -1073 0
1072 -12592 1073 0
-1232 -12752 -1233 0
1232 -12752 1233 0
14193 -113 114 0
14193 113 -114 0
14193 -1393 1394 0
14193 1393 -1394 0
14353 -273 274 0
14353 273 -274 0
14353 -1553 1554 0
14353 1553 -1554 0
14513 -433 434 0
14513 433 -434 0
14513 -1713 1714 0
14513 1713 -1714 0
14673 -593 594 0
14673 593 -594 0
14673 -1873 1874 0
14673 1873 -1874 0
14833 -753 754 0
14833 753 -754 0
14833 -2033 2034 0
14833 2033 -2034 0
14993 -913 914 0
14993 913 -914 0
14993 -2193 2194 0
14993 2193 -2194 0
15153 -1073 1074 0
15153 1073 -1074 0
15153 -2353 2354 0
15153 2353 -2354 0
15313 -1233 1234 0
15313 1233 -1234 0
15313 -2513 2514 0
15313 2513 -2514 0
-113 -10353 -114 0
113 -10353 114 0
-10513 -1554 0
-273 -10513 274 0
273 -10513 -274 0
-11793 1554 0
-10673 -1714 0
-433 -10673 434 0
433 -10673 -434 0
-11953 1714 0
-10833 -1874 0
-593 -10833 594 0
593 -10833 -594 0
-12113 1874 0
-10993 -2034 0
-753 -10993 754 0
753 -10993 -754 0
-12273 2034 0
-11153 -2194 0
-913 -11153 914 0
913 -11153 -914 0
-12433 2194 0
-11313 -2354 0
-1073 -11313 1074 0
1073 -11313 -1074 0
-12593 2354 0
-273 -11793 -274 0
273 -11793 274 0
-433 -11953 -434 0
433 -11953 434 0
-593 -12113 -594 0
593 -12113 594 0
-753 -12273 -754 0
753 -12273 754 0
-913 -12433 -914 0
913 -12433 914 0
-1073 -12593 -1074 0
1073 -12593 1074 0
-1233 -12753 -1234 0
1233 -12753 1234 0
14194 -114 115 0
14194 114 -115 0
14194 -1394 1395 0
14194 1394 -1395 0
14354 -274 275 0
14354 274 -275 0
14354 -1554 1555 0
14354 1554 -1555 0
14514 -434 435 0
14514 434 -435 0
14514 -1714 1715 0
14514 1714 -1715 0
14674 -594 595 0
14674 594 -595 0
14674 -1874 1875 0
14674 1874 -1875 0
14834 -754 755 0
14834 754 -755 0
14834 -2034 2035 0
14834 2034 -2035 0
14994 -914 915 0
14994 914 -915 0
14994 -2194 2195 0
14994 2194 -2195 0
15154 -1074 1075 0
15154 1074 -1075 0
15154 -2354 2355 0
15154 2354 -2355 0
15314 -1234 1235 0
15314 1234 -1235 0
15314 -2514 2515 0
15314 2514 -2515 0
-114 -10354 -115 0
114 -10354 115 0
-10514 -1555 0
-274 -10514 275 0
274 -10514 -275 0
-11794 1555 0
-10674 -1715 0
-434 -10674 435 0
434 -10674 -435 0
-11954 1715 0
-10834 -1875 0
-594 -10834 595 0
594 -10834 -595 0
-12114 1875 0
-10994 -2035 0
-754 -10994 755 0
754 -10994 -755 0
-12274 2035 0
-11154 -2195 0
-914 -11154 915 0
914 -11154 -915 0
-12434 2195 0
-11314 -2355 0
-1074 -11314 1075 0
1074 -11314 -1075 0
-12594 2355 0
-274 -11794 -275 0
274 -11794 275 0
-434 -11954 -435 0
434 -11954 435 0
-594 -12114 -595 0
594 -12114 595 0
-754 -12274 -755 0
754 -12274 755 0
-914 -12434 -915 0
914 -12434 915 0
-1074 -12594 -1075 0
1074 -12594 1075 0
-1234 -12754 -1235 0
1234 -12754 1235 0
14195 -115 116 0
14195 115 -116 0
14195 -1395 1396 0
14195 1395 -1396 0
14355 -275 276 0
14355 275 -276 0
14355 -1555 1556 0
14355 1555 -1556 0
14515 -435 436 0
14515 435 -436 0
14515 -1715 1716 0
14515 1715 -1716 0
14675 -595 596 0
14675 595 -596 0
14675 -1875 1876 0
14675 1875 -1876 0
14835 -755 756 0
14835 755 -756 0
14835 -2035 2036 0
14835 2035 -2036 0
14995 -915 916 0
14995 915 -916 0
14995 -2195 2196 0
14995 2195 -2196 0
15155 -1075 1076 0
15155 1075 -1076 0
15155 -2355 2356 0
15155 2355 -2356 0
15315 -1235 1236 0
15315 1235 -1236 0
15315 -2515 2516 0
15315 2515 -2516 0
-115 -10355 -116 0
115 -10355 116 0
-10515 -1556 0
-275 -10515 276 0
275 -10515 -276 0
-11795 1556 0
-10675 -1716 0
-435 -10675 436 0
435 -10675 -436 0
-11955 1716 0
-10835 -1876 0
-595 -10835 596 0
595 -10835 -596 0
-12115 1876 0
-10995 -2036 0
-755 -10995 756 0
755 -10995 -756 0
-12275 2036 0
-11155 -2196 0
-915 -11155 916 0
915 -11155 -916 0
-12435 2196 0
-11315 -2356 0
-1075 -11315 1076 0
1075 -11315 -1076 0
-12595 2356 0
-275 -11795 -276 0
275 -11795 276 0
-435 -11955 -436 0
435 -11955 436 0
-595 -12115 -596 0
595 -12115 596 0
-755 -12275 -756 0
755 -12275 756 0
-915 -12435 -916 0
915 -12435 916 0
-1075 -12595 -1076 0
1075 -12595 1076 0
-1235 -12755 -1236 0
1235 -12755 1236 0
14196 -116 117 0
14196 116 -117 0
14196 -1396 1397 0
14196 1396 -1397 0
14356 -276 277 0
14356 276 -277 0
14356 -1556 1557 0
14356 1556 -1557 0
14516 -436 437 0
14516 436 -437 0
14516 -1716 1717 0
14516 1716 -1717 0
14676 -596 597 0
14676 596 -597 0
14676 -1876 1877 0
14676 1876 -1877 0
14836 -756 757 0
14836 756 -757 0
14836 -2036 2037 0
14836 2036 -2037 0
14996 -916 917 0
14996 916 -917 0
14996 -2196 2197 0
14996 2196 -2197 0
15156 -1076 1077 0
15156 1076 -1077 0
15156 -2356 2357 0
15156 2356 -2357 0
15316 -1236 1237 0
15316 1236 -1237 0
15316 -2516 2517 0
15316 2516 -2517 0
-116 -10356 -117 0
116 -10356 117 0
-10516 -1557 0
-276 -10516 277 0
276 -10516 -277 0
-11796 1557 0
-10676 -1717 0
-436 -10676 437 0
436 -10676 -437 0
-11956 1717 0
-10836 -1877 0
-596 -10836 597 0
596 -10836 -597 0
-12116 1877 0
-10996 -2037 0
-756 -10996 757 0
756 -10996 -757 0
-12276 2037 0
-11156 -2197 0
-916 -11156 917 0
916 -11156 -917 0
-12436 2197 0
-11316 -2357 0
-1076 -11316 1077 0
1076 -11316 -1077 0
-12596 2357 0
-276 -11796 -277 0
276 -11796 277 0
-436 -11956 -437 0
436 -11956 437 0
-596 -12116 -597 0
596 -12116 597 0
-756 -12276 -757 0
756 -12276 757 0
-916 -12436 -917 0
916 -12436 917 0
-1076 -12596 -1077 0
1076 -12596 1077 0
-1236 -12756 -1237 0
1236 -12756 1237 0
14197 -117 118 0
14197 117 -118 0
14197 -1397 1398 0
14197 1397 -1398 0
14357 -277 278 0
14357 277 -278 0
14357 -1557 1558 0
14357 1557 -1558 0
14517 -437 438 0
14517 437 -438 0
14517 -1717 1718 0
14517 1717 -1718 0
14677 -597 598 0
14677 597 -598 0
14677 -1877 1878 0
14677 1877 -1878 0
14837 -757 758 0
14837 757 -758 0
14837 -2037 2038 0
14837 2037 -2038 0
14997 -917 918 0
14997 917 -918 0
14997 -2197 2198 0
14997 2197 -2198 0
15157 -1077 1078 0
15157 1077 -1078 0
15157 -2357 2358 0
15157 2357 -2358 0
15317 -1237 1238 0
15317 1237 -1238 0
15317 -2517 2518 0
15317 2517 -2518 0
-117 -10357 -118 0
117 -10357 118 0
-10517 -1558 0
-277 -10517 278 0
277 -10517 -278 0
-11797 1558 0
-10677 -1718 0
-437 -10677 438 0
437 -10677 -438 0
-11957 1718 0
-10837 -1878 0
-597 -10837 598 0
597 -10837 -598 0
-12117 1878 0
-10997 -2038 0
-757 -10997 758 0
757 -10997 -758 0
-12277 2038 0
-11157 -2198 0
-917 -11157 918 0
917 -11157 -918 0
-12437 2198 0
-11317 -2358 0
-1077 -11317 1078 0
1077 -11317 -1078 0
-12597 2358 0
-277 -11797 -278 0
277 -11797 278 0
-437 -11957 -438 0
437 -11957 438 0
-597 -12117 -598 0
597 -12117 598 0
-757 -12277 -758 0
757 -12277 758 0
-917 -12437 -918 0
917 -12437 918 0
-1077 -12597 -1078 0
1077 -12597 1078 0
-1237 -12757 -1238 0
1237 -12757 1238 0
14198 -118 119 0
14198 118 -119 0
14198 -1398 1399 0
14198 1398 -1399 0
14358 -278 279 0
14358 278 -279 0
14358 -1558 1559 0
14358 1558 -1559 0
14518 -438 439 0
14518 438 -439 0
14518 -1718 1719 0
14518 1718 -1719 0
14678 -598 599 0
14678 598 -599 0
14678 -1878 1879 0
14678 1878 -1879 0
14838 -758 759 0
14838 758 -759 0
14838 -2038 2039 0
14838 2038 -2039 0
14998 -918 919 0
14998 918 -919 0
14998 -2198 2199 0
14998 2198 -2199 0
15158 -1078 1079 0
15158 1078 -1079 0
15158 -2358 2359 0
15158 2358 -2359 0
15318 -1238 1239 0
15318 1238 -1239 0
15318 -2518 2519 0
15318 2518 -2519 0
-118 -10358 -119 0
118 -10358 119 0
-10518 -1559 0
-278 -10518 279 0
278 -10518 -279 0
-11798 1559 0
-10678 -1719 0
-438 -10678 439 0
438 -10678 -439 0
-11958 1719 0
-10838 -1879 0
-598 -10838 599 0
598 -10838 -599 0
-12118 1879 0
-10998 -2039 0
-758 -10998 759 0
758 -10998 -759 0
-12278 2039 0
-11158 -2199 0
-918 -11158 919 0
918 -11158 -919 0
-12438 2199 0
-11318 -2359 0
-1078 -11318 1079 0
1078 -11318 -1079 0
-12598 2359 0
-278 -11798 -279 0
278 -11798 279 0
-438 -11958 -439 0
438 -11958 439 0
-598 -12118 -599 0
598 -12118 599 0
-758 -12278 -759 0
758 -12278 759 0
-918 -12438 -919 0
918 -12438 919 0
-1078 -12598 -1079 0
1078 -12598 1079 0
-1238 -12758 -1239 0
1238 -12758 1239 0
14199 -119 120 0
14199 119 -120 0
14199 -1399 1400 0
14199 1399 -1400 0
14359 -279 280 0
14359 279 -280 0
14359 -1559 1560 0
14359 1559 -1560 0
14519 -439 440 0
14519 439 -440 0
14519 -1719 1720 0
14519 1719 -1720 0
14679 -599 600 0
14679 599 -600 0
14679 -1879 1880 0
14679 1879 -1880 0
14839 -759 760 0
14839 759 -760 0
14839 -2039 2040 0
14839 2039 -2040 0
14999 -919 920 0
14999 919 -920 0
14999 -2199 2200 0
14999 2199 -2200 0
15159 -1079 1080 0
15159 1079 -1080 0
15159 -2359 2360 0
15159 2359 -2360 0
15319 -1239 1240 0
15319 1239 -1240 0
15319 -2519 2520 0
15319 2519 -2520 0
-119 -10359 -120 0
119 -10359 120 0
-10519 -1560 0
-279 -10519 280 0
279 -10519 -280 0
-11799 1560 0
-10679 -1720 0
-439 -10679 440 0
439 -10679 -440 0
-11959 1720 0
-10839 -1880 0
-599 -10839 600 0
599 -10839 -600 0
-12119 1880 0
-10999 -2040 0
-759 -10999 760 0
759 -10999 -760 0
-12279 2040 0
-11159 -2200 0
-919 -11159 920 0
919 -11159 -920 0
-12439 2200 0
-11319 -2360 0
-1079 -11319 1080 0
1079 -11319 -1080 0
-12599 2360 0
-279 -11799 -280 0
279 -11799 280 0
-439 -11959 -440 0
439 -11959 440 0
-599 -12119 -600 0
599 -12119 600 0
-759 -12279 -760 0
759 -12279 760 0
-919 -12439 -920 0
919 -12439 920 0
-1079 -12599 -1080 0
1079 -12599 1080 0
-1239 -12759 -1240 0
1239 -12759 1240 0
14200 -120 121 0
14200 120 -121 0
14200 -1400 1401 0
14200 1400 -1401 0
14360 -280 281 0
14360 280 -281 0
14360 -1560 1561 0
14360 1560 -1561 0
14520 -440 441 0
14520 440 -441 0
14520 -1720 1721 0
14520 1720 -1721 0
14680 -600 601 0
14680 600 -601 0
14680 -1880 1881 0
14680 1880 -1881 0
14840 -760 761 0
14840 760 -761 0
14840 -2040 2041 0
14840 2040 -2041 0
15000 -920 921 0
15000 920 -921 0
15000 -2200 2201 0
15000 2200 -2201 0
15160 -1080 1081 0
15160 1080 -1081 0
15160 -2360 2361 0
15160 2360 -2361 0
15320 -1240 1241 0
15320 1240 -1241 0
15320 -2520 2521 0
15320 2520 -2521 0
-120 -10360 -121 0
120 -10360 121 0
-10520 -1561 0
-280 -10520 281 0
280 -10520 -281 0
-11800 1561 0
-10680 -1721 0
-440 -10680 441 0
440 -10680 -441 0
-11960 1721 0
-10840 -1881 0
-600 -10840 601 0
600 -10840 -601 0
-12120 1881 0
-11000 -2041 0
-760 -11000 761 0
760 -11000 -761 0
-12280 2041 0
-11160 -2201 0
-920 -11160 921 0
920 -11160 -921 0
-12440 2201 0
-11320 -2361 0
-1080 -11320 1081 0
1080 -11320 -1081 0
-12600 2361 0
-280 -11800 -281 0
280 -11800 281 0
-440 -11960 -441 0
440 -11960 441 0
-600 -12120 -601 0
600 -12120 601 0
-760 -12280 -761 0
760 -12280 761 0
-920 -12440 -921 0
920 -12440 921 0
-1080 -12600 -1081 0
1080 -12600 1081 0
-1240 -12760 -1241 0
1240 -12760 1241 0
14201 -121 122 0
14201 121 -122 0
14201 -1401 1402 0
14201 1401 -1402 0
14361 -281 282 0
14361 281 -282 0
14361 -1561 1562 0
14361 1561 -1562 0
14521 -441 442 0
14521 441 -442 0
14521 -1721 1722 0
14521 1721 -1722 0
14681 -601 602 0
14681 601 -602 0
14681 -1881 1882 0
14681 1881 -1882 0
14841 -761 762 0
14841 761 -762 0
14841 -2041 2042 0
14841 2041 -2042 0
15001 -921 922 0
15001 921 -922 0
15001 -2201 2202 0
15001 2201 -2202 0
15161 -1081 1082 0
15161 1081 -1082 0
15161 -2361 2362 0
15161 2361 -2362 0
15321 -1241 1242 0
15321 1241 -1242 0
15321 -2521 2522 0
15321 2521 -2522 0
-121 -10361 -122 0
121 -10361 122 0
-10521 -1562 0
-281 -10521 282 0
281 -10521 -282 0
-11801 1562 0
-10681 -1722 0
-441 -10681 442 0
441 -10681 -442 0
-11961 1722 0
-10841 -1882 0
-601 -10841 602 0
601 -10841 -602 0
-12121 1882 0
-11001 -2042 0
-761 -11001 762 0
761 -11001 -762 0
-12281 2042 0
-11161 -2202 0
-921 -11161 922 0
921 -11161 -922 0
-12441 2202 0
-11321 -2362 0
-1081 -11321 1082 0
1081 -11321 -1082 0
-12601 2362 0
-281 -11801 -282 0
281 -11801 282 0
-441 -11961 -442 0
441 -11961 442 0
-601 -12121 -602 0
601 -12121 602 0
-761 -12281 -762 0
761 -12281 762 0
-921 -12441 -922 0
921 -12441 922 0
-1081 -12601 -1082 0
1081 -12601 1082 0
-1241 -12761 -1242 0
1241 -12761 1242 0
14202 -122 123 0
14202 122 -123 0
14202 -1402 1403 0
14202 1402 -1403 0
14362 -282 283 0
14362 282 -283 0
14362 -1562 1563 0
14362 1562 -1563 0
14522 -442 443 0
14522 442 -443 0
14522 -1722 1723 0
14522 1722 -1723 0
14682 -602 603 0
14682 602 -603 0
14682 -1882 1883 0
14682 1882 -1883 0
14842 -762 763 0
14842 762 -763 0
14842 -2042 2043 0
14842 2042 -2043 0
15002 -922 923 0
15002 922 -923 0
15002 -2202 2203 0
15002 2202 -2203 0
15162 -1082 1083 0
15162 1082 -1083 0
15162 -2362 2363 0
15162 2362 -2363 0
15322 -1242 1243 0
15322 1242 -1243 0
15322 -2522 2523 0
15322 2522 -2523 0
-122 -10362 -123 0
122 -10362 123 0
-10522 -1563 0
-282 -10522 283 0
282 -10522 -283 0
-11802 1563 0
-10682 -1723 0
-442 -10682 443 0
442 -10682 -443 0
-11962 1723 0
-10842 -1883 0
-602 -10842 603 0
602 -10842 -603 0
-12122 1883 0
-11002 -2043 0
-762 -11002 763 0
762 -11002 -763 0
-12282 2043 0
-11162 -2203 0
-922 -11162 923 0
922 -11162 -923 0
-12442 2203 0
-11322 -2363 0
-1082 -11322 1083 0
1082 -11322 -1083 0
-12602 2363 0
-282 -11802 -283 0
282 -11802 283 0
-442 -11962 -443 0
442 -11962 443 0
-602 -12122 -603 0
602 -12122 603 0
-762 -12282 -763 0
762 -12282 763 0
-922 -12442 -923 0
922 -12442 923 0
-1082 -12602 -1083 0
1082 -12602 1083 0
-1242 -12762 -1243 0
1242 -12762 1243 0
14203 -123 124 0
14203 123 -124 0
14203 -1403 1404 0
14203 1403 -1404 0
14363 -283 284 0
14363 283 -284 0
14363 -1563 1564 0
14363 1563 -1564 0
14523 -443 444 0
14523 443 -444 0
14523 -1723 1724 0
14523 1723 -1724 0
14683 -603 604 0
14683 603 -604 0
14683 -1883 1884 0
14683 1883 -1884 0
14843 -763 764 0
14843 763 -764 0
14843 -2043 2044 0
14843 2043 -2044 0
15003 -923 924 0
15003 923 -924 0
15003 -2203 2204 0
15003 2203 -2204 0
15163 -1083 1084 0
15163 1083 -1084 0
15163 -2363 2364 0
15163 2363 -2364 0
15323 -1243 1244 0
15323 1243 -1244 0
15323 -2523 2524 0
15323 2523 -2524 0
-123 -10363 -124 0
123 -10363 124 0
-10523 -1564 0
-283 -10523 284 0
283 -10523 -284 0
-11803 1564 0
-10683 -1724 0
-443 -10683 444 0
443 -10683 -444 0
-11963 1724 0
-10843 -1884 0
-603 -10843 604 0
603 -10843 -604 0
-12123 1884 0
-11003 -2044 0
-763 -11003 764 0
763 -11003 -764 0
-12283 2044 0
-11163 -2204 0
-923 -11163 924 0
923 -11163 -924 0
-12443 2204 0
-11323 -2364 0
-1083 -11323 1084 0
1083 -11323 -1084 0
-12603 2364 0
-283 -11803 -284 0
283 -11803 284 0
-443 -11963 -444 0
443 -11963 444 0
-603 -12123 -604 0
603 -12123 604 0
-763 -12283 -764 0
763 -12283 764 0
-923 -12443 -924 0
923 -12443 924 0
-1083 -12603 -1084 0
1083 -12603 1084 0
-1243 -12763 -1244 0
1243 -12763 1244 0
14204 -124 125 0
14204 124 -125 0
14204 -1404 1405 0
14204 1404 -1405 0
14364 -284 285 0
14364 284 -285 0
14364 -1564 1565 0
14364 1564 -1565 0
14524 -444 445 0
14524 444 -445 0
14524 -1724 1725 0
14524 1724 -1725 0
14684 -604 605 0
14684 604 -605 0
14684 -1884 1885 0
14684 1884 -1885 0
14844 -764 765 0
14844 764 -765 0
14844 -2044 2045 0
14844 2044 -2045 0
15004 -924 925 0
15004 924 -925 0
15004 -2204 2205 0
15004 2204 -2205 0
15164 -1084 1085 0
15164 1084 -1085 0
15164 -2364 2365 0
15164 2364 -2365 0
15324 -1244 1245 0
15324 1244 -1245 0
15324 -2524 2525 0
15324 2524 -2525 0
-124 -10364 -125 0
124 -10364 125 0
-10524 -1565 0
-284 -10524 285 0
284 -10524 -285 0
-11804 1565 0
-10684 -1725 0
-444 -10684 445 0
444 -10684 -445 0
-11964 1725 0
-10844 -1885 0
-604 -10844 605 0
604 -10844 -605 0
-12124 1885 0
-11004 -2045 0
-764 -11004 765 0
764 -11004 -765 0
-12284 2045 0
-11164 -2205 0
-924 -11164 925 0
924 -11164 -925 0
-12444 2205 0
-11324 -2365 0
-1084 -11324 1085 0
1084 -11324 -1085 0
-12604 2365 0
-284 -11804 -285 0
284 -11804 285 0
-444 -11964 -445 0
444 -11964 445 0
-604 -12124 -605 0
604 -12124 605 0
-764 -12284 -765 0
764 -12284 765 0
-924 -12444 -925 0
924 -12444 925 0
-1084 -12604 -1085 0
1084 -12604 1085 0
-1244 -12764 -1245 0
1244 -12764 1245 0
14205 -125 126 0
14205 125 -126 0
14205 -1405 1406 0
14205 1405 -1406 0
14365 -285 286 0
14365 285 -286 0
14365 -1565 1566 0
14365 1565 -1566 0
14525 -445 446 0
14525 445 -446 0
14525 -1725 1726 0
14525 1725 -1726 0
14685 -605 606 0
14685 605 -606 0
14685 -1885 1886 0
14685 1885 -1886 0
14845 -765 766 0
14845 765 -766 0
14845 -2045 2046 0
14845 2045 -2046 0
15005 -925 926 0
15005 925 -926 0
15005 -2205 2206 0
15005 2205 -2206 0
15165 -1085 1086 0
15165 1085 -1086 0
15165 -2365 2366 0
15165 2365 -2366 0
15325 -1245 1246 0
15325 1245 -1246 0
15325 -2525 2526 0
15325 2525 -2526 0
-125 -10365 -126 0
125 -10365 126 0
-10525 -1566 0
-285 -10525 286 0
285 -10525 -286 0
-11805 1566 0
-10685 -1726 0
-445 -10685 446 0
445 -10685 -446 0
-11965 1726 0
-10845 -1886 0
-605 -10845 606 0
605 -10845 -606 0
-12125 1886 0
-11005 -2046 0
-765 -11005 766 0
765 -11005 -766 0
-12285 2046 0
-11165 -2206 0
-925 -11165 926 0
925 -11165 -926 0
-12445 2206 0
-11325 -2366 0
-1085 -11325 1086 0
1085 -11325 -1086 0
-12605 2366 0
-285 -11805 -286 0
285 -11805 286 0
-445 -11965 -446 0
445 -11965 446 0
-605 -12125 -606 0
605 -12125 606 0
-765 -12285 -766 0
765 -12285 766 0
-925 -12445 -926 0
925 -12445 926 0
-1085 -12605 -1086 0
1085 -12605 1086 0
-1245 -12765 -1246 0
1245 -12765 1246 0
14206 -126 127 0
14206 126 -127 0
14206 -1406 1407 0
14206 1406 -1407 0
14366 -286 287 0
14366 286 -287 0
14366 -1566 1567 0
14366 1566 -1567 0
14526 -446 447 0
14526 446 -447 0
14526 -1726 1727 0
14526 1726 -1727 0
14686 -606 607 0
14686 606 -607 0
14686 -1886 1887 0
14686 1886 -1887 0
14846 -766 767 0
14846 766 -767 0
14846 -2046 2047 0
14846 2046 -2047 0
15006 -926 927 0
15006 926 -927 0
15006 -2206 2207 0
15006 2206 -2207 0
15166 -1086 1087 0
15166 1086 -1087 0
15166 -2366 2367 0
15166 2366 -2367 0
15326 -1246 1247 0
15326 1246 -1247 0
15326 -2526 2527 0
15326 2526 -2527 0
-126 -10366 -127 0
126 -10366 127 0
-10526 -1567 0
-286 -10526 287 0
286 -10526 -287 0
-11806 1567 0
-10686 -1727 0
-446 -10686 447 0
446 -10686 -447 0
-11966 1727 0
-10846 -1887 0
-606 -10846 607 0
606 -10846 -607 0
-12126 1887 0
-11006 -2047 0
-766 -11006 767 0
766 -11006 -767 0
-12286 2047 0
-11166 -2207 0
-926 -11166 927 0
926 -11166 -927 0
-12446 2207 0
-11326 -2367 0
-1086 -11326 1087 0
1086 -11326 -1087 0
-12606 2367 0
-286 -11806 -287 0
286 -11806 287 0
-446 -11966 -447 0
446 -11966 447 0
-606 -12126 -607 0
606 -12126 607 0
-766 -12286 -767 0
766 -12286 767 0
-926 -12446 -927 0
926 -12446 927 0
-1086 -12606 -1087 0
1086 -12606 1087 0
-1246 -12766 -1247 0
1246 -12766 1247 0
14207 -127 128 0
14207 127 -128 0
14207 -1407 1408 0
14207 1407 -1408 0
14367 -287 288 0
14367 287 -288 0
14367 -1567 1568 0
14367 1567 -1568 0
14527 -447 448 0
14527 447 -448 0
14527 -1727 1728 0
14527 1727 -1728 0
14687 -607 608 0
14687 607 -608 0
14687 -1887 1888 0
14687 1887 -1888 0
14847 -767 768 0
14847 767 -768 0
14847 -2047 2048 0
14847 2047 -2048 0
15007 -927 928 0
15007 927 -928 0
15007 -2207 2208 0
15007 2207 -2208 0
15167 -1087 1088 0
15167 1087 -1088 0
15167 -2367 2368 0
15167 2367 -2368 0
15327 -1247 1248 0
15327 1247 -1248 0
15327 -2527 2528 0
15327 2527 -2528 0
-127 -10367 -128 0
127 -10367 128 0
-10527 -1568 0
-287 -10527 288 0
287 -10527 -288 0
-11807 1568 0
-10687 -1728 0
-447 -10687 448 0
447 -10687 -448 0
-11967 1728 0
-10847 -1888 0
-607 -10847 608 0
607 -10847 -608 0
-12127 1888 0
-11007 -2048 0
-767 -11007 768 0
767 -11007 -768 0
-12287 2048 0
-11167 -2208 0
-927 -11167 928 0
927 -11167 -928 0
-12447 2208 0
-11327 -2368 0
-1087 -11327 1088 0
1087 -11327 -1088 0
-12607 2368 0
-287 -11807 -288 0
287 -11807 288 0
-447 -11967 -448 0
447 -11967 448 0
-607 -12127 -608 0
607 -12127 608 0
-767 -12287 -768 0
767 -12287 768 0
-927 -12447 -928 0
927 -12447 928 0
-1087 -12607 -1088 0
1087 -12607 1088 0
-1247 -12767 -1248 0
1247 -12767 1248 0
14208 -128 129 0
14208 128 -129 0
14208 -1408 1409 0
14208 1408 -1409 0
14368 -288 289 0
14368 288 -289 0
14368 -1568 1569 0
14368 1568 -1569 0
14528 -448 449 0
14528 448 -449 0
14528 -1728 1729 0
14528 1728 -1729 0
14688 -608 609 0
14688 608 -609 0
14688 -1888 1889 0
14688 1888 -1889 0
14848 -768 769 0
14848 768 -769 0
14848 -2048 2049 0
14848 2048 -2049 0
15008 -928 929 0
15008 928 -929 0
15008 -2208 2209 0
15008 2208 -2209 0
15168 -1088 1089 0
15168 1088 -1089 0
15168 -2368 2369 0
15168 2368 -2369 0
15328 -1248 1249 0
15328 1248 -1249 0
15328 -2528 2529 0
15328 2528 -2529 0
-128 -10368 -129 0
128 -10368 129 0
-10528 -1569 0
-288 -10528 289 0
288 -10528 -289 0
-11808 1569 0
-10688 -1729 0
-448 -10688 449 0
448 -10688 -449 0
-11968 1729 0
-10848 -1889 0
-608 -10848 609 0
608 -10848 -609 0
-12128 1889 0
-11008 -2049 0
-768 -11008 769 0
768 -11008 -769 0
-12288 2049 0
-11168 -2209 0
-928 -11168 929 0
928 -11168 -929 0
-12448 2209 0
-11328 -2369 0
-1088 -11328 1089 0
1088 -11328 -1089 0
-12608 2369 0
-288 -11808 -289 0
288 -11808 289 0
-448 -11968 -449 0
448 -11968 449 0
-608 -12128 -609 0
608 -12128 609 0
-768 -12288 -769 0
768 -12288 769 0
-928 -12448 -929 0
928 -12448 929 0
-1088 -12608 -1089 0
1088 -12608 1089 0
-1248 -12768 -1249 0
1248 -12768 1249 0
14209 -129 130 0
14209 129 -130 0
14209 -1409 1410 0
14209 1409 -1410 0
14369 -289 290 0
14369 289 -290 0
14369 -1569 1570 0
14369 1569 -1570 0
14529 -449 450 0
14529 449 -450 0
14529 -1729 1730 0
14529 1729 -1730 0
14689 -609 610 0
14689 609 -610 0
14689 -1889 1890 0
14689 1889 -1890 0
14849 -769 770 0
14849 769 -770 0
14849 -2049 2050 0
14849 2049 -2050 0
15009 -929 930 0
15009 929 -930 0
15009 -2209 2210 0
15009 2209 -2210 0
15169 -1089 1090 0
15169 1089 -1090 0
15169 -2369 2370 0
15169 2369 -2370 0
15329 -1249 1250 0
15329 1249 -1250 0
15329 -2529 2530 0
15329 2529 -2530 0
-129 -10369 -130 0
129 -10369 130 0
-10529 -1570 0
-289 -10529 290 0
289 -10529 -290 0
-11809 1570 0
-10689 -1730 0
-449 -10689 450 0
449 -10689 -450 0
-11969 1730 0
-10849 -1890 0
-609 -10849 610 0
609 -10849 -610 0
-12129 1890 0
-11009 -2050 0
-769 -11009 770 0
769 -11009 -770 0
-12289 2050 0
-11169 -2210 0
-929 -11169 930 0
929 -11169 -930 0
-12449 2210 0
-11329 -2370 0
-1089 -11329 1090 0
1089 -11329 -1090 0
-12609 2370 0
-289 -11809 -290 0
289 -11809 290 0
-449 -11969 -450 0
449 -11969 450 0
-609 -12129 -610 0
609 -12129 610 0
-769 -12289 -770 0
769 -12289 770 0
-929 -12449 -930 0
929 -12449 930 0
-1089 -12609 -1090 0
1089 -12609 1090 0
-1249 -12769 -1250 0
1249 -12769 1250 0
14210 -130 131 0
14210 130 -131 0
14210 -1410 1411 0
14210 1410 -1411 0
14370 -290 291 0
14370 290 -291 0
14370 -1570 1571 0
14370 1570 -1571 0
14530 -450 451 0
14530 450 -451 0
14530 -1730 1731 0
14530 1730 -1731 0
14690 -610 611 0
14690 610 -611 0
14690 -1890 1891 0
14690 1890 -1891 0
14850 -770 771 0
14850 770 -771 0
14850 -2050 2051 0
14850 2050 -2051 0
15010 -930 931 0
15010 930 -931 0
15010 -2210 2211 0
15010 2210 -2211 0
15170 -1090 1091 0
15170 1090 -1091 0
15170 -2370 2371 0
15170 2370 -2371 0
15330 -1250 1251 0
15330 1250 -1251 0
15330 -2530 2531 0
15330 2530 -2531 0
-130 -10370 -131 0
130 -10370 131 0
-10530 -1571 0
-290 -10530 291 0
290 -10530 -291 0
-11810 1571 0
-10690 -1731 0
-450 -10690 451 0
450 -10690 -451 0
-11970 1731 0
-10850 -1891 0
-610 -10850 611 0
610 -10850 -611 0
-12130 1891 0
-11010 -2051 0
-770 -11010 771 0
770 -11010 -771 0
-12290 2051 0
-11170 -2211 0
-930 -11170 931 0
930 -11170 -931 0
-12450 2211 0
-11330 -2371 0
-1090 -11330 1091 0
1090 -11330 -1091 0
-12610 2371 0
-290 -11810 -291 0
290 -11810 291 0
-450 -11970 -451 0
450 -11970 451 0
-610 -12130 -611 0
610 -12130 611 0
-770 -12290 -771 0
770 -12290 771 0
-930 -12450 -931 0
930 -12450 931 0
-1090 -12610 -1091 0
1090 -12610 1091 0
-1250 -12770 -1251 0
1250 -12770 1251 0
14211 -131 132 0
14211 131 -132 0
14211 -1411 1412 0
14211 1411 -1412 0
14371 -291 292 0
14371 291 -292 0
14371 -1571 1572 0
14371 1571 -1572 0
14531 -451 452 0
14531 451 -452 0
14531 -1731 1732 0
14531 1731 -1732 0
14691 -611 612 0
14691 611 -612 0
14691 -1891 1892 0
14691 1891 -1892 0
14851 -771 772 0
14851 771 -772 0
14851 -2051 2052 0
14851 2051 -2052 0
15011 -931 932 0
15011 931 -932 0
15011 -2211 2212 0
15011 2211 -2212 0
15171 -1091 1092 0
15171 1091 -1092 0
15171 -2371 2372 0
15171 2371 -2372 0
15331 -1251 1252 0
15331 1251 -1252 0
15331 -2531 2532 0
15331 2531 -2532 0
-131 -10371 -132 0
131 -10371 132 0
-10531 -1572 0
-291 -10531 292 0
291 -10531 -292 0
-11811 1572 0
-10691 -1732 0
-451 -10691 452 0
451 -10691 -452 0
-11971 1732 0
-10851 -1892 0
-611 -10851 612 0
611 -10851 -612 0
-12131 1892 0
-11011 -2052 0
-771 -11011 772 0
771 -11011 -772 0
-12291 2052 0
-11171 -2212 0
-931 -11171 932 0
931 -11171 -932 0
-12451 2212 0
-11331 -2372 0
-1091 -11331 1092 0
1091 -11331 -1092 0
-12611 2372 0
-291 -11811 -292 0
291 -11811 292 0
-451 -11971 -452 0
451 -11971 452 0
-611 -12131 -612 0
611 -12131 612 0
-771 -12291 -772 0
771 -12291 772 0
-931 -12451 -932 0
931 -12451 932 0
-1091 -12611 -1092 0
1091 -12611 1092 0
-1251 -12771 -1252 0
1251 -12771 1252 0
14212 -132 133 0
14212 132 -133 0
14212 -1412 1413 0
14212 1412 -1413 0
14372 -292 293 0
14372 292 -293 0
14372 -1572 1573 0
14372 1572 -1573 0
14532 -452 453 0
14532 452 -453 0
14532 -1732 1733 0
14532 1732 -1733 0
14692 -612 613 0
14692 612 -613 0
14692 -1892 1893 0
14692 1892 -1893 0
14852 -772 773 0
14852 772 -773 0
14852 -2052 2053 0
14852 2052 -2053 0
15012 -932 933 0
15012 932 -933 0
15012 -2212 2213 0
15012 2212 -2213 0
15172 -1092 1093 0
15172 1092 -1093 0
15172 -2372 2373 0
15172 2372 -2373 0
15332 -1252 1253 0
15332 1252 -1253 0
15332 -2532 2533 0
15332 2532 -2533 0
-132 -10372 -133 0
132 -10372 133 0
-10532 -1573 0
-292 -10532 293 0
292 -10532 -293 0
-11812 1573 0
-10692 -1733 0
-452 -10692 453 0
452 -10692 -453 0
-11972 1733 0
-10852 -1893 0
-612 -10852 613 0
612 -10852 -613 0
-12132 1893 0
-11012 -2053 0
-772 -11012 773 0
772 -11012 -773 0
-12292 2053 0
-11172 -2213 0
-932 -11172 933 0
932 -11172 -933 0
-12452 2213 0
-11332 -2373 0
-1092 -11332 1093 0
1092 -11332 -1093 0
-12612 2373 0
-292 -11812 -293 0
292 -11812 293 0
-452 -11972 -453 0
452 -11972 453 0
-612 -12132 -613 0
612 -12132 613 0
-772 -12292 -773 0
772 -12292 773 0
-932 -12452 -933 0
932 -12452 933 0
-1092 -12612 -1093 0
1092 -12612 1093 0
-1252 -12772 -1253 0
1252 -12772 1253 0
14213 -133 134 0
14213 133 -134 0
14213 -1413 1414 0
14213 1413 -1414 0
14373 -293 294 0
14373 293 -294 0
14373 -1573 1574 0
14373 1573 -1574 0
14533 -453 454 0
14533 453 -454 0
14533 -1733 1734 0
14533 1733 -1734 0
14693 -613 614 0
14693 613 -614 0
14693 -1893 1894 0
14693 1893 -1894 0
14853 -773 774 0
14853 773 -774 0
14853 -2053 2054 0
14853 2053 -2054 0
15013 -933 934 0
15013 933 -934 0
15013 -2213 2214 0
15013 2213 -2214 0
15173 -1093 1094 0
15173 1093 -1094 0
15173 -2373 2374 0
15173 2373 -2374 0
15333 -1253 1254 0
15333 1253 -1254 0
15333 -2533 2534 0
15333 2533 -2534 0
-133 -10373 -134 0
133 -10373 134 0
-10533 -1574 0
-293 -10533 294 0
293 -10533 -294 0
-11813 1574 0
-10693 -1734 0
-453 -10693 454 0
453 -10693 -454 0
-11973 1734 0
-10853 -1894 0
-613 -10853 614 0
613 -10853 -614 0
-12133 1894 0
-11013 -2054 0
-773 -11013 774 0
773 -11013 -774 0
-12293 2054 0
-11173 -2214 0
-933 -11173 934 0
933 -11173 -934 0
-12453 2214 0
-11333 -2374 0
-1093 -11333 1094 0
1093 -11333 -1094 0
-12613 2374 0
-293 -11813 -294 0
293 -11813 294 0
-453 -11973 -454 0
453 -11973 454 0
-613 -12133 -614 0
613 -12133 614 0
-773 -12293 -774 0
773 -12293 774 0
-933 -12453 -934 0
933 -12453 934 0
-1093 -12613 -1094 0
1093 -12613 1094 0
-1253 -12773 -1254 0
1253 -12773 1254 0
14214 -134 135 0
14214 134 -135 0
14214 -1414 1415 0
14214 1414 -1415 0
14374 -294 295 0
14374 294 -295 0
14374 -1574 1575 0
14374 1574 -1575 0
14534 -454 455 0
14534 454 -455 0
14534 -1734 1735 0
14534 1734 -1735 0
14694 -614 615 0
14694 614 -615 0
14694 -1894 1895 0
14694 1894 -1895 0
14854 -774 775 0
14854 774 -775 0
14854 -2054 2055 0
14854 2054 -2055 0
15014 -934 935 0
15014 934 -935 0
15014 -2214 2215 0
15014 2214 -2215 0
15174 -1094 1095 0
15174 1094 -1095 0
15174 -2374 2375 0
15174 2374 -2375 0
15334 -1254 1255 0
15334 1254 -1255 0
15334 -2534 2535 0
15334 2534 -2535 0
-134 -10374 -135 0
134 -10374 135 0
-10534 -1575 0
-294 -10534 295 0
294 -10534 -295 0
-11814 1575 0
-10694 -1735 0
-454 -10694 455 0
454 -10694 -455 0
-11974 1735 0
-10854 -1895 0
-614 -10854 615 0
614 -10854 -615 0
-12134 1895 0
-11014 -2055 0
-774 -11014 775 0
774 -11014 -775 0
-12294 2055 0
-11174 -2215 0
-934 -11174 935 0
934 -11174 -935 0
-12454 2215 0
-11334 -2375 0
-1094 -11334 1095 0
1094 -11334 -1095 0
-12614 2375 0
-294 -11814 -295 0
294 -11814 295 0
-454 -11974 -455 0
454 -11974 455 0
-614 -12134 -615 0
614 -12134 615 0
-774 -12294 -775 0
774 -12294 775 0
-934 -12454 -935 0
934 -12454 935 0
-1094 -12614 -1095 0
1094 -12614 1095 0
-1254 -12774 -1255 0
1254 -12774 1255 0
14215 -135 136 0
14215 135 -136 0
14215 -1415 1416 0
14215 1415 -1416 0
14375 -295 296 0
14375 295 -296 0
14375 -1575 1576 0
14375 1575 -1576 0
14535 -455 456 0
14535 455 -456 0
14535 -1735 1736 0
14535 1735 -1736 0
14695 -615 616 0
14695 615 -616 0
14695 -1895 1896 0
14695 1895 -1896 0
14855 -775 776 0
14855 775 -776 0
14855 -2055 2056 0
14855 2055 -2056 0
15015 -935 936 0
15015 935 -936 0
15015 -2215 2216 0
15015 2215 -2216 0
15175 -1095 1096 0
15175 1095 -1096 0
15175 -2375 2376 0
15175 2375 -2376 0
15335 -1255 1256 0
15335 1255 -1256 0
15335 -2535 2536 0
15335 2535 -2536 0
-135 -10375 -136 0
135 -10375 136 0
-10535 -1576 0
-295 -10535 296 0
295 -10535 -296 0
-11815 1576 0
-10695 -1736 0
-455 -10695 456 0
455 -10695 -456 0
-11975 1736 0
-10855 -1896 0
-615 -10855 616 0
615 -10855 -616 0
-12135 1896 0
-11015 -2056 0
-775 -11015 776 0
775 -11015 -776 0
-12295 2056 0
-11175 -2216 0
-935 -11175 936 0
935 -11175 -936 0
-12455 2216 0
-11335 -2376 0
-1095 -11335 1096 0
1095 -11335 -1096 0
-12615 2376 0
-295 -11815 -296 0
295 -11815 296 0
-455 -11975 -456 0
455 -11975 456 0
-615 -12135 -616 0
615 -12135 616 0
-775 -12295 -776 0
775 -12295 776 0
-935 -12455 -936 0
935 -12455 936 0
-1095 -12615 -1096 0
1095 -12615 1096 0
-1255 -12775 -1256 0
1255 -12775 1256 0
14216 -136 137 0
14216 136 -137 0
14216 -1416 1417 0
14216 1416 -1417 0
14376 -296 297 0
14376 296 -297 0
14376 -1576 1577 0
14376 1576 -1577 0
14536 -456 457 0
14536 456 -457 0
14536 -1736 1737 0
14536 1736 -1737 0
14696 -616 617 0
14696 616 -617 0
14696 -1896 1897 0
14696 1896 -1897 0
14856 -776 777 0
14856 776 -777 0
14856 -2056 2057 0
14856 2056 -2057 0
15016 -936 937 0
15016 936 -937 0
15016 -2216 2217 0
15016 2216 -2217 0
15176 -1096 1097 0
15176 1096 -1097 0
15176 -2376 2377 0
15176 2376 -2377 0
15336 -1256 1257 0
15336 1256 -1257 0
15336 -2536 2537 0
15336 2536 -2537 0
-136 -10376 -137 0
136 -10376 137 0
-10536 -1577 0
-296 -10536 297 0
296 -10536 -297 0
-11816 1577 0
-10696 -1737 0
-456 -10696 457 0
456 -10696 -457 0
-11976 1737 0
-10856 -1897 0
-616 -10856 617 0
616 -10856 -617 0
-12136 1897 0
-11016 -2057 0
-776 -11016 777 0
776 -11016 -777 0
-12296 2057 0
-11176 -2217 0
-936 -11176 937 0
936 -11176 -937 0
-12456 2217 0
-11336 -2377 0
-1096 -11336 1097 0
1096 -11336 -1097 0
-12616 2377 0
-296 -11816 -297 0
296 -11816 297 0
-456 -11976 -457 0
456 -11976 457 0
-616 -12136 -617 0
616 -12136 617 0
-776 -12296 -777 0
776 -12296 777 0
-936 -12456 -937 0
936 -12456 937 0
-1096 -12616 -1097 0
1096 -12616 1097 0
-1256 -12776 -1257 0
1256 -12776 1257 0
14217 -137 138 0
14217 137 -138 0
14217 -1417 1418 0
14217 1417 -1418 0
14377 -297 298 0
14377 297 -298 0
14377 -1577 1578 0
14377 1577 -1578 0
14537 -457 458 0
14537 457 -458 0
14537 -1737 1738 0
14537 1737 -1738 0
14697 -617 618 0
14697 617 -618 0
14697 -1897 1898 0
14697 1897 -1898 0
14857 -777 778 0
14857 777 -778 0
14857 -2057 2058 0
14857 2057 -2058 0
15017 -937 938 0
15017 937 -938 0
15017 -2217 2218 0
15017 2217 -2218 0
15177 -1097 1098 0
15177 1097 -1098 0
15177 -2377 2378 0
15177 2377 -2378 0
15337 -1257 1258 0
15337 1257 -1258 0
15337 -2537 2538 0
15337 2537 -2538 0
-137 -10377 -138 0
137 -10377 138 0
-10537 -1578 0
-297 -10537 298 0
297 -10537 -298 0
-11817 1578 0
-10697 -1738 0
-457 -10697 458 0
457 -10697 -458 0
-11977 1738 0
-10857 -1898 0
-617 -10857 618 0
617 -10857 -618 0
-12137 1898 0
-11017 -2058 0
-777 -11017 778 0
777 -11017 -778 0
-12297 2058 0
-11177 -2218 0
-937 -11177 938 0
937 -11177 -938 0
-12457 2218 0
-11337 -2378 0
-1097 -11337 1098 0
1097 -11337 -1098 0
-12617 2378 0
-297 -11817 -298 0
297 -11817 298 0
-457 -11977 -458 0
457 -11977 458 0
-617 -12137 -618 0
617 -12137 618 0
-777 -12297 -778 0
777 -12297 778 0
-937 -12457 -938 0
937 -12457 938 0
-1097 -12617 -1098 0
1097 -12617 1098 0
-1257 -12777 -1258 0
1257 -12777 1258 0
14218 -138 139 0
14218 138 -139 0
14218 -1418 1419 0
14218 1418 -1419 0
14378 -298 299 0
14378 298 -299 0
14378 -1578 1579 0
14378 1578 -1579 0
14538 -458 459 0
14538 458 -459 0
14538 -1738 1739 0
14538 1738 -1739 0
14698 -618 619 0
14698 618 -619 0
14698 -1898 1899 0
14698 1898 -1899 0
14858 -778 779 0
14858 778 -779 0
14858 -2058 2059 0
14858 2058 -2059 0
15018 -938 939 0
15018 938 -939 0
15018 -2218 2219 0
15018 2218 -2219 0
15178 -1098 1099 0
15178 1098 -1099 0
15178 -2378 2379 0
15178 2378 -2379 0
15338 -1258 1259 0
15338 1258 -1259 0
15338 -2538 2539 0
15338 2538 -2539 0
-138 -10378 -139 0
138 -10378 139 0
-10538 -1579 0
-298 -10538 299 0
298 -10538 -299 0
-11818 1579 0
-10698 -1739 0
-458 -10698 459 0
458 -10698 -459 0
-11978 1739 0
-10858 -1899 0
-618 -10858 619 0
618 -10858 -619 0
-12138 1899 0
-11018 -2059 0
-778 -11018 779 0
778 -11018 -779 0
-12298 2059 0
-11178 -2219 0
-938 -11178 939 0
938 -11178 -939 0
-12458 2219 0
-11338 -2379 0
-1098 -11338 1099 0
1098 -11338 -1099 0
-12618 2379 0
-298 -11818 -299 0
298 -11818 299 0
-458 -11978 -459 0
458 -11978 459 0
-618 -12138 -619 0
618 -12138 619 0
-778 -12298 -779 0
778 -12298 779 0
-938 -12458 -939 0
938 -12458 939 0
-1098 -12618 -1099 0
1098 -12618 1099 0
-1258 -12778 -1259 0
1258 -12778 1259 0
14219 -139 140 0
14219 139 -140 0
14219 -1419 1420 0
14219 1419 -1420 0
14379 -299 300 0
14379 299 -300 0
14379 -1579 1580 0
14379 1579 -1580 0
14539 -459 460 0
14539 459 -460 0
14539 -1739 1740 0
14539 1739 -1740 0
14699 -619 620 0
14699 619 -620 0
14699 -1899 1900 0
14699 1899 -1900 0
14859 -779 780 0
14859 779 -780 0
14859 -2059 2060 0
14859 2059 -2060 0
15019 -939 940 0
15019 939 -940 0
15019 -2219 2220 0
15019 2219 -2220 0
15179 -1099 1100 0
15179 1099 -1100 0
15179 -2379 2380 0
15179 2379 -2380 0
15339 -1259 1260 0
15339 1259 -1260 0
15339 -2539 2540 0
15339 2539 -2540 0
-139 -10379 -140 0
139 -10379 140 0
-10539 -1580 0
-299 -10539 300 0
299 -10539 -300 0
-11819 1580 0
-10699 -1740 0
-459 -10699 460 0
459 -10699 -460 0
-11979 1740 0
-10859 -1900 0
-619 -10859 620 0
619 -10859 -620 0
-12139 1900 0
-11019 -2060 0
-779 -11019 780 0
779 -11019 -780 0
-12299 2060 0
-11179 -2220 0
-939 -11179 940 0
939 -11179 -940 0
-12459 2220 0
-11339 -2380 0
-1099 -11339 1100 0
1099 -11339 -1100 0
-12619 2380 0
-299 -11819 -300 0
299 -11819 300 0
-459 -11979 -460 0
459 -11979 460 0
-619 -12139 -620 0
619 -12139 620 0
-779 -12299 -780 0
779 -12299 780 0
-939 -12459 -940 0
939 -12459 940 0
-1099 -12619 -1100 0
1099 -12619 1100 0
-1259 -12779 -1260 0
1259 -12779 1260 0
14220 -140 141 0
14220 140 -141 0
14220 -1420 1421 0
14220 1420 -1421 0
14380 -300 301 0
14380 300 -301 0
14380 -1580 1581 0
14380 1580 -1581 0
14540 -460 461 0
14540 460 -461 0
14540 -1740 1741 0
14540 1740 -1741 0
14700 -620 621 0
14700 620 -621 0
14700 -1900 1901 0
14700 1900 -1901 0
14860 -780 781 0
14860 780 -781 0
14860 -2060 2061 0
14860 2060 -2061 0
15020 -940 941 0
15020 940 -941 0
15020 -2220 2221 0
15020 2220 -2221 0
15180 -1100 1101 0
15180 1100 -1101 0
15180 -2380 2381 0
15180 2380 -2381 0
15340 -1260 1261 0
15340 1260 -1261 0
15340 -2540 2541 0
15340 2540 -2541 0
-140 -10380 -141 0
140 -10380 141 0
-10540 -1581 0
-300 -10540 301 0
300 -10540 -301 0
-11820 1581 0
-10700 -1741 0
-460 -10700 461 0
460 -10700 -461 0
-11980 1741 0
-10860 -1901 0
-620 -10860 621 0
620 -10860 -621 0
-12140 1901 0
-11020 -2061 0
-780 -11020 781 0
780 -11020 -781 0
-12300 2061 0
-11180 -2221 0
-940 -11180 941 0
940 -11180 -941 0
-12460 2221 0
-11340 -2381 0
-1100 -11340 1101 0
1100 -11340 -1101 0
-12620 2381 0
-300 -11820 -301 0
300 -11820 301 0
-460 -11980 -461 0
460 -11980 461 0
-620 -12140 -621 0
620 -12140 621 0
-780 -12300 -781 0
780 -12300 781 0
-940 -12460 -941 0
940 -12460 941 0
-1100 -12620 -1101 0
1100 -12620 1101 0
-1260 -12780 -1261 0
1260 -12780 1261 0
14221 -141 142 0
14221 141 -142 0
14221 -1421 1422 0
14221 1421 -1422 0
14381 -301 302 0
14381 301 -302 0
14381 -1581 1582 0
14381 1581 -1582 0
14541 -461 462 0
14541 461 -462 0
14541 -1741 1742 0
14541 1741 -1742 0
14701 -621 622 0
14701 621 -622 0
14701 -1901 1902 0
14701 1901 -1902 0
14861 -781 782 0
14861 781 -782 0
14861 -2061 2062 0
14861 2061 -2062 0
15021 -941 942 0
15021 941 -942 0
15021 -2221 2222 0
15021 2221 -2222 0
15181 -1101 1102 0
15181 1101 -1102 0
15181 -2381 2382 0
15181 2381 -2382 0
15341 -1261 1262 0
15341 1261 -1262 0
15341 -2541 2542 0
15341 2541 -2542 0
-141 -10381 -142 0
141 -10381 142 0
-10541 -1582 0
-301 -10541 302 0
301 -10541 -302 0
-11821 1582 0
-10701 -1742 0
-461 -10701 462 0
461 -10701 -462 0
-11981 1742 0
-10861 -1902 0
-621 -10861 622 0
621 -10861 -622 0
-12141 1902 0
-11021 -2062 0
-781 -11021 782 0
781 -11021 -782 0
-12301 2062 0
-11181 -2222 0
-941 -11181 942 0
941 -11181 -942 0
-12461 2222 0
-11341 -2382 0
-1101 -11341 1102 0
1101 -11341 -1102 0
-12621 2382 0
-301 -11821 -302 0
301 -11821 302 0
-461 -11981 -462 0
461 -11981 462 0
-621 -12141 -622 0
621 -12141 622 0
-781 -12301 -782 0
781 -12301 782 0
-941 -12461 -942 0
941 -12461 942 0
-1101 -12621 -1102 0
1101 -12621 1102 0
-1261 -12781 -1262 0
1261 -12781 1262 0
14222 -142 143 0
14222 142 -143 0
14222 -1422 1423 0
14222 1422 -1423 0
14382 -302 303 0
14382 302 -303 0
14382 -1582 1583 0
14382 1582 -1583 0
14542 -462 463 0
14542 462 -463 0
14542 -1742 1743 0
14542 1742 -1743 0
14702 -622 623 0
14702 622 -623 0
14702 -1902 1903 0
14702 1902 -1903 0
14862 -782 783 0
14862 782 -783 0
14862 -2062 2063 0
14862 2062 -2063 0
15022 -942 943 0
15022 942 -943 0
15022 -2222 2223 0
15022 2222 -2223 0
15182 -1102 1103 0
15182 1102 -1103 0
15182 -2382 2383 0
15182 2382 -2383 0
15342 -1262 1263 0
15342 1262 -1263 0
15342 -2542 2543 0
15342 2542 -2543 0
-142 -10382 -143 0
142 -10382 143 0
-10542 -1583 0
-302 -10542 303 0
302 -10542 -303 0
-11822 1583 0
-10702 -1743 0
-462 -10702 463 0
462 -10702 -463 0
-11982 1743 0
-10862 -1903 0
-622 -10862 623 0
622 -10862 -623 0
-12142 1903 0
-11022 -2063 0
-782 -11022 783 0
782 -11022 -783 0
-12302 2063 0
-11182 -2223 0
-942 -11182 943 0
942 -11182 -943 0
-12462 2223 0
-11342 -2383 0
-1102 -11342 1103 0
1102 -11342 -1103 0
-12622 2383 0
-302 -11822 -303 0
302 -11822 303 0
-462 -11982 -463 0
462 -11982 463 0
-622 -12142 -623 0
622 -12142 623 0
-782 -12302 -783 0
782 -12302 783 0
-942 -12462 -943 0
942 -12462 943 0
-1102 -12622 -1103 0
1102 -12622 1103 0
-1262 -12782 -1263 0
1262 -12782 1263 0
14223 -143 144 0
14223 143 -144 0
14223 -1423 1424 0
14223 1423 -1424 0
14383 -303 304 0
14383 303 -304 0
14383 -1583 1584 0
14383 1583 -1584 0
14543 -463 464 0
14543 463 -464 0
14543 -1743 1744 0
14543 1743 -1744 0
14703 -623 624 0
14703 623 -624 0
14703 -1903 1904 0
14703 1903 -1904 0
14863 -783 784 0
14863 783 -784 0
14863 -2063 2064 0
14863 2063 -2064 0
15023 -943 944 0
15023 943 -944 0
15023 -2223 2224 0
15023 2223 -2224 0
15183 -1103 1104 0
15183 1103 -1104 0
15183 -2383 2384 0
15183 2383 -2384 0
15343 -1263 1264 0
15343 1263 -1264 0
15343 -2543 2544 0
15343 2543 -2544 0
-143 -10383 -144 0
143 -10383 144 0
-10543 -1584 0
-303 -10543 304 0
303 -10543 -304 0
-11823 1584 0
-10703 -1744 0
-463 -10703 464 0
463 -10703 -464 0
-11983 1744 0
-10863 -1904 0
-623 -10863 624 0
623 -10863 -624 0
-12143 1904 0
-11023 -2064 0
-783 -11023 784 0
783 -11023 -784 0
-12303 2064 0
-11183 -2224 0
-943 -11183 944 0
943 -11183 -944 0
-12463 2224 0
-11343 -2384 0
-1103 -11343 1104 0
1103 -11343 -1104 0
-12623 2384 0
-303 -11823 -304 0
303 -11823 304 0
-463 -11983 -464 0
463 -11983 464 0
-623 -12143 -624 0
623 -12143 624 0
-783 -12303 -784 0
783 -12303 784 0
-943 -12463 -944 0
943 -12463 944 0
-1103 -12623 -1104 0
1103 -12623 1104 0
-1263 -12783 -1264 0
1263 -12783 1264 0
14224 -144 145 0
14224 144 -145 0
14224 -1424 1425 0
14224 1424 -1425 0
14384 -304 305 0
14384 304 -305 0
14384 -1584 1585 0
14384 1584 -1585 0
14544 -464 465 0
14544 464 -465 0
14544 -1744 1745 0
14544 1744 -1745 0
14704 -624 625 0
14704 624 -625 0
14704 -1904 1905 0
14704 1904 -1905 0
14864 -784 785 0
14864 784 -785 0
14864 -2064 2065 0
14864 2064 -2065 0
15024 -944 945 0
15024 944 -945 0
15024 -2224 2225 0
15024 2224 -2225 0
15184 -1104 1105 0
15184 1104 -1105 0
15184 -2384 2385 0
15184 2384 -2385 0
15344 -1264 1265 0
15344 1264 -1265 0
15344 -2544 2545 0
15344 2544 -2545 0
-144 -10384 -145 0
144 -10384 145 0
-10544 -1585 0
-304 -10544 305 0
304 -10544 -305 0
-11824 1585 0
-10704 -1745 0
-464 -10704 465 0
464 -10704 -465 0
-11984 1745 0
-10864 -1905 0
-624 -10864 625 0
624 -10864 -625 0
-12144 1905 0
-11024 -2065 0
-784 -11024 785 0
784 -11024 -785 0
-12304 2065 0
-11184 -2225 0
-944 -11184 945 0
944 -11184 -945 0
-12464 2225 0
-11344 -2385 0
-1104 -11344 1105 0
1104 -11344 -1105 0
-12624 2385 0
-304 -11824 -305 0
304 -11824 305 0
-464 -11984 -465 0
464 -11984 465 0
-624 -12144 -625 0
624 -12144 625 0
-784 -12304 -785 0
784 -12304 785 0
-944 -12464 -945 0
944 -12464 945 0
-1104 -12624 -1105 0
1104 -12624 1105 0
-1264 -12784 -1265 0
1264 -12784 1265 0
14225 -145 146 0
14225 145 -146 0
14225 -1425 1426 0
14225 1425 -1426 0
14385 -305 306 0
14385 305 -306 0
14385 -1585 1586 0
14385 1585 -1586 0
14545 -465 466 0
14545 465 -466 0
14545 -1745 1746 0
14545 1745 -1746 0
14705 -625 626 0
14705 625 -626 0
14705 -1905 1906 0
14705 1905 -1906 0
14865 -785 786 0
14865 785 -786 0
14865 -2065 2066 0
14865 2065 -2066 0
15025 -945 946 0
15025 945 -946 0
15025 -2225 2226 0
15025 2225 -2226 0
15185 -1105 1106 0
15185 1105 -1106 0
15185 -2385 2386 0
15185 2385 -2386 0
15345 -1265 1266 0
15345 1265 -1266 0
15345 -2545 2546 0
15345 2545 -2546 0
-145 -10385 -146 0
145 -10385 146 0
-10545 -1586 0
-305 -10545 306 0
305 -10545 -306 0
-11825 1586 0
-10705 -1746 0
-465 -10705 466 0
465 -10705 -466 0
-11985 1746 0
-10865 -1906 0
-625 -10865 626 0
625 -10865 -626 0
-12145 1906 0
-11025 -2066 0
-785 -11025 786 0
785 -11025 -786 0
-12305 2066 0
-11185 -2226 0
-945 -11185 946 0
945 -11185 -946 0
-12465 2226 0
-11345 -2386 0
-1105 -11345 1106 0
1105 -11345 -1106 0
-12625 2386 0
-305 -11825 -306 0
305 -11825 306 0
-465 -11985 -466 0
465 -11985 466 0
-625 -12145 -626 0
625 -12145 626 0
-785 -12305 -786 0
785 -12305 786 0
-945 -12465 -946 0
945 -12465 946 0
-1105 -12625 -1106 0
1105 -12625 1106 0
-1265 -12785 -1266 0
1265 -12785 1266 0
14226 -146 147 0
14226 146 -147 0
14226 -1426 1427 0
14226 1426 -1427 0
14386 -306 307 0
14386 306 -307 0
14386 -1586 1587 0
14386 1586 -1587 0
14546 -466 467 0
14546 466 -467 0
14546 -1746 1747 0
14546 1746 -1747 0
14706 -626 627 0
14706 626 -627 0
14706 -1906 1907 0
14706 1906 -1907 0
14866 -786 787 0
14866 786 -787 0
14866 -2066 2067 0
14866 2066 -2067 0
15026 -946 947 0
15026 946 -947 0
15026 -2226 2227 0
15026 2226 -2227 0
15186 -1106 1107 0
15186 1106 -1107 0
15186 -2386 2387 0
15186 2386 -2387 0
15346 -1266 1267 0
15346 1266 -1267 0
15346 -2546 2547 0
15346 2546 -2547 0
-146 -10386 -147 0
146 -10386 147 0
-10546 -1587 0
-306 -10546 307 0
306 -10546 -307 0
-11826 1587 0
-10706 -1747 0
-466 -10706 467 0
466 -10706 -467 0
-11986 1747 0
-10866 -1907 0
-626 -10866 627 0
626 -10866 -627 0
-12146 1907 0
-11026 -2067 0
-786 -11026 787 0
786 -11026 -787 0
-12306 2067 0
-11186 -2227 0
-946 -11186 947 0
946 -11186 -947 0
-12466 2227 0
-11346 -2387 0
-1106 -11346 1107 0
1106 -11346 -1107 0
-12626 2387 0
-306 -11826 -307 0
306 -11826 307 0
-466 -11986 -467 0
466 -11986 467 0
-626 -12146 -627 0
626 -12146 627 0
-786 -12306 -787 0
786 -12306 787 0
-946 -12466 -947 0
946 -12466 947 0
-1106 -12626 -1107 0
1106 -12626 1107 0
-1266 -12786 -1267 0
1266 -12786 1267 0
14227 -147 148 0
14227 147 -148 0
14227 -1427 1428 0
14227 1427 -1428 0
14387 -307 308 0
14387 307 -308 0
14387 -1587 1588 0
14387 1587 -1588 0
14547 -467 468 0
14547 467 -468 0
14547 -1747 1748 0
14547 1747 -1748 0
14707 -627 628 0
14707 627 -628 0
14707 -1907 1908 0
14707 1907 -1908 0
14867 -787 788 0
14867 787 -788 0
14867 -2067 2068 0
14867 2067 -2068 0
15027 -947 948 0
15027 947 -948 0
15027 -2227 2228 0
15027 2227 -2228 0
15187 -1107 1108 0
15187 1107 -1108 0
15187 -2387 2388 0
15187 2387 -2388 0
15347 -1267 1268 0
15347 1267 -1268 0
15347 -2547 2548 0
15347 2547 -2548 0
-147 -10387 -148 0
147 -10387 148 0
-10547 -1588 0
-307 -10547 308 0
307 -10547 -308 0
-11827 1588 0
-10707 -1748 0
-467 -10707 468 0
467 -10707 -468 0
-11987 1748 0
-10867 -1908 0
-627 -10867 628 0
627 -10867 -628 0
-12147 1908 0
-11027 -2068 0
-787 -11027 788 0
787 -11027 -788 0
-12307 2068 0
-11187 -2228 0
-947 -11187 948 0
947 -11187 -948 0
-12467 2228 0
-11347 -2388 0
-1107 -11347 1108 0
1107 -11347 -1108 0
-12627 2388 0
-307 -11827 -308 0
307 -11827 308 0
-467 -11987 -468 0
467 -11987 468 0
-627 -12147 -628 0
627 -12147 628 0
-787 -12307 -788 0
787 -12307 788 0
-947 -12467 -948 0
947 -12467 948 0
-1107 -12627 -1108 0
1107 -12627 1108 0
-1267 -12787 -1268 0
1267 -12787 1268 0
14228 -148 149 0
14228 148 -149 0
14228 -1428 1429 0
14228 1428 -1429 0
14388 -308 309 0
14388 308 -309 0
14388 -1588 1589 0
14388 1588 -1589 0
14548 -468 469 0
14548 468 -469 0
14548 -1748 1749 0
14548 1748 -1749 0
14708 -628 629 0
14708 628 -629 0
14708 -1908 1909 0
14708 1908 -1909 0
14868 -788 789 0
14868 788 -789 0
14868 -2068 2069 0
14868 2068 -2069 0
15028 -948 949 0
15028 948 -949 0
15028 -2228 2229 0
15028 2228 -2229 0
15188 -1108 1109 0
15188 1108 -1109 0
15188 -2388 2389 0
15188 2388 -2389 0
15348 -1268 1269 0
15348 1268 -1269 0
15348 -2548 2549 0
15348 2548 -2549 0
-148 -10388 -149 0
148 -10388 149 0
-10548 -1589 0
-308 -10548 309 0
308 -10548 -309 0
-11828 1589 0
-10708 -1749 0
-468 -10708 469 0
468 -10708 -469 0
-11988 1749 0
-10868 -1909 0
-628 -10868 629 0
628 -10868 -629 0
-12148 1909 0
-11028 -2069 0
-788 -11028 789 0
788 -11028 -789 0
-12308 2069 0
-11188 -2229 0
-948 -11188 949 0
948 -11188 -949 0
-12468 2229 0
-11348 -2389 0
-1108 -11348 1109 0
1108 -11348 -1109 0
-12628 2389 0
-308 -11828 -309 0
308 -11828 309 0
-468 -11988 -469 0
468 -11988 469 0
-628 -12148 -629 0
628 -12148 629 0
-788 -12308 -789 0
788 -12308 789 0
-948 -12468 -949 0
948 -12468 949 0
-1108 -12628 -1109 0
1108 -12628 1109 0
-1268 -12788 -1269 0
1268 -12788 1269 0
14229 -149 150 0
14229 149 -150 0
14229 -1429 1430 0
14229 1429 -1430 0
14389 -309 310 0
14389 309 -310 0
14389 -1589 1590 0
14389 1589 -1590 0
14549 -469 470 0
14549 469 -470 0
14549 -1749 1750 0
14549 1749 -1750 0
14709 -629 630 0
14709 629 -630 0
14709 -1909 1910 0
14709 1909 -1910 0
14869 -789 790 0
14869 789 -790 0
14869 -2069 2070 0
14869 2069 -2070 0
15029 -949 950 0
15029 949 -950 0
15029 -2229 2230 0
15029 2229 -2230 0
15189 -1109 1110 0
15189 1109 -1110 0
15189 -2389 2390 0
15189 2389 -2390 0
15349 -1269 1270 0
15349 1269 -1270 0
15349 -2549 2550 0
15349 2549 -2550 0
-149 -10389 -150 0
149 -10389 150 0
-10549 -1590 0
-309 -10549 310 0
309 -10549 -310 0
-11829 1590 0
-10709 -1750 0
-469 -10709 470 0
469 -10709 -470 0
-11989 1750 0
-10869 -1910 0
-629 -10869 630 0
629 -10869 -630 0
-12149 1910 0
-11029 -2070 0
-789 -11029 790 0
789 -11029 -790 0
-12309 2070 0
-11189 -2230 0
-949 -11189 950 0
949 -11189 -950 0
-12469 2230 0
-11349 -2390 0
-1109 -11349 1110 0
1109 -11349 -1110 0
-12629 2390 0
-309 -11829 -310 0
309 -11829 310 0
-469 -11989 -470 0
469 -11989 470 0
-629 -12149 -630 0
629 -12149 630 0
-789 -12309 -790 0
789 -12309 790 0
-949 -12469 -950 0
949 -12469 950 0
-1109 -12629 -1110 0
1109 -12629 1110 0
-1269 -12789 -1270 0
1269 -12789 1270 0
14230 -150 151 0
14230 150 -151 0
14230 -1430 1431 0
14230 1430 -1431 0
14390 -310 311 0
14390 310 -311 0
14390 -1590 1591 0
14390 1590 -1591 0
14550 -470 471 0
14550 470 -471 0
14550 -1750 1751 0
14550 1750 -1751 0
14710 -630 631 0
14710 630 -631 0
14710 -1910 1911 0
14710 1910 -1911 0
14870 -790 791 0
14870 790 -791 0
14870 -2070 2071 0
14870 2070 -2071 0
15030 -950 951 0
15030 950 -951 0
15030 -2230 2231 0
15030 2230 -2231 0
15190 -1110 1111 0
15190 1110 -1111 0
15190 -2390 2391 0
15190 2390 -2391 0
15350 -1270 1271 0
15350 1270 -1271 0
15350 -2550 2551 0
15350 2550 -2551 0
-150 -10390 -151 0
150 -10390 151 0
-10550 -1591 0
-310 -10550 311 0
310 -10550 -311 0
-11830 1591 0
-10710 -1751 0
-470 -10710 471 0
470 -10710 -471 0
-11990 1751 0
-10870 -1911 0
-630 -10870 631 0
630 -10870 -631 0
-12150 1911 0
-11030 -2071 0
-790 -11030 791 0
790 -11030 -791 0
-12310 2071 0
-11190 -2231 0
-950 -11190 951 0
950 -11190 -951 0
-12470 2231 0
-11350 -2391 0
-1110 -11350 1111 0
1110 -11350 -1111 0
-12630 2391 0
-310 -11830 -311 0
310 -11830 311 0
-470 -11990 -471 0
470 -11990 471 0
-630 -12150 -631 0
630 -12150 631 0
-790 -12310 -791 0
790 -12310 791 0
-950 -12470 -951 0
950 -12470 951 0
-1110 -12630 -1111 0
1110 -12630 1111 0
-1270 -12790 -1271 0
1270 -12790 1271 0
14231 -151 152 0
14231 151 -152 0
14231 -1431 1432 0
14231 1431 -1432 0
14391 -311 312 0
14391 311 -312 0
14391 -1591 1592 0
14391 1591 -1592 0
14551 -471 472 0
14551 471 -472 0
14551 -1751 1752 0
14551 1751 -1752 0
14711 -631 632 0
14711 631 -632 0
14711 -1911 1912 0
14711 1911 -1912 0
14871 -791 792 0
14871 791 -792 0
14871 -2071 2072 0
14871 2071 -2072 0
15031 -951 952 0
15031 951 -952 0
15031 -2231 2232 0
15031 2231 -2232 0
15191 -1111 1112 0
15191 1111 -1112 0
15191 -2391 2392 0
15191 2391 -2392 0
15351 -1271 1272 0
15351 1271 -1272 0
15351 -2551 2552 0
15351 2551 -2552 0
-151 -10391 -152 0
151 -10391 152 0
-10551 -1592 0
-311 -10551 312 0
311 -10551 -312 0
-11831 1592 0
-10711 -1752 0
-471 -10711 472 0
471 -10711 -472 0
-11991 1752 0
-10871 -1912 0
-631 -10871 632 0
631 -10871 -632 0
-12151 1912 0
-11031 -2072 0
-791 -11031 792 0
791 -11031 -792 0
-12311 2072 0
-11191 -2232 0
-951 -11191 952 0
951 -11191 -952 0
-12471 2232 0
-11351 -2392 0
-1111 -11351 1112 0
1111 -11351 -1112 0
-12631 2392 0
-311 -11831 -312 0
311 -11831 312 0
-471 -11991 -472 0
471 -11991 472 0
-631 -12151 -632 0
631 -12151 632 0
-791 -12311 -792 0
791 -12311 792 0
-951 -12471 -952 0
951 -12471 952 0
-1111 -12631 -1112 0
1111 -12631 1112 0
-1271 -12791 -1272 0
1271 -12791 1272 0
14232 -152 153 0
14232 152 -153 0
14232 -1432 1433 0
14232 1432 -1433 0
14392 -312 313 0
14392 312 -313 0
14392 -1592 1593 0
14392 1592 -1593 0
14552 -472 473 0
14552 472 -473 0
14552 -1752 1753 0
14552 1752 -1753 0
14712 -632 633 0
14712 632 -633 0
14712 -1912 1913 0
14712 1912 -1913 0
14872 -792 793 0
14872 792 -793 0
14872 -2072 2073 0
14872 2072 -2073 0
15032 -952 953 0
15032 952 -953 0
15032 -2232 2233 0
15032 2232 -2233 0
15192 -1112 1113 0
15192 1112 -1113 0
15192 -2392 2393 0
15192 2392 -2393 0
15352 -1272 1273 0
15352 1272 -1273 0
15352 -2552 2553 0
15352 2552 -2553 0
-152 -10392 -153 0
152 -10392 153 0
-10552 -1593 0
-312 -10552 313 0
312 -10552 -313 0
-11832 1593 0
-10712 -1753 0
-472 -10712 473 0
472 -10712 -473 0
-11992 1753 0
-10872 -1913 0
-632 -10872 633 0
632 -10872 -633 0
-12152 1913 0
-11032 -2073 0
-792 -11032 793 0
792 -11032 -793 0
-12312 2073 0
-11192 -2233 0
-952 -11192 953 0
952 -11192 -953 0
-12472 2233 0
-11352 -2393 0
-1112 -11352 1113 0
1112 -11352 -1113 0
-12632 2393 0
-312 -11832 -313 0
312 -11832 313 0
-472 -11992 -473 0
472 -11992 473 0
-632 -12152 -633 0
632 -12152 633 0
-792 -12312 -793 0
792 -12312 793 0
-952 -12472 -953 0
952 -12472 953 0
-1112 -12632 -1113 0
1112 -12632 1113 0
-1272 -12792 -1273 0
1272 -12792 1273 0
14233 -153 154 0
14233 153 -154 0
14233 -1433 1434 0
14233 1433 -1434 0
14393 -313 314 0
14393 313 -314 0
14393 -1593 1594 0
14393 1593 -1594 0
14553 -473 474 0
14553 473 -474 0
14553 -1753 1754 0
14553 1753 -1754 0
14713 -633 634 0
14713 633 -634 0
14713 -1913 1914 0
14713 1913 -1914 0
14873 -793 794 0
14873 793 -794 0
14873 -2073 2074 0
14873 2073 -2074 0
15033 -953 954 0
15033 953 -954 0
15033 -2233 2234 0
15033 2233 -2234 0
15193 -1113 1114 0
15193 1113 -1114 0
15193 -2393 2394 0
15193 2393 -2394 0
15353 -1273 1274 0
15353 1273 -1274 0
15353 -2553 2554 0
15353 2553 -2554 0
-153 -10393 -154 0
153 -10393 154 0
-10553 -1594 0
-313 -10553 314 0
313 -10553 -314 0
-11833 1594 0
-10713 -1754 0
-473 -10713 474 0
473 -10713 -474 0
-11993 1754 0
-10873 -1914 0
-633 -10873 634 0
633 -10873 -634 0
-12153 1914 0
-11033 -2074 0
-793 -11033 794 0
793 -11033 -794 0
-12313 2074 0
-11193 -2234 0
-953 -11193 954 0
953 -11193 -954 0
-12473 2234 0
-11353 -2394 0
-1113 -11353 1114 0
1113 -11353 -1114 0
-12633 2394 0
-313 -11833 -314 0
313 -11833 314 0
-473 -11993 -474 0
473 -11993 474 0
-633 -12153 -634 0
633 -12153 634 0
-793 -12313 -794 0
793 -12313 794 0
-953 -12473 -954 0
953 -12473 954 0
-1113 -12633 -1114 0
1113 -12633 1114 0
-1273 -12793 -1274 0
1273 -12793 1274 0
14234 -154 155 0
14234 154 -155 0
14234 -1434 1435 0
14234 1434 -1435 0
14394 -314 315 0
14394 314 -315 0
14394 -1594 1595 0
14394 1594 -1595 0
14554 -474 475 0
14554 474 -475 0
14554 -1754 1755 0
14554 1754 -1755 0
14714 -634 635 0
14714 634 -635 0
14714 -1914 1915 0
14714 1914 -1915 0
14874 -794 795 0
14874 794 -795 0
14874 -2074 2075 0
14874 2074 -2075 0
15034 -954 955 0
15034 954 -955 0
15034 -2234 2235 0
15034 2234 -2235 0
15194 -1114 1115 0
15194 1114 -1115 0
15194 -2394 2395 0
15194 2394 -2395 0
15354 -1274 1275 0
15354 1274 -1275 0
15354 -2554 2555 0
15354 2554 -2555 0
-154 -10394 -155 0
154 -10394 155 0
-10554 -1595 0
-314 -10554 315 0
314 -10554 -315 0
-11834 1595 0
-10714 -1755 0
-474 -10714 475 0
474 -10714 -475 0
-11994 1755 0
-10874 -1915 0
-634 -10874 635 0
634 -10874 -635 0
-12154 1915 0
-11034 -2075 0
-794 -11034 795 0
794 -11034 -795 0
-12314 2075 0
-11194 -2235 0
-954 -11194 955 0
954 -11194 -955 0
-12474 2235 0
-11354 -2395 0
-1114 -11354 1115 0
1114 -11354 -1115 0
-12634 2395 0
-314 -11834 -315 0
314 -11834 315 0
-474 -11994 -475 0
474 -11994 475 0
-634 -12154 -635 0
634 -12154 635 0
-794 -12314 -795 0
794 -12314 795 0
-954 -12474 -955 0
954 -12474 955 0
-1114 -12634 -1115 0
1114 -12634 1115 0
-1274 -12794 -1275 0
1274 -12794 1275 0
14235 -155 156 0
14235 155 -156 0
14235 -1435 1436 0
14235 1435 -1436 0
14395 -315 316 0
14395 315 -316 0
14395 -1595 1596 0
14395 1595 -1596 0
14555 -475 476 0
14555 475 -476 0
14555 -1755 1756 0
14555 1755 -1756 0
14715 -635 636 0
14715 635 -636 0
14715 -1915 1916 0
14715 1915 -1916 0
14875 -795 796 0
14875 795 -796 0
14875 -2075 2076 0
14875 2075 -2076 0
15035 -955 956 0
15035 955 -956 0
15035 -2235 2236 0
15035 2235 -2236 0
15195 -1115 1116 0
15195 1115 -1116 0
15195 -2395 2396 0
15195 2395 -2396 0
15355 -1275 1276 0
15355 1275 -1276 0
15355 -2555 2556 0
15355 2555 -2556 0
-155 -10395 -156 0
155 -10395 156 0
-10555 -1596 0
-315 -10555 316 0
315 -10555 -316 0
-11835 1596 0
-10715 -1756 0
-475 -10715 476 0
475 -10715 -476 0
-11995 1756 0
-10875 -1916 0
-635 -10875 636 0
635 -10875 -636 0
-12155 1916 0
-11035 -2076 0
-795 -11035 796 0
795 -11035 -796 0
-12315 2076 0
-11195 -2236 0
-955 -11195 956 0
955 -11195 -956 0
-12475 2236 0
-11355 -2396 0
-1115 -11355 1116 0
1115 -11355 -1116 0
-12635 2396 0
-315 -11835 -316 0
315 -11835 316 0
-475 -11995 -476 0
475 -11995 476 0
-635 -12155 -636 0
635 -12155 636 0
-795 -12315 -796 0
795 -12315 796 0
-955 -12475 -956 0
955 -12475 956 0
-1115 -12635 -1116 0
1115 -12635 1116 0
-1275 -12795 -1276 0
1275 -12795 1276 0
14236 -156 157 0
14236 156 -157 0
14236 -1436 1437 0
14236 1436 -1437 0
14396 -316 317 0
14396 316 -317 0
14396 -1596 1597 0
14396 1596 -1597 0
14556 -476 477 0
14556 476 -477 0
14556 -1756 1757 0
14556 1756 -1757 0
14716 -636 637 0
14716 636 -637 0
14716 -1916 1917 0
14716 1916 -1917 0
14876 -796 797 0
14876 796 -797 0
14876 -2076 2077 0
14876 2076 -2077 0
15036 -956 957 0
15036 956 -957 0
15036 -2236 2237 0
15036 2236 -2237 0
15196 -1116 1117 0
15196 1116 -1117 0
15196 -2396 2397 0
15196 2396 -2397 0
15356 -1276 1277 0
15356 1276 -1277 0
15356 -2556 2557 0
15356 2556 -2557 0
-156 -10396 -157 0
156 -10396 157 0
-10556 -1597 0
-316 -10556 317 0
316 -10556 -317 0
-11836 1597 0
-10716 -1757 0
-476 -10716 477 0
476 -10716 -477 0
-11996 1757 0
-10876 -1917 0
-636 -10876 637 0
636 -10876 -637 0
-12156 1917 0
-11036 -2077 0
-796 -11036 797 0
796 -11036 -797 0
-12316 2077 0
-11196 -2237 0
-956 -11196 957 0
956 -11196 -957 0
-12476 2237 0
-11356 -2397 0
-1116 -11356 1117 0
1116 -11356 -1117 0
-12636 2397 0
-316 -11836 -317 0
316 -11836 317 0
-476 -11996 -477 0
476 -11996 477 0
-636 -12156 -637 0
636 -12156 637 0
-796 -12316 -797 0
796 -12316 797 0
-956 -12476 -957 0
956 -12476 957 0
-1116 -12636 -1117 0
1116 -12636 1117 0
-1276 -12796 -1277 0
1276 -12796 1277 0
14237 -157 158 0
14237 157 -158 0
14237 -1437 1438 0
14237 1437 -1438 0
14397 -317 318 0
14397 317 -318 0
14397 -1597 1598 0
14397 1597 -1598 0
14557 -477 478 0
14557 477 -478 0
14557 -1757 1758 0
14557 1757 -1758 0
14717 -637 638 0
14717 637 -638 0
14717 -1917 1918 0
14717 1917 -1918 0
14877 -797 798 0
14877 797 -798 0
14877 -2077 2078 0
14877 2077 -2078 0
15037 -957 958 0
15037 957 -958 0
15037 -2237 2238 0
15037 2237 -2238 0
15197 -1117 1118 0
15197 1117 -1118 0
15197 -2397 2398 0
15197 2397 -2398 0
15357 -1277 1278 0
15357 1277 -1278 0
15357 -2557 2558 0
15357 2557 -2558 0
-157 -10397 -158 0
157 -10397 158 0
-10557 -1598 0
-317 -10557 318 0
317 -10557 -318 0
-11837 1598 0
-10717 -1758 0
-477 -10717 478 0
477 -10717 -478 0
-11997 1758 0
-10877 -1918 0
-637 -10877 638 0
637 -10877 -638 0
-12157 1918 0
-11037 -2078 0
-797 -11037 798 0
797 -11037 -798 0
-12317 2078 0
-11197 -2238 0
-957 -11197 958 0
957 -11197 -958 0
-12477 2238 0
-11357 -2398 0
-1117 -11357 1118 0
1117 -11357 -1118 0
-12637 2398 0
-317 -11837 -318 0
317 -11837 318 0
-477 -11997 -478 0
477 -11997 478 0
-637 -12157 -638 0
637 -12157 638 0
-797 -12317 -798 0
797 -12317 798 0
-957 -12477 -958 0
957 -12477 958 0
-1117 -12637 -1118 0
1117 -12637 1118 0
-1277 -12797 -1278 0
1277 -12797 1278 0
14238 -158 159 0
14238 158 -159 0
14238 -1438 1439 0
14238 1438 -1439 0
14398 -318 319 0
14398 318 -319 0
14398 -1598 1599 0
14398 1598 -1599 0
14558 -478 479 0
14558 478 -479 0
14558 -1758 1759 0
14558 1758 -1759 0
14718 -638 639 0
14718 638 -639 0
14718 -1918 1919 0
14718 1918 -1919 0
14878 -798 799 0
14878 798 -799 0
14878 -2078 2079 0
14878 2078 -2079 0
15038 -958 959 0
15038 958 -959 0
15038 -2238 2239 0
15038 2238 -2239 0
15198 -1118 1119 0
15198 1118 -1119 0
15198 -2398 2399 0
15198 2398 -2399 0
15358 -1278 1279 0
15358 1278 -1279 0
15358 -2558 2559 0
15358 2558 -2559 0
-158 -10398 -159 0
158 -10398 159 0
-10558 -1599 0
-318 -10558 319 0
318 -10558 -319 0
-11838 1599 0
-10718 -1759 0
-478 -10718 479 0
478 -10718 -479 0
-11998 1759 0
-10878 -1919 0
-638 -10878 639 0
638 -10878 -639 0
-12158 1919 0
-11038 -2079 0
-798 -11038 799 0
798 -11038 -799 0
-12318 2079 0
-11198 -2239 0
-958 -11198 959 0
958 -11198 -959 0
-12478 2239 0
-11358 -2399 0
-1118 -11358 1119 0
1118 -11358 -1119 0
-12638 2399 0
-318 -11838 -319 0
318 -11838 319 0
-478 -11998 -479 0
478 -11998 479 0
-638 -12158 -639 0
638 -12158 639 0
-798 -12318 -799 0
798 -12318 799 0
-958 -12478 -959 0
958 -12478 959 0
-1118 -12638 -1119 0
1118 -12638 1119 0
-1278 -12798 -1279 0
1278 -12798 1279 0
14239 -159 160 0
14239 159 -160 0
14239 -1439 1440 0
14239 1439 -1440 0
14399 -319 320 0
14399 319 -320 0
14399 -1599 1600 0
14399 1599 -1600 0
14559 -479 480 0
14559 479 -480 0
14559 -1759 1760 0
14559 1759 -1760 0
14719 -639 640 0
14719 639 -640 0
14719 -1919 1920 0
14719 1919 -1920 0
14879 -799 800 0
14879 799 -800 0
14879 -2079 2080 0
14879 2079 -2080 0
15039 -959 960 0
15039 959 -960 0
15039 -2239 2240 0
15039 2239 -2240 0
15199 -1119 1120 0
15199 1119 -1120 0
15199 -2399 2400 0
15199 2399 -2400 0
15359 -1279 1280 0
15359 1279 -1280 0
15359 -2559 2560 0
15359 2559 -2560 0
-159 -10399 -160 0
159 -10399 160 0
-10559 -1600 0
-319 -10559 320 0
319 -10559 -320 0
-11839 1600 0
-10719 -1760 0
-479 -10719 480 0
479 -10719 -480 0
-11999 1760 0
-10879 -1920 0
-639 -10879 640 0
639 -10879 -640 0
-12159 1920 0
-11039 -2080 0
-799 -11039 800 0
799 -11039 -800 0
-12319 2080 0
-11199 -2240 0
-959 -11199 960 0
959 -11199 -960 0
-12479 2240 0
-11359 -2400 0
-1119 -11359 1120 0
1119 -11359 -1120 0
-12639 2400 0
-319 -11839 -320 0
319 -11839 320 0
-479 -11999 -480 0
479 -11999 480 0
-639 -12159 -640 0
639 -12159 640 0
-799 -12319 -800 0
799 -12319 800 0
-959 -12479 -960 0
959 -12479 960 0
-1119 -12639 -1120 0
1119 -12639 1120 0
-1279 -12799 -1280 0
1279 -12799 1280 0
1281 0
-2401 0
-2561 3841 0
-2561 5121 0
-2561 1281 0
-2561 -1441 0
2561 -3841 -5121 -1281 1441 0
-1 161 -3841 0
1 3841 0
-161 3841 0
1 -161 -5121 0
-1 5121 0
161 5121 0
-2721 4001 0
-2721 5281 0
-2721 1441 0
-2721 -1601 0
2721 -4001 -5281 -1441 1601 0
-161 321 -4001 0
161 4001 0
-321 4001 0
161 -321 -5281 0
-161 5281 0
321 5281 0
-2881 4161 0
-2881 5441 0
-2881 1601 0
-2881 -1761 0
2881 -4161 -5441 -1601 1761 0
-321 481 -4161 0
321 4161 0
-481 4161 0
321 -481 -5441 0
-321 5441 0
481 5441 0
-3041 4321 0
-3041 5601 0
-3041 1761 0
-3041 -1921 0
3041 -4321 -5601 -1761 1921 0
-481 641 -4321 0
481 4321 0
-641 4321 0
481 -641 -5601 0
-481 5601 0
641 5601 0
-3201 4481 0
-3201 5761 0
-3201 1921 0
-3201 -2081 0
3201 -4481 -5761 -1921 2081 0
-641 801 -4481 0
641 4481 0
-801 4481 0
641 -801 -5761 0
-641 5761 0
801 5761 0
-3361 4641 0
-3361 5921 0
-3361 2081 0
-3361 -2241 0
3361 -4641 -5921 -2081 2241 0
-801 961 -4641 0
801 4641 0
-961 4641 0
801 -961 -5921 0
-801 5921 0
961 5921 0
-3521 4801 0
-3521 6081 0
-3521 2241 0
-3521 -2401 0
3521 -4801 -6081 -2241 2401 0
-961 1121 -4801 0
961 4801 0
-1121 4801 0
961 -1121 -6081 0
-961 6081 0
1121 6081 0
6561 7841 0
6561 9121 0
-6561 -7841 -9121 0
-161 1 -7841 0
161 7841 0
-1 7841 0
161 -1 -9121 0
-161 9121 0
1 9121 0
6721 8001 0
6721 9281 0
-6721 -8001 -9281 0
-321 161 -8001 0
321 8001 0
-161 8001 0
321 -161 -9281 0
-321 9281 0
161 9281 0
6881 8161 0
6881 9441 0
-6881 -8161 -9441 0
-481 321 -8161 0
481 8161 0
-321 8161 0
481 -321 -9441 0
-481 9441 0
321 9441 0
7041 8321 0
7041 9601 0
-7041 -8321 -9601 0
-641 481 -8321 0
641 8321 0
-481 8321 0
641 -481 -9601 0
-641 9601 0
481 9601 0
7201 8481 0
7201 9761 0
-7201 -8481 -9761 0
-801 641 -8481 0
801 8481 0
-641 8481 0
801 -641 -9761 0
-801 9761 0
641 9761 0
7361 8641 0
7361 9921 0
-7361 -8641 -9921 0
-961 801 -8641 0
961 8641 0
-801 8641 0
961 -801 -9921 0
-961 9921 0
801 9921 0
7521 8801 0
7521 10081 0
-7521 -8801 -10081 0
-1121 961 -8801 0
1121 8801 0
-961 8801 0
1121 -961 -10081 0
-1121 10081 0
961 10081 0
1282 0
-2402 0
-2562 3842 0
-2562 5122 0
-2562 1282 0
-2562 -1442 0
2562 -3842 -5122 -1282 1442 0
-2 162 -3842 0
2 3842 0
-162 3842 0
2 -162 -5122 0
-2 5122 0
162 5122 0
-2722 4002 0
-2722 5282 0
-2722 1442 0
-2722 -1602 0
2722 -4002 -5282 -1442 1602 0
-162 322 -4002 0
162 4002 0
-322 4002 0
162 -322 -5282 0
-162 5282 0
322 5282 0
-2882 4162 0
-2882 5442 0
-2882 1602 0
-2882 -1762 0
2882 -4162 -5442 -1602 1762 0
-322 482 -4162 0
322 4162 0
-482 4162 0
322 -482 -5442 0
-322 5442 0
482 5442 0
-3042 4322 0
-3042 5602 0
-3042 1762 0
-3042 -1922 0
3042 -4322 -5602 -1762 1922 0
-482 642 -4322 0
482 4322 0
-642 4322 0
482 -642 -5602 0
-482 5602 0
642 5602 0
-3202 4482 0
-3202 5762 0
-3202 1922 0
-3202 -2082 0
3202 -4482 -5762 -1922 2082 0
-642 802 -4482 0
642 4482 0
-802 4482 0
642 -802 -5762 0
-642 5762 0
802 5762 0
-3362 4642 0
-3362 5922 0
-3362 2082 0
-3362 -2242 0
3362 -4642 -5922 -2082 2242 0
-802 962 -4642 0
802 4642 0
-962 4642 0
802 -962 -5922 0
-802 5922 0
962 5922 0
-3522 4802 0
-3522 6082 0
-3522 2242 0
-3522 -2402 0
3522 -4802 -6082 -2242 2402 0
-962 1122 -4802 0
962 4802 0
-1122 4802 0
962 -1122 -6082 0
-962 6082 0
1122 6082 0
6562 7842 0
6562 9122 0
-6562 -7842 -9122 0
-162 2 -7842 0
162 7842 0
-2 7842 0
162 -2 -9122 0
-162 9122 0
2 9122 0
6722 8002 0
6722 9282 0
-6722 -8002 -9282 0
-322 162 -8002 0
322 8002 0
-162 8002 0
322 -162 -9282 0
-322 9282 0
162 9282 0
6882 8162 0
6882 9442 0
-6882 -8162 -9442 0
-482 322 -8162 0
482 8162 0
-322 8162 0
482 -322 -9442 0
-482 9442 0
322 9442 0
7042 8322 0
7042 9602 0
-7042 -8322 -9602 0
-642 482 -8322 0
642 8322 0
-482 8322 0
642 -482 -9602 0
-642 9602 0
482 9602 0
7202 8482 0
7202 9762 0
-7202 -8482 -9762 0
-802 642 -8482 0
802 8482 0
-642 8482 0
802 -642 -9762 0
-802 9762 0
642 9762 0
7362 8642 0
7362 9922 0
-7362 -8642 -9922 0
-962 802 -8642 0
962 8642 0
-802 8642 0
962 -802 -9922 0
-962 9922 0
802 9922 0
7522 8802 0
7522 10082 0
-7522 -8802 -10082 0
-1122 962 -8802 0
1122 8802 0
-962 8802 0
1122 -962 -10082 0
-1122 10082 0
962 10082 0
1283 0
-2403 0
-2563 3843 0
-2563 5123 0
-2563 1283 0
-2563 -1443 0
2563 -3843 -5123 -1283 1443 0
-3 163 -3843 0
3 3843 0
-163 3843 0
3 -163 -5123 0
-3 5123 0
163 5123 0
-2723 4003 0
-2723 5283 0
-2723 1443 0
-2723 -1603 0
2723 -4003 -5283 -1443 1603 0
-163 323 -4003 0
163 4003 0
-323 4003 0
163 -323 -5283 0
-163 5283 0
323 5283 0
-2883 4163 0
-2883 5443 0
-2883 1603 0
-2883 -1763 0
2883 -4163 -5443 -1603 1763 0
-323 483 -4163 0
323 4163 0
-483 4163 0
323 -483 -5443 0
-323 5443 0
483 5443 0
-3043 4323 0
-3043 5603 0
-3043 1763 0
-3043 -1923 0
3043 -4323 -5603 -1763 1923 0
-483 643 -4323 0
483 4323 0
-643 4323 0
483 -643 -5603 0
-483 5603 0
643 5603 0
-3203 4483 0
-3203 5763 0
-3203 1923 0
-3203 -2083 0
3203 -4483 -5763 -1923 2083 0
-643 803 -4483 0
643 4483 0
-803 4483 0
643 -803 -5763 0
-643 5763 0
803 5763 0
-3363 4643 0
-3363 5923 0
-3363 2083 0
-3363 -2243 0
3363 -4643 -5923 -2083 2243 0
-803 963 -4643 0
803 4643 0
-963 4643 0
803 -963 -5923 0
-803 5923 0
963 5923 0
-3523 4803 0
-3523 6083 0
-3523 2243 0
-3523 -2403 0
3523 -4803 -6083 -2243 2403 0
-963 1123 -4803 0
963 4803 0
-1123 4803 0
963 -1123 -6083 0
-963 6083 0
1123 6083 0
6563 7843 0
6563 9123 0
-6563 -7843 -9123 0
-163 3 -7843 0
163 7843 0
-3 7843 0
163 -3 -9123 0
-163 9123 0
3 9123 0
6723 8003 0
6723 9283 0
-6723 -8003 -9283 0
-323 163 -8003 0
323 8003 0
-163 8003 0
323 -163 -9283 0
-323 9283 0
163 9283 0
6883 8163 0
6883 9443 0
-6883 -8163 -9443 0
-483 323 -8163 0
483 8163 0
-323 8163 0
483 -323 -9443 0
-483 9443 0
323 9443 0
7043 8323 0
7043 9603 0
-7043 -8323 -9603 0
-643 483 -8323 0
643 8323 0
-483 8323 0
643 -483 -9603 0
-643 9603 0
483 9603 0
7203 8483 0
7203 9763 0
-7203 -8483 -9763 0
-803 643 -8483 0
803 8483 0
-643 8483 0
803 -643 -9763 0
-803 9763 0
643 9763 0
7363 8643 0
7363 9923 0
-7363 -8643 -9923 0
-963 803 -8643 0
963 8643 0
-803 8643 0
963 -803 -9923 0
-963 9923 0
803 9923 0
7523 8803 0
7523 10083 0
-7523 -8803 -10083 0
-1123 963 -8803 0
1123 8803 0
-963 8803 0
1123 -963 -10083 0
-1123 10083 0
963 10083 0
1284 0
-2404 0
-2564 3844 0
-2564 5124 0
-2564 1284 0
-2564 -1444 0
2564 -3844 -5124 -1284 1444 0
-4 164 -3844 0
4 3844 0
-164 3844 0
4 -164 -5124 0
-4 5124 0
164 5124 0
-2724 4004 0
-2724 5284 0
-2724 1444 0
-2724 -1604 0
2724 -4004 -5284 -1444 1604 0
-164 324 -4004 0
164 4004 0
-324 4004 0
164 -324 -5284 0
-164 5284 0
324 5284 0
-2884 4164 0
-2884 5444 0
-2884 1604 0
-2884 -1764 0
2884 -4164 -5444 -1604 1764 0
-324 484 -4164 0
324 4164 0
-484 4164 0
324 -484 -5444 0
-324 5444 0
484 5444 0
-3044 4324 0
-3044 5604 0
-3044 1764 0
-3044 -1924 0
3044 -4324 -5604 -1764 1924 0
-484 644 -4324 0
484 4324 0
-644 4324 0
484 -644 -5604 0
-484 5604 0
644 5604 0
-3204 4484 0
-3204 5764 0
-3204 1924 0
-3204 -2084 0
3204 -4484 -5764 -1924 2084 0
-644 804 -4484 0
644 4484 0
-804 4484 0
644 -804 -5764 0
-644 5764 0
804 5764 0
-3364 4644 0
-3364 5924 0
-3364 2084 0
-3364 -2244 0
3364 -4644 -5924 -2084 2244 0
-804 964 -4644 0
804 4644 0
-964 4644 0
804 -964 -5924 0
-804 5924 0
964 5924 0
-3524 4804 0
-3524 6084 0
-3524 2244 0
-3524 -2404 0
3524 -4804 -6084 -2244 2404 0
-964 1124 -4804 0
964 4804 0
-1124 4804 0
964 -1124 -6084 0
-964 6084 0
1124 6084 0
6564 7844 0
6564 9124 0
-6564 -7844 -9124 0
-164 4 -7844 0
164 7844 0
-4 7844 0
164 -4 -9124 0
-164 9124 0
4 9124 0
6724 8004 0
6724 9284 0
-6724 -8004 -9284 0
-324 164 -8004 0
324 8004 0
-164 8004 0
324 -164 -9284 0
-324 9284 0
164 9284 0
6884 8164 0
6884 9444 0
-6884 -8164 -9444 0
-484 324 -8164 0
484 8164 0
-324 8164 0
484 -324 -9444 0
-484 9444 0
324 9444 0
7044 8324 0
7044 9604 0
-7044 -8324 -9604 0
-644 484 -8324 0
644 8324 0
-484 8324 0
644 -484 -9604 0
-644 9604 0
484 9604 0
7204 8484 0
7204 9764 0
-7204 -8484 -9764 0
-804 644 -8484 0
804 8484 0
-644 8484 0
804 -644 -9764 0
-804 9764 0
644 9764 0
7364 8644 0
7364 9924 0
-7364 -8644 -9924 0
-964 804 -8644 0
964 8644 0
-804 8644 0
964 -804 -9924 0
-964 9924 0
804 9924 0
7524 8804 0
7524 10084 0
-7524 -8804 -10084 0
-1124 964 -8804 0
1124 8804 0
-964 8804 0
1124 -964 -10084 0
-1124 10084 0
964 10084 0
1285 0
-2405 0
-2565 3845 0
-2565 5125 0
-2565 1285 0
-2565 -1445 0
2565 -3845 -5125 -1285 1445 0
-5 165 -3845 0
5 3845 0
-165 3845 0
5 -165 -5125 0
-5 5125 0
165 5125 0
-2725 4005 0
-2725 5285 0
-2725 1445 0
-2725 -1605 0
2725 -4005 -5285 -1445 1605 0
-165 325 -4005 0
165 4005 0
-325 4005 0
165 -325 -5285 0
-165 5285 0
325 5285 0
-2885 4165 0
-2885 5445 0
-2885 1605 0
-2885 -1765 0
2885 -4165 -5445 -1605 1765 0
-325 485 -4165 0
325 4165 0
-485 4165 0
325 -485 -5445 0
-325 5445 0
485 5445 0
-3045 4325 0
-3045 5605 0
-3045 1765 0
-3045 -1925 0
3045 -4325 -5605 -1765 1925 0
-485 645 -4325 0
485 4325 0
-645 4325 0
485 -645 -5605 0
-485 5605 0
645 5605 0
-3205 4485 0
-3205 5765 0
-3205 1925 0
-3205 -2085 0
3205 -4485 -5765 -1925 2085 0
-645 805 -4485 0
645 4485 0
-805 4485 0
645 -805 -5765 0
-645 5765 0
805 5765 0
-3365 4645 0
-3365 5925 0
-3365 2085 0
-3365 -2245 0
3365 -4645 -5925 -2085 2245 0
-805 965 -4645 0
805 4645 0
-965 4645 0
805 -965 -5925 0
-805 5925 0
965 5925 0
-3525 4805 0
-3525 6085 0
-3525 2245 0
-3525 -2405 0
3525 -4805 -6085 -2245 2405 0
-965 1125 -4805 0
965 4805 0
-1125 4805 0
965 -1125 -6085 0
-965 6085 0
1125 6085 0
6565 7845 0
6565 9125 0
-6565 -7845 -9125 0
-165 5 -7845 0
165 7845 0
-5 7845 0
165 -5 -9125 0
-165 9125 0
5 9125 0
6725 8005 0
6725 9285 0
-6725 -8005 -9285 0
-325 165 -8005 0
325 8005 0
-165 8005 0
325 -165 -9285 0
-325 9285 0
165 9285 0
6885 8165 0
6885 9445 0
-6885 -8165 -9445 0
-485 325 -8165 0
485 8165 0
-325 8165 0
485 -325 -9445 0
-485 9445 0
325 9445 0
7045 8325 0
7045 9605 0
-7045 -8325 -9605 0
-645 485 -8325 0
645 8325 0
-485 8325 0
645 -485 -9605 0
-645 9605 0
485 9605 0
7205 8485 0
7205 9765 0
-7205 -8485 -9765 0
-805 645 -8485 0
805 8485 0
-645 8485 0
805 -645 -9765 0
-805 9765 0
645 9765 0
7365 8645 0
7365 9925 0
-7365 -8645 -9925 0
-965 805 -8645 0
965 8645 0
-805 8645 0
965 -805 -9925 0
-965 9925 0
805 9925 0
7525 8805 0
7525 10085 0
-7525 -8805 -10085 0
-1125 965 -8805 0
1125 8805 0
-965 8805 0
1125 -965 -10085 0
-1125 10085 0
965 10085 0
1286 0
-2406 0
-2566 3846 0
-2566 5126 0
-2566 1286 0
-2566 -1446 0
2566 -3846 -5126 -1286 1446 0
-6 166 -3846 0
6 3846 0
-166 3846 0
6 -166 -5126 0
-6 5126 0
166 5126 0
-2726 4006 0
-2726 5286 0
-2726 1446 0
-2726 -1606 0
2726 -4006 -5286 -1446 1606 0
-166 326 -4006 0
166 4006 0
-326 4006 0
166 -326 -5286 0
-166 5286 0
326 5286 0
-2886 4166 0
-2886 5446 0
-2886 1606 0
-2886 -1766 0
2886 -4166 -5446 -1606 1766 0
-326 486 -4166 0
326 4166 0
-486 4166 0
326 -486 -5446 0
-326 5446 0
486 5446 0
-3046 4326 0
-3046 5606 0
-3046 1766 0
-3046 -1926 0
3046 -4326 -5606 -1766 1926 0
-486 646 -4326 0
486 4326 0
-646 4326 0
486 -646 -5606 0
-486 5606 0
646 5606 0
-3206 4486 0
-3206 5766 0
-3206 1926 0
-3206 -2086 0
3206 -4486 -5766 -1926 2086 0
-646 806 -4486 0
646 4486 0
-806 4486 0
646 -806 -5766 0
-646 5766 0
806 5766 0
-3366 4646 0
-3366 5926 0
-3366 2086 0
-3366 -2246 0
3366 -4646 -5926 -2086 2246 0
-806 966 -4646 0
806 4646 0
-966 4646 0
806 -966 -5926 0
-806 5926 0
966 5926 0
-3526 4806 0
-3526 6086 0
-3526 2246 0
-3526 -2406 0
3526 -4806 -6086 -2246 2406 0
-966 1126 -4806 0
966 4806 0
-1126 4806 0
966 -1126 -6086 0
-966 6086 0
1126 6086 0
6566 7846 0
6566 9126 0
-6566 -7846 -9126 0
-166 6 -7846 0
166 7846 0
-6 7846 0
166 -6 -9126 0
-166 9126 0
6 9126 0
6726 8006 0
6726 9286 0
-6726 -8006 -9286 0
-326 166 -8006 0
326 8006 0
-166 8006 0
326 -166 -9286 0
-326 9286 0
166 9286 0
6886 8166 0
6886 9446 0
-6886 -8166 -9446 0
-486 326 -8166 0
486 8166 0
-326 8166 0
486 -326 -9446 0
-486 9446 0
326 9446 0
7046 8326 0
7046 9606 0
-7046 -8326 -9606 0
-646 486 -8326 0
646 8326 0
-486 8326 0
646 -486 -9606 0
-646 9606 0
486 9606 0
7206 8486 0
7206 9766 0
-7206 -8486 -9766 0
-806 646 -8486 0
806 8486 0
-646 8486 0
806 -646 -9766 0
-806 9766 0
646 9766 0
7366 8646 0
7366 9926 0
-7366 -8646 -9926 0
-966 806 -8646 0
966 8646 0
-806 8646 0
966 -806 -9926 0
-966 9926 0
806 9926 0
7526 8806 0
7526 10086 0
-7526 -8806 -10086 0
-1126 966 -8806 0
1126 8806 0
-966 8806 0
1126 -966 -10086 0
-1126 10086 0
966 10086 0
1287 0
-2407 0
-2567 3847 0
-2567 5127 0
-2567 1287 0
-2567 -1447 0
2567 -3847 -5127 -1287 1447 0
-7 167 -3847 0
7 3847 0
-167 3847 0
7 -167 -5127 0
-7 5127 0
167 5127 0
-2727 4007 0
-2727 5287 0
-2727 1447 0
-2727 -1607 0
2727 -4007 -5287 -1447 1607 0
-167 327 -4007 0
167 4007 0
-327 4007 0
167 -327 -5287 0
-167 5287 0
327 5287 0
-2887 4167 0
-2887 5447 0
-2887 1607 0
-2887 -1767 0
2887 -4167 -5447 -1607 1767 0
-327 487 -4167 0
327 4167 0
-487 4167 0
327 -487 -5447 0
-327 5447 0
487 5447 0
-3047 4327 0
-3047 5607 0
-3047 1767 0
-3047 -1927 0
3047 -4327 -5607 -1767 1927 0
-487 647 -4327 0
487 4327 0
-647 4327 0
487 -647 -5607 0
-487 5607 0
647 5607 0
-3207 4487 0
-3207 5767 0
-3207 1927 0
-3207 -2087 0
3207 -4487 -5767 -1927 2087 0
-647 807 -4487 0
647 4487 0
-807 4487 0
647 -807 -5767 0
-647 5767 0
807 5767 0
-3367 4647 0
-3367 5927 0
-3367 2087 0
-3367 -2247 0
3367 -4647 -5927 -2087 2247 0
-807 967 -4647 0
807 4647 0
-967 4647 0
807 -967 -5927 0
-807 5927 0
967 5927 0
-3527 4807 0
-3527 6087 0
-3527 2247 0
-3527 -2407 0
3527 -4807 -6087 -2247 2407 0
-967 1127 -4807 0
967 4807 0
-1127 4807 0
967 -1127 -6087 0
-967 6087 0
1127 6087 0
6567 7847 0
6567 9127 0
-6567 -7847 -9127 0
-167 7 -7847 0
167 7847 0
-7 7847 0
167 -7 -9127 0
-167 9127 0
7 9127 0
6727 8007 0
6727 9287 0
-6727 -8007 -9287 0
-327 167 -8007 0
327 8007 0
-167 8007 0
327 -167 -9287 0
-327 9287 0
167 9287 0
6887 8167 0
6887 9447 0
-6887 -8167 -9447 0
-487 327 -8167 0
487 8167 0
-327 8167 0
487 -327 -9447 0
-487 9447 0
327 9447 0
7047 8327 0
7047 9607 0
-7047 -8327 -9607 0
-647 487 -8327 0
647 8327 0
-487 8327 0
647 -487 -9607 0
-647 9607 0
487 9607 0
7207 8487 0
7207 9767 0
-7207 -8487 -9767 0
-807 647 -8487 0
807 8487 0
-647 8487 0
807 -647 -9767 0
-807 9767 0
647 9767 0
7367 8647 0
7367 9927 0
-7367 -8647 -9927 0
-967 807 -8647 0
967 8647 0
-807 8647 0
967 -807 -9927 0
-967 9927 0
807 9927 0
7527 8807 0
7527 10087 0
-7527 -8807 -10087 0
-1127 967 -8807 0
1127 8807 0
-967 8807 0
1127 -967 -10087 0
-1127 10087 0
967 10087 0
1288 0
-2408 0
-2568 3848 0
-2568 5128 0
-2568 1288 0
-2568 -1448 0
2568 -3848 -5128 -1288 1448 0
-8 168 -3848 0
8 3848 0
-168 3848 0
8 -168 -5128 0
-8 5128 0
168 5128 0
-2728 4008 0
-2728 5288 0
-2728 1448 0
-2728 -1608 0
2728 -4008 -5288 -1448 1608 0
-168 328 -4008 0
168 4008 0
-328 4008 0
168 -328 -5288 0
-168 5288 0
328 5288 0
-2888 4168 0
-2888 5448 0
-2888 1608 0
-2888 -1768 0
2888 -4168 -5448 -1608 1768 0
-328 488 -4168 0
328 4168 0
-488 4168 0
328 -488 -5448 0
-328 5448 0
488 5448 0
-3048 4328 0
-3048 5608 0
-3048 1768 0
-3048 -1928 0
3048 -4328 -5608 -1768 1928 0
-488 648 -4328 0
488 4328 0
-648 4328 0
488 -648 -5608 0
-488 5608 0
648 5608 0
-3208 4488 0
-3208 5768 0
-3208 1928 0
-3208 -2088 0
3208 -4488 -5768 -1928 2088 0
-648 808 -4488 0
648 4488 0
-808 4488 0
648 -808 -5768 0
-648 5768 0
808 5768 0
-3368 4648 0
-3368 5928 0
-3368 2088 0
-3368 -2248 0
3368 -4648 -5928 -2088 2248 0
-808 968 -4648 0
808 4648 0
-968 4648 0
808 -968 -5928 0
-808 5928 0
968 5928 0
-3528 4808 0
-3528 6088 0
-3528 2248 0
-3528 -2408 0
3528 -4808 -6088 -2248 2408 0
-968 1128 -4808 0
968 4808 0
-1128 4808 0
968 -1128 -6088 0
-968 6088 0
1128 6088 0
6568 7848 0
6568 9128 0
-6568 -7848 -9128 0
-168 8 -7848 0
168 7848 0
-8 7848 0
168 -8 -9128 0
-168 9128 0
8 9128 0
6728 8008 0
6728 9288 0
-6728 -8008 -9288 0
-328 168 -8008 0
328 8008 0
-168 8008 0
328 -168 -9288 0
-328 9288 0
168 9288 0
6888 8168 0
6888 9448 0
-6888 -8168 -9448 0
-488 328 -8168 0
488 8168 0
-328 8168 0
488 -328 -9448 0
-488 9448 0
328 9448 0
7048 8328 0
7048 9608 0
-7048 -8328 -9608 0
-648 488 -8328 0
648 8328 0
-488 8328 0
648 -488 -9608 0
-648 9608 0
488 9608 0
7208 8488 0
7208 9768 0
-7208 -8488 -9768 0
-808 648 -8488 0
808 8488 0
-648 8488 0
808 -648 -9768 0
-808 9768 0
648 9768 0
7368 8648 0
7368 9928 0
-7368 -8648 -9928 0
-968 808 -8648 0
968 8648 0
-808 8648 0
968 -808 -9928 0
-968 9928 0
808 9928 0
7528 8808 0
7528 10088 0
-7528 -8808 -10088 0
-1128 968 -8808 0
1128 8808 0
-968 8808 0
1128 -968 -10088 0
-1128 10088 0
968 10088 0
1289 0
-2409 0
-2569 3849 0
-2569 5129 0
-2569 1289 0
-2569 -1449 0
2569 -3849 -5129 -1289 1449 0
-9 169 -3849 0
9 3849 0
-169 3849 0
9 -169 -5129 0
-9 5129 0
169 5129 0
-2729 4009 0
-2729 5289 0
-2729 1449 0
-2729 -1609 0
2729 -4009 -5289 -1449 1609 0
-169 329 -4009 0
169 4009 0
-329 4009 0
169 -329 -5289 0
-169 5289 0
329 5289 0
-2889 4169 0
-2889 5449 0
-2889 1609 0
-2889 -1769 0
2889 -4169 -5449 -1609 1769 0
-329 489 -4169 0
329 4169 0
-489 4169 0
329 -489 -5449 0
-329 5449 0
489 5449 0
-3049 4329 0
-3049 5609 0
-3049 1769 0
-3049 -1929 0
3049 -4329 -5609 -1769 1929 0
-489 649 -4329 0
489 4329 0
-649 4329 0
489 -649 -5609 0
-489 5609 0
649 5609 0
-3209 4489 0
-3209 5769 0
-3209 1929 0
-3209 -2089 0
3209 -4489 -5769 -1929 2089 0
-649 809 -4489 0
649 4489 0
-809 4489 0
649 -809 -5769 0
-649 5769 0
809 5769 0
-3369 4649 0
-3369 5929 0
-3369 2089 0
-3369 -2249 0
3369 -4649 -5929 -2089 2249 0
-809 969 -4649 0
809 4649 0
-969 4649 0
809 -969 -5929 0
-809 5929 0
969 5929 0
-3529 4809 0
-3529 6089 0
-3529 2249 0
-3529 -2409 0
3529 -4809 -6089 -2249 2409 0
-969 1129 -4809 0
969 4809 0
-1129 4809 0
969 -1129 -6089 0
-969 6089 0
1129 6089 0
6569 7849 0
6569 9129 0
-6569 -7849 -9129 0
-169 9 -7849 0
169 7849 0
-9 7849 0
169 -9 -9129 0
-169 9129 0
9 9129 0
6729 8009 0
6729 9289 0
-6729 -8009 -9289 0
-329 169 -8009 0
329 8009 0
-169 8009 0
329 -169 -9289 0
-329 9289 0
169 9289 0
6889 8169 0
6889 9449 0
-6889 -8169 -9449 0
-489 329 -8169 0
489 8169 0
-329 8169 0
489 -329 -9449 0
-489 9449 0
329 9449 0
7049 8329 0
7049 9609 0
-7049 -8329 -9609 0
-649 489 -8329 0
649 8329 0
-489 8329 0
649 -489 -9609 0
-649 9609 0
489 9609 0
7209 8489 0
7209 9769 0
-7209 -8489 -9769 0
-809 649 -8489 0
809 8489 0
-649 8489 0
809 -649 -9769 0
-809 9769 0
649 9769 0
7369 8649 0
7369 9929 0
-7369 -8649 -9929 0
-969 809 -8649 0
969 8649 0
-809 8649 0
969 -809 -9929 0
-969 9929 0
809 9929 0
7529 8809 0
7529 10089 0
-7529 -8809 -10089 0
-1129 969 -8809 0
1129 8809 0
-969 8809 0
1129 -969 -10089 0
-1129 10089 0
969 10089 0
1290 0
-2410 0
-2570 3850 0
-2570 5130 0
-2570 1290 0
-2570 -1450 0
2570 -3850 -5130 -1290 1450 0
-10 170 -3850 0
10 3850 0
-170 3850 0
10 -170 -5130 0
-10 5130 0
170 5130 0
-2730 4010 0
-2730 5290 0
-2730 1450 0
-2730 -1610 0
2730 -4010 -5290 -1450 1610 0
-170 330 -4010 0
170 4010 0
-330 4010 0
170 -330 -5290 0
-170 5290 0
330 5290 0
-2890 4170 0
-2890 5450 0
-2890 1610 0
-2890 -1770 0
2890 -4170 -5450 -1610 1770 0
-330 490 -4170 0
330 4170 0
-490 4170 0
330 -490 -5450 0
-330 5450 0
490 5450 0
-3050 4330 0
-3050 5610 0
-3050 1770 0
-3050 -1930 0
3050 -4330 -5610 -1770 1930 0
-490 650 -4330 0
490 4330 0
-650 4330 0
490 -650 -5610 0
-490 5610 0
650 5610 0
-3210 4490 0
-3210 5770 0
-3210 1930 0
-3210 -2090 0
3210 -4490 -5770 -1930 2090 0
-650 810 -4490 0
650 4490 0
-810 4490 0
650 -810 -5770 0
-650 5770 0
810 5770 0
-3370 4650 0
-3370 5930 0
-3370 2090 0
-3370 -2250 0
3370 -4650 -5930 -2090 2250 0
-810 970 -4650 0
810 4650 0
-970 4650 0
810 -970 -5930 0
-810 5930 0
970 5930 0
-3530 4810 0
-3530 6090 0
-3530 2250 0
-3530 -2410 0
3530 -4810 -6090 -2250 2410 0
-970 1130 -4810 0
970 4810 0
-1130 4810 0
970 -1130 -6090 0
-970 6090 0
1130 6090 0
6570 7850 0
6570 9130 0
-6570 -7850 -9130 0
-170 10 -7850 0
170 7850 0
-10 7850 0
170 -10 -9130 0
-170 9130 0
10 9130 0
6730 8010 0
6730 9290 0
-6730 -8010 -9290 0
-330 170 -8010 0
330 8010 0
-170 8010 0
330 -170 -9290 0
-330 9290 0
170 9290 0
6890 8170 0
6890 9450 0
-6890 -8170 -9450 0
-490 330 -8170 0
490 8170 0
-330 8170 0
490 -330 -9450 0
-490 9450 0
330 9450 0
7050 8330 0
7050 9610 0
-7050 -8330 -9610 0
-650 490 -8330 0
650 8330 0
-490 8330 0
650 -490 -9610 0
-650 9610 0
490 9610 0
7210 8490 0
7210 9770 0
-7210 -8490 -9770 0
-810 650 -8490 0
810 8490 0
-650 8490 0
810 -650 -9770 0
-810 9770 0
650 9770 0
7370 8650 0
7370 9930 0
-7370 -8650 -9930 0
-970 810 -8650 0
970 8650 0
-810 8650 0
970 -810 -9930 0
-970 9930 0
810 9930 0
7530 8810 0
7530 10090 0
-7530 -8810 -10090 0
-1130 970 -8810 0
1130 8810 0
-970 8810 0
1130 -970 -10090 0
-1130 10090 0
970 10090 0
1291 0
-2411 0
-2571 3851 0
-2571 5131 0
-2571 1291 0
-2571 -1451 0
2571 -3851 -5131 -1291 1451 0
-11 171 -3851 0
11 3851 0
-171 3851 0
11 -171 -5131 0
-11 5131 0
171 5131 0
-2731 4011 0
-2731 5291 0
-2731 1451 0
-2731 -1611 0
2731 -4011 -5291 -1451 1611 0
-171 331 -4011 0
171 4011 0
-331 4011 0
171 -331 -5291 0
-171 5291 0
331 5291 0
-2891 4171 0
-2891 5451 0
-2891 1611 0
-2891 -1771 0
2891 -4171 -5451 -1611 1771 0
-331 491 -4171 0
331 4171 0
-491 4171 0
331 -491 -5451 0
-331 5451 0
491 5451 0
-3051 4331 0
-3051 5611 0
-3051 1771 0
-3051 -1931 0
3051 -4331 -5611 -1771 1931 0
-491 651 -4331 0
491 4331 0
-651 4331 0
491 -651 -5611 0
-491 5611 0
651 5611 0
-3211 4491 0
-3211 5771 0
-3211 1931 0
-3211 -2091 0
3211 -4491 -5771 -1931 2091 0
-651 811 -4491 0
651 4491 0
-811 4491 0
651 -811 -5771 0
-651 5771 0
811 5771 0
-3371 4651 0
-3371 5931 0
-3371 2091 0
-3371 -2251 0
3371 -4651 -5931 -2091 2251 0
-811 971 -4651 0
811 4651 0
-971 4651 0
811 -971 -5931 0
-811 5931 0
971 5931 0
-3531 4811 0
-3531 6091 0
-3531 2251 0
-3531 -2411 0
3531 -4811 -6091 -2251 2411 0
-971 1131 -4811 0
971 4811 0
-1131 4811 0
971 -1131 -6091 0
-971 6091 0
1131 6091 0
6571 7851 0
6571 9131 0
-6571 -7851 -9131 0
-171 11 -7851 0
171 7851 0
-11 7851 0
171 -11 -9131 0
-171 9131 0
11 9131 0
6731 8011 0
6731 9291 0
-6731 -8011 -9291 0
-331 171 -8011 0
331 8011 0
-171 8011 0
331 -171 -9291 0
-331 9291 0
171 9291 0
6891 8171 0
6891 9451 0
-6891 -8171 -9451 0
-491 331 -8171 0
491 8171 0
-331 8171 0
491 -331 -9451 0
-491 9451 0
331 9451 0
7051 8331 0
7051 9611 0
-7051 -8331 -9611 0
-651 491 -8331 0
651 8331 0
-491 8331 0
651 -491 -9611 0
-651 9611 0
491 9611 0
7211 8491 0
7211 9771 0
-7211 -8491 -9771 0
-811 651 -8491 0
811 8491 0
-651 8491 0
811 -651 -9771 0
-811 9771 0
651 9771 0
7371 8651 0
7371 9931 0
-7371 -8651 -9931 0
-971 811 -8651 0
971 8651 0
-811 8651 0
971 -811 -9931 0
-971 9931 0
811 9931 0
7531 8811 0
7531 10091 0
-7531 -8811 -10091 0
-1131 971 -8811 0
1131 8811 0
-971 8811 0
1131 -971 -10091 0
-1131 10091 0
971 10091 0
1292 0
-2412 0
-2572 3852 0
-2572 5132 0
-2572 1292 0
-2572 -1452 0
2572 -3852 -5132 -1292 1452 0
-12 172 -3852 0
12 3852 0
-172 3852 0
12 -172 -5132 0
-12 5132 0
172 5132 0
-2732 4012 0
-2732 5292 0
-2732 1452 0
-2732 -1612 0
2732 -4012 -5292 -1452 1612 0
-172 332 -4012 0
172 4012 0
-332 4012 0
172 -332 -5292 0
-172 5292 0
332 5292 0
-2892 4172 0
-2892 5452 0
-2892 1612 0
-2892 -1772 0
2892 -4172 -5452 -1612 1772 0
-332 492 -4172 0
332 4172 0
-492 4172 0
332 -492 -5452 0
-332 5452 0
492 5452 0
-3052 4332 0
-3052 5612 0
-3052 1772 0
-3052 -1932 0
3052 -4332 -5612 -1772 1932 0
-492 652 -4332 0
492 4332 0
-652 4332 0
492 -652 -5612 0
-492 5612 0
652 5612 0
-3212 4492 0
-3212 5772 0
-3212 1932 0
-3212 -2092 0
3212 -4492 -5772 -1932 2092 0
-652 812 -4492 0
652 4492 0
-812 4492 0
652 -812 -5772 0
-652 5772 0
812 5772 0
-3372 4652 0
-3372 5932 0
-3372 2092 0
-3372 -2252 0
3372 -4652 -5932 -2092 2252 0
-812 972 -4652 0
812 4652 0
-972 4652 0
812 -972 -5932 0
-812 5932 0
972 5932 0
-3532 4812 0
-3532 6092 0
-3532 2252 0
-3532 -2412 0
3532 -4812 -6092 -2252 2412 0
-972 1132 -4812 0
972 4812 0
-1132 4812 0
972 -1132 -6092 0
-972 6092 0
1132 6092 0
6572 7852 0
6572 9132 0
-6572 -7852 -9132 0
-172 12 -7852 0
172 7852 0
-12 7852 0
172 -12 -9132 0
-172 9132 0
12 9132 0
6732 8012 0
6732 9292 0
-6732 -8012 -9292 0
-332 172 -8012 0
332 8012 0
-172 8012 0
332 -172 -9292 0
-332 9292 0
172 9292 0
6892 8172 0
6892 9452 0
-6892 -8172 -9452 0
-492 332 -8172 0
492 8172 0
-332 8172 0
492 -332 -9452 0
-492 9452 0
332 9452 0
7052 8332 0
7052 9612 0
-7052 -8332 -9612 0
-652 492 -8332 0
652 8332 0
-492 8332 0
652 -492 -9612 0
-652 9612 0
492 9612 0
7212 8492 0
7212 9772 0
-7212 -8492 -9772 0
-812 652 -8492 0
812 8492 0
-652 8492 0
812 -652 -9772 0
-812 9772 0
652 9772 0
7372 8652 0
7372 9932 0
-7372 -8652 -9932 0
-972 812 -8652 0
972 8652 0
-812 8652 0
972 -812 -9932 0
-972 9932 0
812 9932 0
7532 8812 0
7532 10092 0
-7532 -8812 -10092 0
-1132 972 -8812 0
1132 8812 0
-972 8812 0
1132 -972 -10092 0
-1132 10092 0
972 10092 0
1293 0
-2413 0
-2573 3853 0
-2573 5133 0
-2573 1293 0
-2573 -1453 0
2573 -3853 -5133 -1293 1453 0
-13 173 -3853 0
13 3853 0
-173 3853 0
13 -173 -5133 0
-13 5133 0
173 5133 0
-2733 4013 0
-2733 5293 0
-2733 1453 0
-2733 -1613 0
2733 -4013 -5293 -1453 1613 0
-173 333 -4013 0
173 4013 0
-333 4013 0
173 -333 -5293 0
-173 5293 0
333 5293 0
-2893 4173 0
-2893 5453 0
-2893 1613 0
-2893 -1773 0
2893 -4173 -5453 -1613 1773 0
-333 493 -4173 0
333 4173 0
-493 4173 0
333 -493 -5453 0
-333 5453 0
493 5453 0
-3053 4333 0
-3053 5613 0
-3053 1773 0
-3053 -1933 0
3053 -4333 -5613 -1773 1933 0
-493 653 -4333 0
493 4333 0
-653 4333 0
493 -653 -5613 0
-493 5613 0
653 5613 0
-3213 4493 0
-3213 5773 0
-3213 1933 0
-3213 -2093 0
3213 -4493 -5773 -1933 2093 0
-653 813 -4493 0
653 4493 0
-813 4493 0
653 -813 -5773 0
-653 5773 0
813 5773 0
-3373 4653 0
-3373 5933 0
-3373 2093 0
-3373 -2253 0
3373 -4653 -5933 -2093 2253 0
-813 973 -4653 0
813 4653 0
-973 4653 0
813 -973 -5933 0
-813 5933 0
973 5933 0
-3533 4813 0
-3533 6093 0
-3533 2253 0
-3533 -2413 0
3533 -4813 -6093 -2253 2413 0
-973 1133 -4813 0
973 4813 0
-1133 4813 0
973 -1133 -6093 0
-973 6093 0
1133 6093 0
6573 7853 0
6573 9133 0
-6573 -7853 -9133 0
-173 13 -7853 0
173 7853 0
-13 7853 0
173 -13 -9133 0
-173 9133 0
13 9133 0
6733 8013 0
6733 9293 0
-6733 -8013 -9293 0
-333 173 -8013 0
333 8013 0
-173 8013 0
333 -173 -9293 0
-333 9293 0
173 9293 0
6893 8173 0
6893 9453 0
-6893 -8173 -9453 0
-493 333 -8173 0
493 8173 0
-333 8173 0
493 -333 -9453 0
-493 9453 0
333 9453 0
7053 8333 0
7053 9613 0
-7053 -8333 -9613 0
-653 493 -8333 0
653 8333 0
-493 8333 0
653 -493 -9613 0
-653 9613 0
493 9613 0
7213 8493 0
7213 9773 0
-7213 -8493 -9773 0
-813 653 -8493 0
813 8493 0
-653 8493 0
813 -653 -9773 0
-813 9773 0
653 9773 0
7373 8653 0
7373 9933 0
-7373 -8653 -9933 0
-973 813 -8653 0
973 8653 0
-813 8653 0
973 -813 -9933 0
-973 9933 0
813 9933 0
7533 8813 0
7533 10093 0
-7533 -8813 -10093 0
-1133 973 -8813 0
1133 8813 0
-973 8813 0
1133 -973 -10093 0
-1133 10093 0
973 10093 0
1294 0
-2414 0
-2574 3854 0
-2574 5134 0
-2574 1294 0
-2574 -1454 0
2574 -3854 -5134 -1294 1454 0
-14 174 -3854 0
14 3854 0
-174 3854 0
14 -174 -5134 0
-14 5134 0
174 5134 0
-2734 4014 0
-2734 5294 0
-2734 1454 0
-2734 -1614 0
2734 -4014 -5294 -1454 1614 0
-174 334 -4014 0
174 4014 0
-334 4014 0
174 -334 -5294 0
-174 5294 0
334 5294 0
-2894 4174 0
-2894 5454 0
-2894 1614 0
-2894 -1774 0
2894 -4174 -5454 -1614 1774 0
-334 494 -4174 0
334 4174 0
-494 4174 0
334 -494 -5454 0
-334 5454 0
494 5454 0
-3054 4334 0
-3054 5614 0
-3054 1774 0
-3054 -1934 0
3054 -4334 -5614 -1774 1934 0
-494 654 -4334 0
494 4334 0
-654 4334 0
494 -654 -5614 0
-494 5614 0
654 5614 0
-3214 4494 0
-3214 5774 0
-3214 1934 0
-3214 -2094 0
3214 -4494 -5774 -1934 2094 0
-654 814 -4494 0
654 4494 0
-814 4494 0
654 -814 -5774 0
-654 5774 0
814 5774 0
-3374 4654 0
-3374 5934 0
-3374 2094 0
-3374 -2254 0
3374 -4654 -5934 -2094 2254 0
-814 974 -4654 0
814 4654 0
-974 4654 0
814 -974 -5934 0
-814 5934 0
974 5934 0
-3534 4814 0
-3534 6094 0
-3534 2254 0
-3534 -2414 0
3534 -4814 -6094 -2254 2414 0
-974 1134 -4814 0
974 4814 0
-1134 4814 0
974 -1134 -6094 0
-974 6094 0
1134 6094 0
6574 7854 0
6574 9134 0
-6574 -7854 -9134 0
-174 14 -7854 0
174 7854 0
-14 7854 0
174 -14 -9134 0
-174 9134 0
14 9134 0
6734 8014 0
6734 9294 0
-6734 -8014 -9294 0
-334 174 -8014 0
334 8014 0
-174 8014 0
334 -174 -9294 0
-334 9294 0
174 9294 0
6894 8174 0
6894 9454 0
-6894 -8174 -9454 0
-494 334 -8174 0
494 8174 0
-334 8174 0
494 -334 -9454 0
-494 9454 0
334 9454 0
7054 8334 0
7054 9614 0
-7054 -8334 -9614 0
-654 494 -8334 0
654 8334 0
-494 8334 0
654 -494 -9614 0
-654 9614 0
494 9614 0
7214 8494 0
7214 9774 0
-7214 -8494 -9774 0
-814 654 -8494 0
814 8494 0
-654 8494 0
814 -654 -9774 0
-814 9774 0
654 9774 0
7374 8654 0
7374 9934 0
-7374 -8654 -9934 0
-974 814 -8654 0
974 8654 0
-814 8654 0
974 -814 -9934 0
-974 9934 0
814 9934 0
7534 8814 0
7534 10094 0
-7534 -8814 -10094 0
-1134 974 -8814 0
1134 8814 0
-974 8814 0
1134 -974 -10094 0
-1134 10094 0
974 10094 0
1295 0
-2415 0
-2575 3855 0
-2575 5135 0
-2575 1295 0
-2575 -1455 0
2575 -3855 -5135 -1295 1455 0
-15 175 -3855 0
15 3855 0
-175 3855 0
15 -175 -5135 0
-15 5135 0
175 5135 0
-2735 4015 0
-2735 5295 0
-2735 1455 0
-2735 -1615 0
2735 -4015 -5295 -1455 1615 0
-175 335 -4015 0
175 4015 0
-335 4015 0
175 -335 -5295 0
-175 5295 0
335 5295 0
-2895 4175 0
-2895 5455 0
-2895 1615 0
-2895 -1775 0
2895 -4175 -5455 -1615 1775 0
-335 495 -4175 0
335 4175 0
-495 4175 0
335 -495 -5455 0
-335 5455 0
495 5455 0
-3055 4335 0
-3055 5615 0
-3055 1775 0
-3055 -1935 0
3055 -4335 -5615 -1775 1935 0
-495 655 -4335 0
495 4335 0
-655 4335 0
495 -655 -5615 0
-495 5615 0
655 5615 0
-3215 4495 0
-3215 5775 0
-3215 1935 0
-3215 -2095 0
3215 -4495 -5775 -1935 2095 0
-655 815 -4495 0
655 4495 0
-815 4495 0
655 -815 -5775 0
-655 5775 0
815 5775 0
-3375 4655 0
-3375 5935 0
-3375 2095 0
-3375 -2255 0
3375 -4655 -5935 -2095 2255 0
-815 975 -4655 0
815 4655 0
-975 4655 0
815 -975 -5935 0
-815 5935 0
975 5935 0
-3535 4815 0
-3535 6095 0
-3535 2255 0
-3535 -2415 0
3535 -4815 -6095 -2255 2415 0
-975 1135 -4815 0
975 4815 0
-1135 4815 0
975 -1135 -6095 0
-975 6095 0
1135 6095 0
6575 7855 0
6575 9135 0
-6575 -7855 -9135 0
-175 15 -7855 0
175 7855 0
-15 7855 0
175 -15 -9135 0
-175 9135 0
15 9135 0
6735 8015 0
6735 9295 0
-6735 -8015 -9295 0
-335 175 -8015 0
335 8015 0
-175 8015 0
335 -175 -9295 0
-335 9295 0
175 9295 0
6895 8175 0
6895 9455 0
-6895 -8175 -9455 0
-495 335 -8175 0
495 8175 0
-335 8175 0
495 -335 -9455 0
-495 9455 0
335 9455 0
7055 8335 0
7055 9615 0
-7055 -8335 -9615 0
-655 495 -8335 0
655 8335 0
-495 8335 0
655 -495 -9615 0
-655 9615 0
495 9615 0
7215 8495 0
7215 9775 0
-7215 -8495 -9775 0
-815 655 -8495 0
815 8495 0
-655 8495 0
815 -655 -9775 0
-815 9775 0
655 9775 0
7375 8655 0
7375 9935 0
-7375 -8655 -9935 0
-975 815 -8655 0
975 8655 0
-815 8655 0
975 -815 -9935 0
-975 9935 0
815 9935 0
7535 8815 0
7535 10095 0
-7535 -8815 -10095 0
-1135 975 -8815 0
1135 8815 0
-975 8815 0
1135 -975 -10095 0
-1135 10095 0
975 10095 0
1296 0
-2416 0
-2576 3856 0
-2576 5136 0
-2576 1296 0
-2576 -1456 0
2576 -3856 -5136 -1296 1456 0
-16 176 -3856 0
16 3856 0
-176 3856 0
16 -176 -5136 0
-16 5136 0
176 5136 0
-2736 4016 0
-2736 5296 0
-2736 1456 0
-2736 -1616 0
2736 -4016 -5296 -1456 1616 0
-176 336 -4016 0
176 4016 0
-336 4016 0
176 -336 -5296 0
-176 5296 0
336 5296 0
-2896 4176 0
-2896 5456 0
-2896 1616 0
-2896 -1776 0
2896 -4176 -5456 -1616 1776 0
-336 496 -4176 0
336 4176 0
-496 4176 0
336 -496 -5456 0
-336 5456 0
496 5456 0
-3056 4336 0
-3056 5616 0
-3056 1776 0
-3056 -1936 0
3056 -4336 -5616 -1776 1936 0
-496 656 -4336 0
496 4336 0
-656 4336 0
496 -656 -5616 0
-496 5616 0
656 5616 0
-3216 4496 0
-3216 5776 0
-3216 1936 0
-3216 -2096 0
3216 -4496 -5776 -1936 2096 0
-656 816 -4496 0
656 4496 0
-816 4496 0
656 -816 -5776 0
-656 5776 0
816 5776 0
-3376 4656 0
-3376 5936 0
-3376 2096 0
-3376 -2256 0
3376 -4656 -5936 -2096 2256 0
-816 976 -4656 0
816 4656 0
-976 4656 0
816 -976 -5936 0
-816 5936 0
976 5936 0
-3536 4816 0
-3536 6096 0
-3536 2256 0
-3536 -2416 0
3536 -4816 -6096 -2256 2416 0
-976 1136 -4816 0
976 4816 0
-1136 4816 0
976 -1136 -6096 0
-976 6096 0
1136 6096 0
6576 7856 0
6576 9136 0
-6576 -7856 -9136 0
-176 16 -7856 0
176 7856 0
-16 7856 0
176 -16 -9136 0
-176 9136 0
16 9136 0
6736 8016 0
6736 9296 0
-6736 -8016 -9296 0
-336 176 -8016 0
336 8016 0
-176 8016 0
336 -176 -9296 0
-336 9296 0
176 9296 0
6896 8176 0
6896 9456 0
-6896 -8176 -9456 0
-496 336 -8176 0
496 8176 0
-336 8176 0
496 -336 -9456 0
-496 9456 0
336 9456 0
7056 8336 0
7056 9616 0
-7056 -8336 -9616 0
-656 496 -8336 0
656 8336 0
-496 8336 0
656 -496 -9616 0
-656 9616 0
496 9616 0
7216 8496 0
7216 9776 0
-7216 -8496 -9776 0
-816 656 -8496 0
816 8496 0
-656 8496 0
816 -656 -9776 0
-816 9776 0
656 9776 0
7376 8656 0
7376 9936 0
-7376 -8656 -9936 0
-976 816 -8656 0
976 8656 0
-816 8656 0
976 -816 -9936 0
-976 9936 0
816 9936 0
7536 8816 0
7536 10096 0
-7536 -8816 -10096 0
-1136 976 -8816 0
1136 8816 0
-976 8816 0
1136 -976 -10096 0
-1136 10096 0
976 10096 0
1297 0
-2417 0
-2577 3857 0
-2577 5137 0
-2577 1297 0
-2577 -1457 0
2577 -3857 -5137 -1297 1457 0
-17 177 -3857 0
17 3857 0
-177 3857 0
17 -177 -5137 0
-17 5137 0
177 5137 0
-2737 4017 0
-2737 5297 0
-2737 1457 0
-2737 -1617 0
2737 -4017 -5297 -1457 1617 0
-177 337 -4017 0
177 4017 0
-337 4017 0
177 -337 -5297 0
-177 5297 0
337 5297 0
-2897 4177 0
-2897 5457 0
-2897 1617 0
-2897 -1777 0
2897 -4177 -5457 -1617 1777 0
-337 497 -4177 0
337 4177 0
-497 4177 0
337 -497 -5457 0
-337 5457 0
497 5457 0
-3057 4337 0
-3057 5617 0
-3057 1777 0
-3057 -1937 0
3057 -4337 -5617 -1777 1937 0
-497 657 -4337 0
497 4337 0
-657 4337 0
497 -657 -5617 0
-497 5617 0
657 5617 0
-3217 4497 0
-3217 5777 0
-3217 1937 0
-3217 -2097 0
3217 -4497 -5777 -1937 2097 0
-657 817 -4497 0
657 4497 0
-817 4497 0
657 -817 -5777 0
-657 5777 0
817 5777 0
-3377 4657 0
-3377 5937 0
-3377 2097 0
-3377 -2257 0
3377 -4657 -5937 -2097 2257 0
-817 977 -4657 0
817 4657 0
-977 4657 0
817 -977 -5937 0
-817 5937 0
977 5937 0
-3537 4817 0
-3537 6097 0
-3537 2257 0
-3537 -2417 0
3537 -4817 -6097 -2257 2417 0
-977 1137 -4817 0
977 4817 0
-1137 4817 0
977 -1137 -6097 0
-977 6097 0
1137 6097 0
6577 7857 0
6577 9137 0
-6577 -7857 -9137 0
-177 17 -7857 0
177 7857 0
-17 7857 0
177 -17 -9137 0
-177 9137 0
17 9137 0
6737 8017 0
6737 9297 0
-6737 -8017 -9297 0
-337 177 -8017 0
337 8017 0
-177 8017 0
337 -177 -9297 0
-337 9297 0
177 9297 0
6897 8177 0
6897 9457 0
-6897 -8177 -9457 0
-497 337 -8177 0
497 8177 0
-337 8177 0
497 -337 -9457 0
-497 9457 0
337 9457 0
7057 8337 0
7057 9617 0
-7057 -8337 -9617 0
-657 497 -8337 0
657 8337 0
-497 8337 0
657 -497 -9617 0
-657 9617 0
497 9617 0
7217 8497 0
7217 9777 0
-7217 -8497 -9777 0
-817 657 -8497 0
817 8497 0
-657 8497 0
817 -657 -9777 0
-817 9777 0
657 9777 0
7377 8657 0
7377 9937 0
-7377 -8657 -9937 0
-977 817 -8657 0
977 8657 0
-817 8657 0
977 -817 -9937 0
-977 9937 0
817 9937 0
7537 8817 0
7537 10097 0
-7537 -8817 -10097 0
-1137 977 -8817 0
1137 8817 0
-977 8817 0
1137 -977 -10097 0
-1137 10097 0
977 10097 0
1298 0
-2418 0
-2578 3858 0
-2578 5138 0
-2578 1298 0
-2578 -1458 0
2578 -3858 -5138 -1298 1458 0
-18 178 -3858 0
18 3858 0
-178 3858 0
18 -178 -5138 0
-18 5138 0
178 5138 0
-2738 4018 0
-2738 5298 0
-2738 1458 0
-2738 -1618 0
2738 -4018 -5298 -1458 1618 0
-178 338 -4018 0
178 4018 0
-338 4018 0
178 -338 -5298 0
-178 5298 0
338 5298 0
-2898 4178 0
-2898 5458 0
-2898 1618 0
-2898 -1778 0
2898 -4178 -5458 -1618 1778 0
-338 498 -4178 0
338 4178 0
-498 4178 0
338 -498 -5458 0
-338 5458 0
498 5458 0
-3058 4338 0
-3058 5618 0
-3058 1778 0
-3058 -1938 0
3058 -4338 -5618 -1778 1938 0
-498 658 -4338 0
498 4338 0
-658 4338 0
498 -658 -5618 0
-498 5618 0
658 5618 0
-3218 4498 0
-3218 5778 0
-3218 1938 0
-3218 -2098 0
3218 -4498 -5778 -1938 2098 0
-658 818 -4498 0
658 4498 0
-818 4498 0
658 -818 -5778 0
-658 5778 0
818 5778 0
-3378 4658 0
-3378 5938 0
-3378 2098 0
-3378 -2258 0
3378 -4658 -5938 -2098 2258 0
-818 978 -4658 0
818 4658 0
-978 4658 0
818 -978 -5938 0
-818 5938 0
978 5938 0
-3538 4818 0
-3538 6098 0
-3538 2258 0
-3538 -2418 0
3538 -4818 -6098 -2258 2418 0
-978 1138 -4818 0
978 4818 0
-1138 4818 0
978 -1138 -6098 0
-978 6098 0
1138 6098 0
6578 7858 0
6578 9138 0
-6578 -7858 -9138 0
-178 18 -7858 0
178 7858 0
-18 7858 0
178 -18 -9138 0
-178 9138 0
18 9138 0
6738 8018 0
6738 9298 0
-6738 -8018 -9298 0
-338 178 -8018 0
338 8018 0
-178 8018 0
338 -178 -9298 0
-338 9298 0
178 9298 0
6898 8178 0
6898 9458 0
-6898 -8178 -9458 0
-498 338 -8178 0
498 8178 0
-338 8178 0
498 -338 -9458 0
-498 9458 0
338 9458 0
7058 8338 0
7058 9618 0
-7058 -8338 -9618 0
-658 498 -8338 0
658 8338 0
-498 8338 0
658 -498 -9618 0
-658 9618 0
498 9618 0
7218 8498 0
7218 9778 0
-7218 -8498 -9778 0
-818 658 -8498 0
818 8498 0
-658 8498 0
818 -658 -9778 0
-818 9778 0
658 9778 0
7378 8658 0
7378 9938 0
-7378 -8658 -9938 0
-978 818 -8658 0
978 8658 0
-818 8658 0
978 -818 -9938 0
-978 9938 0
818 9938 0
7538 8818 0
7538 10098 0
-7538 -8818 -10098 0
-1138 978 -8818 0
1138 8818 0
-978 8818 0
1138 -978 -10098 0
-1138 10098 0
978 10098 0
1299 0
-2419 0
-2579 3859 0
-2579 5139 0
-2579 1299 0
-2579 -1459 0
2579 -3859 -5139 -1299 1459 0
-19 179 -3859 0
19 3859 0
-179 3859 0
19 -179 -5139 0
-19 5139 0
179 5139 0
-2739 4019 0
-2739 5299 0
-2739 1459 0
-2739 -1619 0
2739 -4019 -5299 -1459 1619 0
-179 339 -4019 0
179 4019 0
-339 4019 0
179 -339 -5299 0
-179 5299 0
339 5299 0
-2899 4179 0
-2899 5459 0
-2899 1619 0
-2899 -1779 0
2899 -4179 -5459 -1619 1779 0
-339 499 -4179 0
339 4179 0
-499 4179 0
339 -499 -5459 0
-339 5459 0
499 5459 0
-3059 4339 0
-3059 5619 0
-3059 1779 0
-3059 -1939 0
3059 -4339 -5619 -1779 1939 0
-499 659 -4339 0
499 4339 0
-659 4339 0
499 -659 -5619 0
-499 5619 0
659 5619 0
-3219 4499 0
-3219 5779 0
-3219 1939 0
-3219 -2099 0
3219 -4499 -5779 -1939 2099 0
-659 819 -4499 0
659 4499 0
-819 4499 0
659 -819 -5779 0
-659 5779 0
819 5779 0
-3379 4659 0
-3379 5939 0
-3379 2099 0
-3379 -2259 0
3379 -4659 -5939 -2099 2259 0
-819 979 -4659 0
819 4659 0
-979 4659 0
819 -979 -5939 0
-819 5939 0
979 5939 0
-3539 4819 0
-3539 6099 0
-3539 2259 0
-3539 -2419 0
3539 -4819 -6099 -2259 2419 0
-979 1139 -4819 0
979 4819 0
-1139 4819 0
979 -1139 -6099 0
-979 6099 0
1139 6099 0
6579 7859 0
6579 9139 0
-6579 -7859 -9139 0
-179 19 -7859 0
179 7859 0
-19 7859 0
179 -19 -9139 0
-179 9139 0
19 9139 0
6739 8019 0
6739 9299 0
-6739 -8019 -9299 0
-339 179 -8019 0
339 8019 0
-179 8019 0
339 -179 -9299 0
-339 9299 0
179 9299 0
6899 8179 0
6899 9459 0
-6899 -8179 -9459 0
-499 339 -8179 0
499 8179 0
-339 8179 0
499 -339 -9459 0
-499 9459 0
339 9459 0
7059 8339 0
7059 9619 0
-7059 -8339 -9619 0
-659 499 -8339 0
659 8339 0
-499 8339 0
659 -499 -9619 0
-659 9619 0
499 9619 0
7219 8499 0
7219 9779 0
-7219 -8499 -9779 0
-819 659 -8499 0
819 8499 0
-659 8499 0
819 -659 -9779 0
-819 9779 0
659 9779 0
7379 8659 0
7379 9939 0
-7379 -8659 -9939 0
-979 819 -8659 0
979 8659 0
-819 8659 0
979 -819 -9939 0
-979 9939 0
819 9939 0
7539 8819 0
7539 10099 0
-7539 -8819 -10099 0
-1139 979 -8819 0
1139 8819 0
-979 8819 0
1139 -979 -10099 0
-1139 10099 0
979 10099 0
1300 0
-2420 0
-2580 3860 0
-2580 5140 0
-2580 1300 0
-2580 -1460 0
2580 -3860 -5140 -1300 1460 0
-20 180 -3860 0
20 3860 0
-180 3860 0
20 -180 -5140 0
-20 5140 0
180 5140 0
-2740 4020 0
-2740 5300 0
-2740 1460 0
-2740 -1620 0
2740 -4020 -5300 -1460 1620 0
-180 340 -4020 0
180 4020 0
-340 4020 0
180 -340 -5300 0
-180 5300 0
340 5300 0
-2900 4180 0
-2900 5460 0
-2900 1620 0
-2900 -1780 0
2900 -4180 -5460 -1620 1780 0
-340 500 -4180 0
340 4180 0
-500 4180 0
340 -500 -5460 0
-340 5460 0
500 5460 0
-3060 4340 0
-3060 5620 0
-3060 1780 0
-3060 -1940 0
3060 -4340 -5620 -1780 1940 0
-500 660 -4340 0
500 4340 0
-660 4340 0
500 -660 -5620 0
-500 5620 0
660 5620 0
-3220 4500 0
-3220 5780 0
-3220 1940 0
-3220 -2100 0
3220 -4500 -5780 -1940 2100 0
-660 820 -4500 0
660 4500 0
-820 4500 0
660 -820 -5780 0
-660 5780 0
820 5780 0
-3380 4660 0
-3380 5940 0
-3380 2100 0
-3380 -2260 0
3380 -4660 -5940 -2100 2260 0
-820 980 -4660 0
820 4660 0
-980 4660 0
820 -980 -5940 0
-820 5940 0
980 5940 0
-3540 4820 0
-3540 6100 0
-3540 2260 0
-3540 -2420 0
3540 -4820 -6100 -2260 2420 0
-980 1140 -4820 0
980 4820 0
-1140 4820 0
980 -1140 -6100 0
-980 6100 0
1140 6100 0
6580 7860 0
6580 9140 0
-6580 -7860 -9140 0
-180 20 -7860 0
180 7860 0
-20 7860 0
180 -20 -9140 0
-180 9140 0
20 9140 0
6740 8020 0
6740 9300 0
-6740 -8020 -9300 0
-340 180 -8020 0
340 8020 0
-180 8020 0
340 -180 -9300 0
-340 9300 0
180 9300 0
6900 8180 0
6900 9460 0
-6900 -8180 -9460 0
-500 340 -8180 0
500 8180 0
-340 8180 0
500 -340 -9460 0
-500 9460 0
340 9460 0
7060 8340 0
7060 9620 0
-7060 -8340 -9620 0
-660 500 -8340 0
660 8340 0
-500 8340 0
660 -500 -9620 0
-660 9620 0
500 9620 0
7220 8500 0
7220 9780 0
-7220 -8500 -9780 0
-820 660 -8500 0
820 8500 0
-660 8500 0
820 -660 -9780 0
-820 9780 0
660 9780 0
7380 8660 0
7380 9940 0
-7380 -8660 -9940 0
-980 820 -8660 0
980 8660 0
-820 8660 0
980 -820 -9940 0
-980 9940 0
820 9940 0
7540 8820 0
7540 10100 0
-7540 -8820 -10100 0
-1140 980 -8820 0
1140 8820 0
-980 8820 0
1140 -980 -10100 0
-1140 10100 0
980 10100 0
1301 0
-2421 0
-2581 3861 0
-2581 5141 0
-2581 1301 0
-2581 -1461 0
2581 -3861 -5141 -1301 1461 0
-21 181 -3861 0
21 3861 0
-181 3861 0
21 -181 -5141 0
-21 5141 0
181 5141 0
-2741 4021 0
-2741 5301 0
-2741 1461 0
-2741 -1621 0
2741 -4021 -5301 -1461 1621 0
-181 341 -4021 0
181 4021 0
-341 4021 0
181 -341 -5301 0
-181 5301 0
341 5301 0
-2901 4181 0
-2901 5461 0
-2901 1621 0
-2901 -1781 0
2901 -4181 -5461 -1621 1781 0
-341 501 -4181 0
341 4181 0
-501 4181 0
341 -501 -5461 0
-341 5461 0
501 5461 0
-3061 4341 0
-3061 5621 0
-3061 1781 0
-3061 -1941 0
3061 -4341 -5621 -1781 1941 0
-501 661 -4341 0
501 4341 0
-661 4341 0
501 -661 -5621 0
-501 5621 0
661 5621 0
-3221 4501 0
-3221 5781 0
-3221 1941 0
-3221 -2101 0
3221 -4501 -5781 -1941 2101 0
-661 821 -4501 0
661 4501 0
-821 4501 0
661 -821 -5781 0
-661 5781 0
821 5781 0
-3381 4661 0
-3381 5941 0
-3381 2101 0
-3381 -2261 0
3381 -4661 -5941 -2101 2261 0
-821 981 -4661 0
821 4661 0
-981 4661 0
821 -981 -5941 0
-821 5941 0
981 5941 0
-3541 4821 0
-3541 6101 0
-3541 2261 0
-3541 -2421 0
3541 -4821 -6101 -2261 2421 0
-981 1141 -4821 0
981 4821 0
-1141 4821 0
981 -1141 -6101 0
-981 6101 0
1141 6101 0
6581 7861 0
6581 9141 0
-6581 -7861 -9141 0
-181 21 -7861 0
181 7861 0
-21 7861 0
181 -21 -9141 0
-181 9141 0
21 9141 0
6741 8021 0
6741 9301 0
-6741 -8021 -9301 0
-341 181 -8021 0
341 8021 0
-181 8021 0
341 -181 -9301 0
-341 9301 0
181 9301 0
6901 8181 0
6901 9461 0
-6901 -8181 -9461 0
-501 341 -8181 0
501 8181 0
-341 8181 0
501 -341 -9461 0
-501 9461 0
341 9461 0
7061 8341 0
7061 9621 0
-7061 -8341 -9621 0
-661 501 -8341 0
661 8341 0
-501 8341 0
661 -501 -9621 0
-661 9621 0
501 9621 0
7221 8501 0
7221 9781 0
-7221 -8501 -9781 0
-821 661 -8501 0
821 8501 0
-661 8501 0
821 -661 -9781 0
-821 9781 0
661 9781 0
7381 8661 0
7381 9941 0
-7381 -8661 -9941 0
-981 821 -8661 0
981 8661 0
-821 8661 0
981 -821 -9941 0
-981 9941 0
821 9941 0
7541 8821 0
7541 10101 0
-7541 -8821 -10101 0
-1141 981 -8821 0
1141 8821 0
-981 8821 0
1141 -981 -10101 0
-1141 10101 0
981 10101 0
1302 0
-2422 0
-2582 3862 0
-2582 5142 0
-2582 1302 0
-2582 -1462 0
2582 -3862 -5142 -1302 1462 0
-22 182 -3862 0
22 3862 0
-182 3862 0
22 -182 -5142 0
-22 5142 0
182 5142 0
-2742 4022 0
-2742 5302 0
-2742 1462 0
-2742 -1622 0
2742 -4022 -5302 -1462 1622 0
-182 342 -4022 0
182 4022 0
-342 4022 0
182 -342 -5302 0
-182 5302 0
342 5302 0
-2902 4182 0
-2902 5462 0
-2902 1622 0
-2902 -1782 0
2902 -4182 -5462 -1622 1782 0
-342 502 -4182 0
342 4182 0
-502 4182 0
342 -502 -5462 0
-342 5462 0
502 5462 0
-3062 4342 0
-3062 5622 0
-3062 1782 0
-3062 -1942 0
3062 -4342 -5622 -1782 1942 0
-502 662 -4342 0
502 4342 0
-662 4342 0
502 -662 -5622 0
-502 5622 0
662 5622 0
-3222 4502 0
-3222 5782 0
-3222 1942 0
-3222 -2102 0
3222 -4502 -5782 -1942 2102 0
-662 822 -4502 0
662 4502 0
-822 4502 0
662 -822 -5782 0
-662 5782 0
822 5782 0
-3382 4662 0
-3382 5942 0
-3382 2102 0
-3382 -2262 0
3382 -4662 -5942 -2102 2262 0
-822 982 -4662 0
822 4662 0
-982 4662 0
822 -982 -5942 0
-822 5942 0
982 5942 0
-3542 4822 0
-3542 6102 0
-3542 2262 0
-3542 -2422 0
3542 -4822 -6102 -2262 2422 0
-982 1142 -4822 0
982 4822 0
-1142 4822 0
982 -1142 -6102 0
-982 6102 0
1142 6102 0
6582 7862 0
6582 9142 0
-6582 -7862 -9142 0
-182 22 -7862 0
182 7862 0
-22 7862 0
182 -22 -9142 0
-182 9142 0
22 9142 0
6742 8022 0
6742 9302 0
-6742 -8022 -9302 0
-342 182 -8022 0
342 8022 0
-182 8022 0
342 -182 -9302 0
-342 9302 0
182 9302 0
6902 8182 0
6902 9462 0
-6902 -8182 -9462 0
-502 342 -8182 0
502 8182 0
-342 8182 0
502 -342 -9462 0
-502 9462 0
342 9462 0
7062 8342 0
7062 9622 0
-7062 -8342 -9622 0
-662 502 -8342 0
662 8342 0
-502 8342 0
662 -502 -9622 0
-662 9622 0
502 9622 0
7222 8502 0
7222 9782 0
-7222 -8502 -9782 0
-822 662 -8502 0
822 8502 0
-662 8502 0
822 -662 -9782 0
-822 9782 0
662 9782 0
7382 8662 0
7382 9942 0
-7382 -8662 -9942 0
-982 822 -8662 0
982 8662 0
-822 8662 0
982 -822 -9942 0
-982 9942 0
822 9942 0
7542 8822 0
7542 10102 0
-7542 -8822 -10102 0
-1142 982 -8822 0
1142 8822 0
-982 8822 0
1142 -982 -10102 0
-1142 10102 0
982 10102 0
1303 0
-2423 0
-2583 3863 0
-2583 5143 0
-2583 1303 0
-2583 -1463 0
2583 -3863 -5143 -1303 1463 0
-23 183 -3863 0
23 3863 0
-183 3863 0
23 -183 -5143 0
-23 5143 0
183 5143 0
-2743 4023 0
-2743 5303 0
-2743 1463 0
-2743 -1623 0
2743 -4023 -5303 -1463 1623 0
-183 343 -4023 0
183 4023 0
-343 4023 0
183 -343 -5303 0
-183 5303 0
343 5303 0
-2903 4183 0
-2903 5463 0
-2903 1623 0
-2903 -1783 0
2903 -4183 -5463 -1623 1783 0
-343 503 -4183 0
343 4183 0
-503 4183 0
343 -503 -5463 0
-343 5463 0
503 5463 0
-3063 4343 0
-3063 5623 0
-3063 1783 0
-3063 -1943 0
3063 -4343 -5623 -1783 1943 0
-503 663 -4343 0
503 4343 0
-663 4343 0
503 -663 -5623 0
-503 5623 0
663 5623 0
-3223 4503 0
-3223 5783 0
-3223 1943 0
-3223 -2103 0
3223 -4503 -5783 -1943 2103 0
-663 823 -4503 0
663 4503 0
-823 4503 0
663 -823 -5783 0
-663 5783 0
823 5783 0
-3383 4663 0
-3383 5943 0
-3383 2103 0
-3383 -2263 0
3383 -4663 -5943 -2103 2263 0
-823 983 -4663 0
823 4663 0
-983 4663 0
823 -983 -5943 0
-823 5943 0
983 5943 0
-3543 4823 0
-3543 6103 0
-3543 2263 0
-3543 -2423 0
3543 -4823 -6103 -2263 2423 0
-983 1143 -4823 0
983 4823 0
-1143 4823 0
983 -1143 -6103 0
-983 6103 0
1143 6103 0
6583 7863 0
6583 9143 0
-6583 -7863 -9143 0
-183 23 -7863 0
183 7863 0
-23 7863 0
183 -23 -9143 0
-183 9143 0
23 9143 0
6743 8023 0
6743 9303 0
-6743 -8023 -9303 0
-343 183 -8023 0
343 8023 0
-183 8023 0
343 -183 -9303 0
-343 9303 0
183 9303 0
6903 8183 0
6903 9463 0
-6903 -8183 -9463 0
-503 343 -8183 0
503 8183 0
-343 8183 0
503 -343 -9463 0
-503 9463 0
343 9463 0
7063 8343 0
7063 9623 0
-7063 -8343 -9623 0
-663 503 -8343 0
663 8343 0
-503 8343 0
663 -503 -9623 0
-663 9623 0
503 9623 0
7223 8503 0
7223 9783 0
-7223 -8503 -9783 0
-823 663 -8503 0
823 8503 0
-663 8503 0
823 -663 -9783 0
-823 9783 0
663 9783 0
7383 8663 0
7383 9943 0
-7383 -8663 -9943 0
-983 823 -8663 0
983 8663 0
-823 8663 0
983 -823 -9943 0
-983 9943 0
823 9943 0
7543 8823 0
7543 10103 0
-7543 -8823 -10103 0
-1143 983 -8823 0
1143 8823 0
-983 8823 0
1143 -983 -10103 0
-1143 10103 0
983 10103 0
1304 0
-2424 0
-2584 3864 0
-2584 5144 0
-2584 1304 0
-2584 -1464 0
2584 -3864 -5144 -1304 1464 0
-24 184 -3864 0
24 3864 0
-184 3864 0
24 -184 -5144 0
-24 5144 0
184 5144 0
-2744 4024 0
-2744 5304 0
-2744 1464 0
-2744 -1624 0
2744 -4024 -5304 -1464 1624 0
-184 344 -4024 0
184 4024 0
-344 4024 0
184 -344 -5304 0
-184 5304 0
344 5304 0
-2904 4184 0
-2904 5464 0
-2904 1624 0
-2904 -1784 0
2904 -4184 -5464 -1624 1784 0
-344 504 -4184 0
344 4184 0
-504 4184 0
344 -504 -5464 0
-344 5464 0
504 5464 0
-3064 4344 0
-3064 5624 0
-3064 1784 0
-3064 -1944 0
3064 -4344 -5624 -1784 1944 0
-504 664 -4344 0
504 4344 0
-664 4344 0
504 -664 -5624 0
-504 5624 0
664 5624 0
-3224 4504 0
-3224 5784 0
-3224 1944 0
-3224 -2104 0
3224 -4504 -5784 -1944 2104 0
-664 824 -4504 0
664 4504 0
-824 4504 0
664 -824 -5784 0
-664 5784 0
824 5784 0
-3384 4664 0
-3384 5944 0
-3384 2104 0
-3384 -2264 0
3384 -4664 -5944 -2104 2264 0
-824 984 -4664 0
824 4664 0
-984 4664 0
824 -984 -5944 0
-824 5944 0
984 5944 0
-3544 4824 0
-3544 6104 0
-3544 2264 0
-3544 -2424 0
3544 -4824 -6104 -2264 2424 0
-984 1144 -4824 0
984 4824 0
-1144 4824 0
984 -1144 -6104 0
-984 6104 0
1144 6104 0
6584 7864 0
6584 9144 0
-6584 -7864 -9144 0
-184 24 -7864 0
184 7864 0
-24 7864 0
184 -24 -9144 0
-184 9144 0
24 9144 0
6744 8024 0
6744 9304 0
-6744 -8024 -9304 0
-344 184 -8024 0
344 8024 0
-184 8024 0
344 -184 -9304 0
-344 9304 0
184 9304 0
6904 8184 0
6904 9464 0
-6904 -8184 -9464 0
-504 344 -8184 0
504 8184 0
-344 8184 0
504 -344 -9464 0
-504 9464 0
344 9464 0
7064 8344 0
7064 9624 0
-7064 -8344 -9624 0
-664 504 -8344 0
664 8344 0
-504 8344 0
664 -504 -9624 0
-664 9624 0
504 9624 0
7224 8504 0
7224 9784 0
-7224 -8504 -9784 0
-824 664 -8504 0
824 8504 0
-664 8504 0
824 -664 -9784 0
-824 9784 0
664 9784 0
7384 8664 0
7384 9944 0
-7384 -8664 -9944 0
-984 824 -8664 0
984 8664 0
-824 8664 0
984 -824 -9944 0
-984 9944 0
824 9944 0
7544 8824 0
7544 10104 0
-7544 -8824 -10104 0
-1144 984 -8824 0
1144 8824 0
-984 8824 0
1144 -984 -10104 0
-1144 10104 0
984 10104 0
1305 0
-2425 0
-2585 3865 0
-2585 5145 0
-2585 1305 0
-2585 -1465 0
2585 -3865 -5145 -1305 1465 0
-25 185 -3865 0
25 3865 0
-185 3865 0
25 -185 -5145 0
-25 5145 0
185 5145 0
-2745 4025 0
-2745 5305 0
-2745 1465 0
-2745 -1625 0
2745 -4025 -5305 -1465 1625 0
-185 345 -4025 0
185 4025 0
-345 4025 0
185 -345 -5305 0
-185 5305 0
345 5305 0
-2905 4185 0
-2905 5465 0
-2905 1625 0
-2905 -1785 0
2905 -4185 -5465 -1625 1785 0
-345 505 -4185 0
345 4185 0
-505 4185 0
345 -505 -5465 0
-345 5465 0
505 5465 0
-3065 4345 0
-3065 5625 0
-3065 1785 0
-3065 -1945 0
3065 -4345 -5625 -1785 1945 0
-505 665 -4345 0
505 4345 0
-665 4345 0
505 -665 -5625 0
-505 5625 0
665 5625 0
-3225 4505 0
-3225 5785 0
-3225 1945 0
-3225 -2105 0
3225 -4505 -5785 -1945 2105 0
-665 825 -4505 0
665 4505 0
-825 4505 0
665 -825 -5785 0
-665 5785 0
825 5785 0
-3385 4665 0
-3385 5945 0
-3385 2105 0
-3385 -2265 0
3385 -4665 -5945 -2105 2265 0
-825 985 -4665 0
825 4665 0
-985 4665 0
825 -985 -5945 0
-825 5945 0
985 5945 0
-3545 4825 0
-3545 6105 0
-3545 2265 0
-3545 -2425 0
3545 -4825 -6105 -2265 2425 0
-985 1145 -4825 0
985 4825 0
-1145 4825 0
985 -1145 -6105 0
-985 6105 0
1145 6105 0
6585 7865 0
6585 9145 0
-6585 -7865 -9145 0
-185 25 -7865 0
185 7865 0
-25 7865 0
185 -25 -9145 0
-185 9145 0
25 9145 0
6745 8025 0
6745 9305 0
-6745 -8025 -9305 0
-345 185 -8025 0
345 8025 0
-185 8025 0
345 -185 -9305 0
-345 9305 0
185 9305 0
6905 8185 0
6905 9465 0
-6905 -8185 -9465 0
-505 345 -8185 0
505 8185 0
-345 8185 0
505 -345 -9465 0
-505 9465 0
345 9465 0
7065 8345 0
7065 9625 0
-7065 -8345 -9625 0
-665 505 -8345 0
665 8345 0
-505 8345 0
665 -505 -9625 0
-665 9625 0
505 9625 0
7225 8505 0
7225 9785 0
-7225 -8505 -9785 0
-825 665 -8505 0
825 8505 0
-665 8505 0
825 -665 -9785 0
-825 9785 0
665 9785 0
7385 8665 0
7385 9945 0
-7385 -8665 -9945 0
-985 825 -8665 0
985 8665 0
-825 8665 0
985 -825 -9945 0
-985 9945 0
825 9945 0
7545 8825 0
7545 10105 0
-7545 -8825 -10105 0
-1145 985 -8825 0
1145 8825 0
-985 8825 0
1145 -985 -10105 0
-1145 10105 0
985 10105 0
1306 0
-2426 0
-2586 3866 0
-2586 5146 0
-2586 1306 0
-2586 -1466 0
2586 -3866 -5146 -1306 1466 0
-26 186 -3866 0
26 3866 0
-186 3866 0
26 -186 -5146 0
-26 5146 0
186 5146 0
-2746 4026 0
-2746 5306 0
-2746 1466 0
-2746 -1626 0
2746 -4026 -5306 -1466 1626 0
-186 346 -4026 0
186 4026 0
-346 4026 0
186 -346 -5306 0
-186 5306 0
346 5306 0
-2906 4186 0
-2906 5466 0
-2906 1626 0
-2906 -1786 0
2906 -4186 -5466 -1626 1786 0
-346 506 -4186 0
346 4186 0
-506 4186 0
346 -506 -5466 0
-346 5466 0
506 5466 0
-3066 4346 0
-3066 5626 0
-3066 1786 0
-3066 -1946 0
3066 -4346 -5626 -1786 1946 0
-506 666 -4346 0
506 4346 0
-666 4346 0
506 -666 -5626 0
-506 5626 0
666 5626 0
-3226 4506 0
-3226 5786 0
-3226 1946 0
-3226 -2106 0
3226 -4506 -5786 -1946 2106 0
-666 826 -4506 0
666 4506 0
-826 4506 0
666 -826 -5786 0
-666 5786 0
826 5786 0
-3386 4666 0
-3386 5946 0
-3386 2106 0
-3386 -2266 0
3386 -4666 -5946 -2106 2266 0
-826 986 -4666 0
826 4666 0
-986 4666 0
826 -986 -5946 0
-826 5946 0
986 5946 0
-3546 4826 0
-3546 6106 0
-3546 2266 0
-3546 -2426 0
3546 -4826 -6106 -2266 2426 0
-986 1146 -4826 0
986 4826 0
-1146 4826 0
986 -1146 -6106 0
-986 6106 0
1146 6106 0
6586 7866 0
6586 9146 0
-6586 -7866 -9146 0
-186 26 -7866 0
186 7866 0
-26 7866 0
186 -26 -9146 0
-186 9146 0
26 9146 0
6746 8026 0
6746 9306 0
-6746 -8026 -9306 0
-346 186 -8026 0
346 8026 0
-186 8026 0
346 -186 -9306 0
-346 9306 0
186 9306 0
6906 8186 0
6906 9466 0
-6906 -8186 -9466 0
-506 346 -8186 0
506 8186 0
-346 8186 0
506 -346 -9466 0
-506 9466 0
346 9466 0
7066 8346 0
7066 9626 0
-7066 -8346 -9626 0
-666 506 -8346 0
666 8346 0
-506 8346 0
666 -506 -9626 0
-666 9626 0
506 9626 0
7226 8506 0
7226 9786 0
-7226 -8506 -9786 0
-826 666 -8506 0
826 8506 0
-666 8506 0
826 -666 -9786 0
-826 9786 0
666 9786 0
7386 8666 0
7386 9946 0
-7386 -8666 -9946 0
-986 826 -8666 0
986 8666 0
-826 8666 0
986 -826 -9946 0
-986 9946 0
826 9946 0
7546 8826 0
7546 10106 0
-7546 -8826 -10106 0
-1146 986 -8826 0
1146 8826 0
-986 8826 0
1146 -986 -10106 0
-1146 10106 0
986 10106 0
1307 0
-2427 0
-2587 3867 0
-2587 5147 0
-2587 1307 0
-2587 -1467 0
2587 -3867 -5147 -1307 1467 0
-27 187 -3867 0
27 3867 0
-187 3867 0
27 -187 -5147 0
-27 5147 0
187 5147 0
-2747 4027 0
-2747 5307 0
-2747 1467 0
-2747 -1627 0
2747 -4027 -5307 -1467 1627 0
-187 347 -4027 0
187 4027 0
-347 4027 0
187 -347 -5307 0
-187 5307 0
347 5307 0
-2907 4187 0
-2907 5467 0
-2907 1627 0
-2907 -1787 0
2907 -4187 -5467 -1627 1787 0
-347 507 -4187 0
347 4187 0
-507 4187 0
347 -507 -5467 0
-347 5467 0
507 5467 0
-3067 4347 0
-3067 5627 0
-3067 1787 0
-3067 -1947 0
3067 -4347 -5627 -1787 1947 0
-507 667 -4347 0
507 4347 0
-667 4347 0
507 -667 -5627 0
-507 5627 0
667 5627 0
-3227 4507 0
-3227 5787 0
-3227 1947 0
-3227 -2107 0
3227 -4507 -5787 -1947 2107 0
-667 827 -4507 0
667 4507 0
-827 4507 0
667 -827 -5787 0
-667 5787 0
827 5787 0
-3387 4667 0
-3387 5947 0
-3387 2107 0
-3387 -2267 0
3387 -4667 -5947 -2107 2267 0
-827 987 -4667 0
827 4667 0
-987 4667 0
827 -987 -5947 0
-827 5947 0
987 5947 0
-3547 4827 0
-3547 6107 0
-3547 2267 0
-3547 -2427 0
3547 -4827 -6107 -2267 2427 0
-987 1147 -4827 0
987 4827 0
-1147 4827 0
987 -1147 -6107 0
-987 6107 0
1147 6107 0
6587 7867 0
6587 9147 0
-6587 -7867 -9147 0
-187 27 -7867 0
187 7867 0
-27 7867 0
187 -27 -9147 0
-187 9147 0
27 9147 0
6747 8027 0
6747 9307 0
-6747 -8027 -9307 0
-347 187 -8027 0
347 8027 0
-187 8027 0
347 -187 -9307 0
-347 9307 0
187 9307 0
6907 8187 0
6907 9467 0
-6907 -8187 -9467 0
-507 347 -8187 0
507 8187 0
-347 8187 0
507 -347 -9467 0
-507 9467 0
347 9467 0
7067 8347 0
7067 9627 0
-7067 -8347 -9627 0
-667 507 -8347 0
667 8347 0
-507 8347 0
667 -507 -9627 0
-667 9627 0
507 9627 0
7227 8507 0
7227 9787 0
-7227 -8507 -9787 0
-827 667 -8507 0
827 8507 0
-667 8507 0
827 -667 -9787 0
-827 9787 0
667 9787 0
7387 8667 0
7387 9947 0
-7387 -8667 -9947 0
-987 827 -8667 0
987 8667 0
-827 8667 0
987 -827 -9947 0
-987 9947 0
827 9947 0
7547 8827 0
7547 10107 0
-7547 -8827 -10107 0
-1147 987 -8827 0
1147 8827 0
-987 8827 0
1147 -987 -10107 0
-1147 10107 0
987 10107 0
1308 0
-2428 0
-2588 3868 0
-2588 5148 0
-2588 1308 0
-2588 -1468 0
2588 -3868 -5148 -1308 1468 0
-28 188 -3868 0
28 3868 0
-188 3868 0
28 -188 -5148 0
-28 5148 0
188 5148 0
-2748 4028 0
-2748 5308 0
-2748 1468 0
-2748 -1628 0
2748 -4028 -5308 -1468 1628 0
-188 348 -4028 0
188 4028 0
-348 4028 0
188 -348 -5308 0
-188 5308 0
348 5308 0
-2908 4188 0
-2908 5468 0
-2908 1628 0
-2908 -1788 0
2908 -4188 -5468 -1628 1788 0
-348 508 -4188 0
348 4188 0
-508 4188 0
348 -508 -5468 0
-348 5468 0
508 5468 0
-3068 4348 0
-3068 5628 0
-3068 1788 0
-3068 -1948 0
3068 -4348 -5628 -1788 1948 0
-508 668 -4348 0
508 4348 0
-668 4348 0
508 -668 -5628 0
-508 5628 0
668 5628 0
-3228 4508 0
-3228 5788 0
-3228 1948 0
-3228 -2108 0
3228 -4508 -5788 -1948 2108 0
-668 828 -4508 0
668 4508 0
-828 4508 0
668 -828 -5788 0
-668 5788 0
828 5788 0
-3388 4668 0
-3388 5948 0
-3388 2108 0
-3388 -2268 0
3388 -4668 -5948 -2108 2268 0
-828 988 -4668 0
828 4668 0
-988 4668 0
828 -988 -5948 0
-828 5948 0
988 5948 0
-3548 4828 0
-3548 6108 0
-3548 2268 0
-3548 -2428 0
3548 -4828 -6108 -2268 2428 0
-988 1148 -4828 0
988 4828 0
-1148 4828 0
988 -1148 -6108 0
-988 6108 0
1148 6108 0
6588 7868 0
6588 9148 0
-6588 -7868 -9148 0
-188 28 -7868 0
188 7868 0
-28 7868 0
188 -28 -9148 0
-188 9148 0
28 9148 0
6748 8028 0
6748 9308 0
-6748 -8028 -9308 0
-348 188 -8028 0
348 8028 0
-188 8028 0
348 -188 -9308 0
-348 9308 0
188 9308 0
6908 8188 0
6908 9468 0
-6908 -8188 -9468 0
-508 348 -8188 0
508 8188 0
-348 8188 0
508 -348 -9468 0
-508 9468 0
348 9468 0
7068 8348 0
7068 9628 0
-7068 -8348 -9628 0
-668 508 -8348 0
668 8348 0
-508 8348 0
668 -508 -9628 0
-668 9628 0
508 9628 0
7228 8508 0
7228 9788 0
-7228 -8508 -9788 0
-828 668 -8508 0
828 8508 0
-668 8508 0
828 -668 -9788 0
-828 9788 0
668 9788 0
7388 8668 0
7388 9948 0
-7388 -8668 -9948 0
-988 828 -8668 0
988 8668 0
-828 8668 0
988 -828 -9948 0
-988 9948 0
828 9948 0
7548 8828 0
7548 10108 0
-7548 -8828 -10108 0
-1148 988 -8828 0
1148 8828 0
-988 8828 0
1148 -988 -10108 0
-1148 10108 0
988 10108 0
1309 0
-2429 0
-2589 3869 0
-2589 5149 0
-2589 1309 0
-2589 -1469 0
2589 -3869 -5149 -1309 1469 0
-29 189 -3869 0
29 3869 0
-189 3869 0
29 -189 -5149 0
-29 5149 0
189 5149 0
-2749 4029 0
-2749 5309 0
-2749 1469 0
-2749 -1629 0
2749 -4029 -5309 -1469 1629 0
-189 349 -4029 0
189 4029 0
-349 4029 0
189 -349 -5309 0
-189 5309 0
349 5309 0
-2909 4189 0
-2909 5469 0
-2909 1629 0
-2909 -1789 0
2909 -4189 -5469 -1629 1789 0
-349 509 -4189 0
349 4189 0
-509 4189 0
349 -509 -5469 0
-349 5469 0
509 5469 0
-3069 4349 0
-3069 5629 0
-3069 1789 0
-3069 -1949 0
3069 -4349 -5629 -1789 1949 0
-509 669 -4349 0
509 4349 0
-669 4349 0
509 -669 -5629 0
-509 5629 0
669 5629 0
-3229 4509 0
-3229 5789 0
-3229 1949 0
-3229 -2109 0
3229 -4509 -5789 -1949 2109 0
-669 829 -4509 0
669 4509 0
-829 4509 0
669 -829 -5789 0
-669 5789 0
829 5789 0
-3389 4669 0
-3389 5949 0
-3389 2109 0
-3389 -2269 0
3389 -4669 -5949 -2109 2269 0
-829 989 -4669 0
829 4669 0
-989 4669 0
829 -989 -5949 0
-829 5949 0
989 5949 0
-3549 4829 0
-3549 6109 0
-3549 2269 0
-3549 -2429 0
3549 -4829 -6109 -2269 2429 0
-989 1149 -4829 0
989 4829 0
-1149 4829 0
989 -1149 -6109 0
-989 6109 0
1149 6109 0
6589 7869 0
6589 9149 0
-6589 -7869 -9149 0
-189 29 -7869 0
189 7869 0
-29 7869 0
189 -29 -9149 0
-189 9149 0
29 9149 0
6749 8029 0
6749 9309 0
-6749 -8029 -9309 0
-349 189 -8029 0
349 8029 0
-189 8029 0
349 -189 -9309 0
-349 9309 0
189 9309 0
6909 8189 0
6909 9469 0
-6909 -8189 -9469 0
-509 349 -8189 0
509 8189 0
-349 8189 0
509 -349 -9469 0
-509 9469 0
349 9469 0
7069 8349 0
7069 9629 0
-7069 -8349 -9629 0
-669 509 -8349 0
669 8349 0
-509 8349 0
669 -509 -9629 0
-669 9629 0
509 9629 0
7229 8509 0
7229 9789 0
-7229 -8509 -9789 0
-829 669 -8509 0
829 8509 0
-669 8509 0
829 -669 -9789 0
-829 9789 0
669 9789 0
7389 8669 0
7389 9949 0
-7389 -8669 -9949 0
-989 829 -8669 0
989 8669 0
-829 8669 0
989 -829 -9949 0
-989 9949 0
829 9949 0
7549 8829 0
7549 10109 0
-7549 -8829 -10109 0
-1149 989 -8829 0
1149 8829 0
-989 8829 0
1149 -989 -10109 0
-1149 10109 0
989 10109 0
1310 0
-2430 0
-2590 3870 0
-2590 5150 0
-2590 1310 0
-2590 -1470 0
2590 -3870 -5150 -1310 1470 0
-30 190 -3870 0
30 3870 0
-190 3870 0
30 -190 -5150 0
-30 5150 0
190 5150 0
-2750 4030 0
-2750 5310 0
-2750 1470 0
-2750 -1630 0
2750 -4030 -5310 -1470 1630 0
-190 350 -4030 0
190 4030 0
-350 4030 0
190 -350 -5310 0
-190 5310 0
350 5310 0
-2910 4190 0
-2910 5470 0
-2910 1630 0
-2910 -1790 0
2910 -4190 -5470 -1630 1790 0
-350 510 -4190 0
350 4190 0
-510 4190 0
350 -510 -5470 0
-350 5470 0
510 5470 0
-3070 4350 0
-3070 5630 0
-3070 1790 0
-3070 -1950 0
3070 -4350 -5630 -1790 1950 0
-510 670 -4350 0
510 4350 0
-670 4350 0
510 -670 -5630 0
-510 5630 0
670 5630 0
-3230 4510 0
-3230 5790 0
-3230 1950 0
-3230 -2110 0
3230 -4510 -5790 -1950 2110 0
-670 830 -4510 0
670 4510 0
-830 4510 0
670 -830 -5790 0
-670 5790 0
830 5790 0
-3390 4670 0
-3390 5950 0
-3390 2110 0
-3390 -2270 0
3390 -4670 -5950 -2110 2270 0
-830 990 -4670 0
830 4670 0
-990 4670 0
830 -990 -5950 0
-830 5950 0
990 5950 0
-3550 4830 0
-3550 6110 0
-3550 2270 0
-3550 -2430 0
3550 -4830 -6110 -2270 2430 0
-990 1150 -4830 0
990 4830 0
-1150 4830 0
990 -1150 -6110 0
-990 6110 0
1150 6110 0
6590 7870 0
6590 9150 0
-6590 -7870 -9150 0
-190 30 -7870 0
190 7870 0
-30 7870 0
190 -30 -9150 0
-190 9150 0
30 9150 0
6750 8030 0
6750 9310 0
-6750 -8030 -9310 0
-350 190 -8030 0
350 8030 0
-190 8030 0
350 -190 -9310 0
-350 9310 0
190 9310 0
6910 8190 0
6910 9470 0
-6910 -8190 -9470 0
-510 350 -8190 0
510 8190 0
-350 8190 0
510 -350 -9470 0
-510 9470 0
350 9470 0
7070 8350 0
7070 9630 0
-7070 -8350 -9630 0
-670 510 -8350 0
670 8350 0
-510 8350 0
670 -510 -9630 0
-670 9630 0
510 9630 0
7230 8510 0
7230 9790 0
-7230 -8510 -9790 0
-830 670 -8510 0
830 8510 0
-670 8510 0
830 -670 -9790 0
-830 9790 0
670 9790 0
7390 8670 0
7390 9950 0
-7390 -8670 -9950 0
-990 830 -8670 0
990 8670 0
-830 8670 0
990 -830 -9950 0
-990 9950 0
830 9950 0
7550 8830 0
7550 10110 0
-7550 -8830 -10110 0
-1150 990 -8830 0
1150 8830 0
-990 8830 0
1150 -990 -10110 0
-1150 10110 0
990 10110 0
1311 0
-2431 0
-2591 3871 0
-2591 5151 0
-2591 1311 0
-2591 -1471 0
2591 -3871 -5151 -1311 1471 0
-31 191 -3871 0
31 3871 0
-191 3871 0
31 -191 -5151 0
-31 5151 0
191 5151 0
-2751 4031 0
-2751 5311 0
-2751 1471 0
-2751 -1631 0
2751 -4031 -5311 -1471 1631 0
-191 351 -4031 0
191 4031 0
-351 4031 0
191 -351 -5311 0
-191 5311 0
351 5311 0
-2911 4191 0
-2911 5471 0
-2911 1631 0
-2911 -1791 0
2911 -4191 -5471 -1631 1791 0
-351 511 -4191 0
351 4191 0
-511 4191 0
351 -511 -5471 0
-351 5471 0
511 5471 0
-3071 4351 0
-3071 5631 0
-3071 1791 0
-3071 -1951 0
3071 -4351 -5631 -1791 1951 0
-511 671 -4351 0
511 4351 0
-671 4351 0
511 -671 -5631 0
-511 5631 0
671 5631 0
-3231 4511 0
-3231 5791 0
-3231 1951 0
-3231 -2111 0
3231 -4511 -5791 -1951 2111 0
-671 831 -4511 0
671 4511 0
-831 4511 0
671 -831 -5791 0
-671 5791 0
831 5791 0
-3391 4671 0
-3391 5951 0
-3391 2111 0
-3391 -2271 0
3391 -4671 -5951 -2111 2271 0
-831 991 -4671 0
831 4671 0
-991 4671 0
831 -991 -5951 0
-831 5951 0
991 5951 0
-3551 4831 0
-3551 6111 0
-3551 2271 0
-3551 -2431 0
3551 -4831 -6111 -2271 2431 0
-991 1151 -4831 0
991 4831 0
-1151 4831 0
991 -1151 -6111 0
-991 6111 0
1151 6111 0
6591 7871 0
6591 9151 0
-6591 -7871 -9151 0
-191 31 -7871 0
191 7871 0
-31 7871 0
191 -31 -9151 0
-191 9151 0
31 9151 0
6751 8031 0
6751 9311 0
-6751 -8031 -9311 0
-351 191 -8031 0
351 8031 0
-191 8031 0
351 -191 -9311 0
-351 9311 0
191 9311 0
6911 8191 0
6911 9471 0
-6911 -8191 -9471 0
-511 351 -8191 0
511 8191 0
-351 8191 0
511 -351 -9471 0
-511 9471 0
351 9471 0
7071 8351 0
7071 9631 0
-7071 -8351 -9631 0
-671 511 -8351 0
671 8351 0
-511 8351 0
671 -511 -9631 0
-671 9631 0
511 9631 0
7231 8511 0
7231 9791 0
-7231 -8511 -9791 0
-831 671 -8511 0
831 8511 0
-671 8511 0
831 -671 -9791 0
-831 9791 0
671 9791 0
7391 8671 0
7391 9951 0
-7391 -8671 -9951 0
-991 831 -8671 0
991 8671 0
-831 8671 0
991 -831 -9951 0
-991 9951 0
831 9951 0
7551 8831 0
7551 10111 0
-7551 -8831 -10111 0
-1151 991 -8831 0
1151 8831 0
-991 8831 0
1151 -991 -10111 0
-1151 10111 0
991 10111 0
1312 0
-2432 0
-2592 3872 0
-2592 5152 0
-2592 1312 0
-2592 -1472 0
2592 -3872 -5152 -1312 1472 0
-32 192 -3872 0
32 3872 0
-192 3872 0
32 -192 -5152 0
-32 5152 0
192 5152 0
-2752 4032 0
-2752 5312 0
-2752 1472 0
-2752 -1632 0
2752 -4032 -5312 -1472 1632 0
-192 352 -4032 0
192 4032 0
-352 4032 0
192 -352 -5312 0
-192 5312 0
352 5312 0
-2912 4192 0
-2912 5472 0
-2912 1632 0
-2912 -1792 0
2912 -4192 -5472 -1632 1792 0
-352 512 -4192 0
352 4192 0
-512 4192 0
352 -512 -5472 0
-352 5472 0
512 5472 0
-3072 4352 0
-3072 5632 0
-3072 1792 0
-3072 -1952 0
3072 -4352 -5632 -1792 1952 0
-512 672 -4352 0
512 4352 0
-672 4352 0
512 -672 -5632 0
-512 5632 0
672 5632 0
-3232 4512 0
-3232 5792 0
-3232 1952 0
-3232 -2112 0
3232 -4512 -5792 -1952 2112 0
-672 832 -4512 0
672 4512 0
-832 4512 0
672 -832 -5792 0
-672 5792 0
832 5792 0
-3392 4672 0
-3392 5952 0
-3392 2112 0
-3392 -2272 0
3392 -4672 -5952 -2112 2272 0
-832 992 -4672 0
832 4672 0
-992 4672 0
832 -992 -5952 0
-832 5952 0
992 5952 0
-3552 4832 0
-3552 6112 0
-3552 2272 0
-3552 -2432 0
3552 -4832 -6112 -2272 2432 0
-992 1152 -4832 0
992 4832 0
-1152 4832 0
992 -1152 -6112 0
-992 6112 0
1152 6112 0
6592 7872 0
6592 9152 0
-6592 -7872 -9152 0
-192 32 -7872 0
192 7872 0
-32 7872 0
192 -32 -9152 0
-192 9152 0
32 9152 0
6752 8032 0
6752 9312 0
-6752 -8032 -9312 0
-352 192 -8032 0
352 8032 0
-192 8032 0
352 -192 -9312 0
-352 9312 0
192 9312 0
6912 8192 0
6912 9472 0
-6912 -8192 -9472 0
-512 352 -8192 0
512 8192 0
-352 8192 0
512 -352 -9472 0
-512 9472 0
352 9472 0
7072 8352 0
7072 9632 0
-7072 -8352 -9632 0
-672 512 -8352 0
672 8352 0
-512 8352 0
672 -512 -9632 0
-672 9632 0
512 9632 0
7232 8512 0
7232 9792 0
-7232 -8512 -9792 0
-832 672 -8512 0
832 8512 0
-672 8512 0
832 -672 -9792 0
-832 9792 0
672 9792 0
7392 8672 0
7392 9952 0
-7392 -8672 -9952 0
-992 832 -8672 0
992 8672 0
-832 8672 0
992 -832 -9952 0
-992 9952 0
832 9952 0
7552 8832 0
7552 10112 0
-7552 -8832 -10112 0
-1152 992 -8832 0
1152 8832 0
-992 8832 0
1152 -992 -10112 0
-1152 10112 0
992 10112 0
1313 0
-2433 0
-2593 3873 0
-2593 5153 0
-2593 1313 0
-2593 -1473 0
2593 -3873 -5153 -1313 1473 0
-33 193 -3873 0
33 3873 0
-193 3873 0
33 -193 -5153 0
-33 5153 0
193 5153 0
-2753 4033 0
-2753 5313 0
-2753 1473 0
-2753 -1633 0
2753 -4033 -5313 -1473 1633 0
-193 353 -4033 0
193 4033 0
-353 4033 0
193 -353 -5313 0
-193 5313 0
353 5313 0
-2913 4193 0
-2913 5473 0
-2913 1633 0
-2913 -1793 0
2913 -4193 -5473 -1633 1793 0
-353 513 -4193 0
353 4193 0
-513 4193 0
353 -513 -5473 0
-353 5473 0
513 5473 0
-3073 4353 0
-3073 5633 0
-3073 1793 0
-3073 -1953 0
3073 -4353 -5633 -1793 1953 0
-513 673 -4353 0
513 4353 0
-673 4353 0
513 -673 -5633 0
-513 5633 0
673 5633 0
-3233 4513 0
-3233 5793 0
-3233 1953 0
-3233 -2113 0
3233 -4513 -5793 -1953 2113 0
-673 833 -4513 0
673 4513 0
-833 4513 0
673 -833 -5793 0
-673 5793 0
833 5793 0
-3393 4673 0
-3393 5953 0
-3393 2113 0
-3393 -2273 0
3393 -4673 -5953 -2113 2273 0
-833 993 -4673 0
833 4673 0
-993 4673 0
833 -993 -5953 0
-833 5953 0
993 5953 0
-3553 4833 0
-3553 6113 0
-3553 2273 0
-3553 -2433 0
3553 -4833 -6113 -2273 2433 0
-993 1153 -4833 0
993 4833 0
-1153 4833 0
993 -1153 -6113 0
-993 6113 0
1153 6113 0
6593 7873 0
6593 9153 0
-6593 -7873 -9153 0
-193 33 -7873 0
193 7873 0
-33 7873 0
193 -33 -9153 0
-193 9153 0
33 9153 0
6753 8033 0
6753 9313 0
-6753 -8033 -9313 0
-353 193 -8033 0
353 8033 0
-193 8033 0
353 -193 -9313 0
-353 9313 0
193 9313 0
6913 8193 0
6913 9473 0
-6913 -8193 -9473 0
-513 353 -8193 0
513 8193 0
-353 8193 0
513 -353 -9473 0
-513 9473 0
353 9473 0
7073 8353 0
7073 9633 0
-7073 -8353 -9633 0
-673 513 -8353 0
673 8353 0
-513 8353 0
673 -513 -9633 0
-673 9633 0
513 9633 0
7233 8513 0
7233 9793 0
-7233 -8513 -9793 0
-833 673 -8513 0
833 8513 0
-673 8513 0
833 -673 -9793 0
-833 9793 0
673 9793 0
7393 8673 0
7393 9953 0
-7393 -8673 -9953 0
-993 833 -8673 0
993 8673 0
-833 8673 0
993 -833 -9953 0
-993 9953 0
833 9953 0
7553 8833 0
7553 10113 0
-7553 -8833 -10113 0
-1153 993 -8833 0
1153 8833 0
-993 8833 0
1153 -993 -10113 0
-1153 10113 0
993 10113 0
1314 0
-2434 0
-2594 3874 0
-2594 5154 0
-2594 1314 0
-2594 -1474 0
2594 -3874 -5154 -1314 1474 0
-34 194 -3874 0
34 3874 0
-194 3874 0
34 -194 -5154 0
-34 5154 0
194 5154 0
-2754 4034 0
-2754 5314 0
-2754 1474 0
-2754 -1634 0
2754 -4034 -5314 -1474 1634 0
-194 354 -4034 0
194 4034 0
-354 4034 0
194 -354 -5314 0
-194 5314 0
354 5314 0
-2914 4194 0
-2914 5474 0
-2914 1634 0
-2914 -1794 0
2914 -4194 -5474 -1634 1794 0
-354 514 -4194 0
354 4194 0
-514 4194 0
354 -514 -5474 0
-354 5474 0
514 5474 0
-3074 4354 0
-3074 5634 0
-3074 1794 0
-3074 -1954 0
3074 -4354 -5634 -1794 1954 0
-514 674 -4354 0
514 4354 0
-674 4354 0
514 -674 -5634 0
-514 5634 0
674 5634 0
-3234 4514 0
-3234 5794 0
-3234 1954 0
-3234 -2114 0
3234 -4514 -5794 -1954 2114 0
-674 834 -4514 0
674 4514 0
-834 4514 0
674 -834 -5794 0
-674 5794 0
834 5794 0
-3394 4674 0
-3394 5954 0
-3394 2114 0
-3394 -2274 0
3394 -4674 -5954 -2114 2274 0
-834 994 -4674 0
834 4674 0
-994 4674 0
834 -994 -5954 0
-834 5954 0
994 5954 0
-3554 4834 0
-3554 6114 0
-3554 2274 0
-3554 -2434 0
3554 -4834 -6114 -2274 2434 0
-994 1154 -4834 0
994 4834 0
-1154 4834 0
994 -1154 -6114 0
-994 6114 0
1154 6114 0
6594 7874 0
6594 9154 0
-6594 -7874 -9154 0
-194 34 -7874 0
194 7874 0
-34 7874 0
194 -34 -9154 0
-194 9154 0
34 9154 0
6754 8034 0
6754 9314 0
-6754 -8034 -9314 0
-354 194 -8034 0
354 8034 0
-194 8034 0
354 -194 -9314 0
-354 9314 0
194 9314 0
6914 8194 0
6914 9474 0
-6914 -8194 -9474 0
-514 354 -8194 0
514 8194 0
-354 8194 0
514 -354 -9474 0
-514 9474 0
354 9474 0
7074 8354 0
7074 9634 0
-7074 -8354 -9634 0
-674 514 -8354 0
674 8354 0
-514 8354 0
674 -514 -9634 0
-674 9634 0
514 9634 0
7234 8514 0
7234 9794 0
-7234 -8514 -9794 0
-834 674 -8514 0
834 8514 0
-674 8514 0
834 -674 -9794 0
-834 9794 0
674 9794 0
7394 8674 0
7394 9954 0
-7394 -8674 -9954 0
-994 834 -8674 0
994 8674 0
-834 8674 0
994 -834 -9954 0
-994 9954 0
834 9954 0
7554 8834 0
7554 10114 0
-7554 -8834 -10114 0
-1154 994 -8834 0
1154 8834 0
-994 8834 0
1154 -994 -10114 0
-1154 10114 0
994 10114 0
1315 0
-2435 0
-2595 3875 0
-2595 5155 0
-2595 1315 0
-2595 -1475 0
2595 -3875 -5155 -1315 1475 0
-35 195 -3875 0
35 3875 0
-195 3875 0
35 -195 -5155 0
-35 5155 0
195 5155 0
-2755 4035 0
-2755 5315 0
-2755 1475 0
-2755 -1635 0
2755 -4035 -5315 -1475 1635 0
-195 355 -4035 0
195 4035 0
-355 4035 0
195 -355 -5315 0
-195 5315 0
355 5315 0
-2915 4195 0
-2915 5475 0
-2915 1635 0
-2915 -1795 0
2915 -4195 -5475 -1635 1795 0
-355 515 -4195 0
355 4195 0
-515 4195 0
355 -515 -5475 0
-355 5475 0
515 5475 0
-3075 4355 0
-3075 5635 0
-3075 1795 0
-3075 -1955 0
3075 -4355 -5635 -1795 1955 0
-515 675 -4355 0
515 4355 0
-675 4355 0
515 -675 -5635 0
-515 5635 0
675 5635 0
-3235 4515 0
-3235 5795 0
-3235 1955 0
-3235 -2115 0
3235 -4515 -5795 -1955 2115 0
-675 835 -4515 0
675 4515 0
-835 4515 0
675 -835 -5795 0
-675 5795 0
835 5795 0
-3395 4675 0
-3395 5955 0
-3395 2115 0
-3395 -2275 0
3395 -4675 -5955 -2115 2275 0
-835 995 -4675 0
835 4675 0
-995 4675 0
835 -995 -5955 0
-835 5955 0
995 5955 0
-3555 4835 0
-3555 6115 0
-3555 2275 0
-3555 -2435 0
3555 -4835 -6115 -2275 2435 0
-995 1155 -4835 0
995 4835 0
-1155 4835 0
995 -1155 -6115 0
-995 6115 0
1155 6115 0
6595 7875 0
6595 9155 0
-6595 -7875 -9155 0
-195 35 -7875 0
195 7875 0
-35 7875 0
195 -35 -9155 0
-195 9155 0
35 9155 0
6755 8035 0
6755 9315 0
-6755 -8035 -9315 0
-355 195 -8035 0
355 8035 0
-195 8035 0
355 -195 -9315 0
-355 9315 0
195 9315 0
6915 8195 0
6915 9475 0
-6915 -8195 -9475 0
-515 355 -8195 0
515 8195 0
-355 8195 0
515 -355 -9475 0
-515 9475 0
355 9475 0
7075 8355 0
7075 9635 0
-7075 -8355 -9635 0
-675 515 -8355 0
675 8355 0
-515 8355 0
675 -515 -9635 0
-675 9635 0
515 9635 0
7235 8515 0
7235 9795 0
-7235 -8515 -9795 0
-835 675 -8515 0
835 8515 0
-675 8515 0
835 -675 -9795 0
-835 9795 0
675 9795 0
7395 8675 0
7395 9955 0
-7395 -8675 -9955 0
-995 835 -8675 0
995 8675 0
-835 8675 0
995 -835 -9955 0
-995 9955 0
835 9955 0
7555 8835 0
7555 10115 0
-7555 -8835 -10115 0
-1155 995 -8835 0
1155 8835 0
-995 8835 0
1155 -995 -10115 0
-1155 10115 0
995 10115 0
1316 0
-2436 0
-2596 3876 0
-2596 5156 0
-2596 1316 0
-2596 -1476 0
2596 -3876 -5156 -1316 1476 0
-36 196 -3876 0
36 3876 0
-196 3876 0
36 -196 -5156 0
-36 5156 0
196 5156 0
-2756 4036 0
-2756 5316 0
-2756 1476 0
-2756 -1636 0
2756 -4036 -5316 -1476 1636 0
-196 356 -4036 0
196 4036 0
-356 4036 0
196 -356 -5316 0
-196 5316 0
356 5316 0
-2916 4196 0
-2916 5476 0
-2916 1636 0
-2916 -1796 0
2916 -4196 -5476 -1636 1796 0
-356 516 -4196 0
356 4196 0
-516 4196 0
356 -516 -5476 0
-356 5476 0
516 5476 0
-3076 4356 0
-3076 5636 0
-3076 1796 0
-3076 -1956 0
3076 -4356 -5636 -1796 1956 0
-516 676 -4356 0
516 4356 0
-676 4356 0
516 -676 -5636 0
-516 5636 0
676 5636 0
-3236 4516 0
-3236 5796 0
-3236 1956 0
-3236 -2116 0
3236 -4516 -5796 -1956 2116 0
-676 836 -4516 0
676 4516 0
-836 4516 0
676 -836 -5796 0
-676 5796 0
836 5796 0
-3396 4676 0
-3396 5956 0
-3396 2116 0
-3396 -2276 0
3396 -4676 -5956 -2116 2276 0
-836 996 -4676 0
836 4676 0
-996 4676 0
836 -996 -5956 0
-836 5956 0
996 5956 0
-3556 4836 0
-3556 6116 0
-3556 2276 0
-3556 -2436 0
3556 -4836 -6116 -2276 2436 0
-996 1156 -4836 0
996 4836 0
-1156 4836 0
996 -1156 -6116 0
-996 6116 0
1156 6116 0
6596 7876 0
6596 9156 0
-6596 -7876 -9156 0
-196 36 -7876 0
196 7876 0
-36 7876 0
196 -36 -9156 0
-196 9156 0
36 9156 0
6756 8036 0
6756 9316 0
-6756 -8036 -9316 0
-356 196 -8036 0
356 8036 0
-196 8036 0
356 -196 -9316 0
-356 9316 0
196 9316 0
6916 8196 0
6916 9476 0
-6916 -8196 -9476 0
-516 356 -8196 0
516 8196 0
-356 8196 0
516 -356 -9476 0
-516 9476 0
356 9476 0
7076 8356 0
7076 9636 0
-7076 -8356 -9636 0
-676 516 -8356 0
676 8356 0
-516 8356 0
676 -516 -9636 0
-676 9636 0
516 9636 0
7236 8516 0
7236 9796 0
-7236 -8516 -9796 0
-836 676 -8516 0
836 8516 0
-676 8516 0
836 -676 -9796 0
-836 9796 0
676 9796 0
7396 8676 0
7396 9956 0
-7396 -8676 -9956 0
-996 836 -8676 0
996 8676 0
-836 8676 0
996 -836 -9956 0
-996 9956 0
836 9956 0
7556 8836 0
7556 10116 0
-7556 -8836 -10116 0
-1156 996 -8836 0
1156 8836 0
-996 8836 0
1156 -996 -10116 0
-1156 10116 0
996 10116 0
1317 0
-2437 0
-2597 3877 0
-2597 5157 0
-2597 1317 0
-2597 -1477 0
2597 -3877 -5157 -1317 1477 0
-37 197 -3877 0
37 3877 0
-197 3877 0
37 -197 -5157 0
-37 5157 0
197 5157 0
-2757 4037 0
-2757 5317 0
-2757 1477 0
-2757 -1637 0
2757 -4037 -5317 -1477 1637 0
-197 357 -4037 0
197 4037 0
-357 4037 0
197 -357 -5317 0
-197 5317 0
357 5317 0
-2917 4197 0
-2917 5477 0
-2917 1637 0
-2917 -1797 0
2917 -4197 -5477 -1637 1797 0
-357 517 -4197 0
357 4197 0
-517 4197 0
357 -517 -5477 0
-357 5477 0
517 5477 0
-3077 4357 0
-3077 5637 0
-3077 1797 0
-3077 -1957 0
3077 -4357 -5637 -1797 1957 0
-517 677 -4357 0
517 4357 0
-677 4357 0
517 -677 -5637 0
-517 5637 0
677 5637 0
-3237 4517 0
-3237 5797 0
-3237 1957 0
-3237 -2117 0
3237 -4517 -5797 -1957 2117 0
-677 837 -4517 0
677 4517 0
-837 4517 0
677 -837 -5797 0
-677 5797 0
837 5797 0
-3397 4677 0
-3397 5957 0
-3397 2117 0
-3397 -2277 0
3397 -4677 -5957 -2117 2277 0
-837 997 -4677 0
837 4677 0
-997 4677 0
837 -997 -5957 0
-837 5957 0
997 5957 0
-3557 4837 0
-3557 6117 0
-3557 2277 0
-3557 -2437 0
3557 -4837 -6117 -2277 2437 0
-997 1157 -4837 0
997 4837 0
-1157 4837 0
997 -1157 -6117 0
-997 6117 0
1157 6117 0
6597 7877 0
6597 9157 0
-6597 -7877 -9157 0
-197 37 -7877 0
197 7877 0
-37 7877 0
197 -37 -9157 0
-197 9157 0
37 9157 0
6757 8037 0
6757 9317 0
-6757 -8037 -9317 0
-357 197 -8037 0
357 8037 0
-197 8037 0
357 -197 -9317 0
-357 9317 0
197 9317 0
6917 8197 0
6917 9477 0
-6917 -8197 -9477 0
-517 357 -8197 0
517 8197 0
-357 8197 0
517 -357 -9477 0
-517 9477 0
357 9477 0
7077 8357 0
7077 9637 0
-7077 -8357 -9637 0
-677 517 -8357 0
677 8357 0
-517 8357 0
677 -517 -9637 0
-677 9637 0
517 9637 0
7237 8517 0
7237 9797 0
-7237 -8517 -9797 0
-837 677 -8517 0
837 8517 0
-677 8517 0
837 -677 -9797 0
-837 9797 0
677 9797 0
7397 8677 0
7397 9957 0
-7397 -8677 -9957 0
-997 837 -8677 0
997 8677 0
-837 8677 0
997 -837 -9957 0
-997 9957 0
837 9957 0
7557 8837 0
7557 10117 0
-7557 -8837 -10117 0
-1157 997 -8837 0
1157 8837 0
-997 8837 0
1157 -997 -10117 0
-1157 10117 0
997 10117 0
1318 0
-2438 0
-2598 3878 0
-2598 5158 0
-2598 1318 0
-2598 -1478 0
2598 -3878 -5158 -1318 1478 0
-38 198 -3878 0
38 3878 0
-198 3878 0
38 -198 -5158 0
-38 5158 0
198 5158 0
-2758 4038 0
-2758 5318 0
-2758 1478 0
-2758 -1638 0
2758 -4038 -5318 -1478 1638 0
-198 358 -4038 0
198 4038 0
-358 4038 0
198 -358 -5318 0
-198 5318 0
358 5318 0
-2918 4198 0
-2918 5478 0
-2918 1638 0
-2918 -1798 0
2918 -4198 -5478 -1638 1798 0
-358 518 -4198 0
358 4198 0
-518 4198 0
358 -518 -5478 0
-358 5478 0
518 5478 0
-3078 4358 0
-3078 5638 0
-3078 1798 0
-3078 -1958 0
3078 -4358 -5638 -1798 1958 0
-518 678 -4358 0
518 4358 0
-678 4358 0
518 -678 -5638 0
-518 5638 0
678 5638 0
-3238 4518 0
-3238 5798 0
-3238 1958 0
-3238 -2118 0
3238 -4518 -5798 -1958 2118 0
-678 838 -4518 0
678 4518 0
-838 4518 0
678 -838 -5798 0
-678 5798 0
838 5798 0
-3398 4678 0
-3398 5958 0
-3398 2118 0
-3398 -2278 0
3398 -4678 -5958 -2118 2278 0
-838 998 -4678 0
838 4678 0
-998 4678 0
838 -998 -5958 0
-838 5958 0
998 5958 0
-3558 4838 0
-3558 6118 0
-3558 2278 0
-3558 -2438 0
3558 -4838 -6118 -2278 2438 0
-998 1158 -4838 0
998 4838 0
-1158 4838 0
998 -1158 -6118 0
-998 6118 0
1158 6118 0
6598 7878 0
6598 9158 0
-6598 -7878 -9158 0
-198 38 -7878 0
198 7878 0
-38 7878 0
198 -38 -9158 0
-198 9158 0
38 9158 0
6758 8038 0
6758 9318 0
-6758 -8038 -9318 0
-358 198 -8038 0
358 8038 0
-198 8038 0
358 -198 -9318 0
-358 9318 0
198 9318 0
6918 8198 0
6918 9478 0
-6918 -8198 -9478 0
-518 358 -8198 0
518 8198 0
-358 8198 0
518 -358 -9478 0
-518 9478 0
358 9478 0
7078 8358 0
7078 9638 0
-7078 -8358 -9638 0
-678 518 -8358 0
678 8358 0
-518 8358 0
678 -518 -9638 0
-678 9638 0
518 9638 0
7238 8518 0
7238 9798 0
-7238 -8518 -9798 0
-838 678 -8518 0
838 8518 0
-678 8518 0
838 -678 -9798 0
-838 9798 0
678 9798 0
7398 8678 0
7398 9958 0
-7398 -8678 -9958 0
-998 838 -8678 0
998 8678 0
-838 8678 0
998 -838 -9958 0
-998 9958 0
838 9958 0
7558 8838 0
7558 10118 0
-7558 -8838 -10118 0
-1158 998 -8838 0
1158 8838 0
-998 8838 0
1158 -998 -10118 0
-1158 10118 0
998 10118 0
1319 0
-2439 0
-2599 3879 0
-2599 5159 0
-2599 1319 0
-2599 -1479 0
2599 -3879 -5159 -1319 1479 0
-39 199 -3879 0
39 3879 0
-199 3879 0
39 -199 -5159 0
-39 5159 0
199 5159 0
-2759 4039 0
-2759 5319 0
-2759 1479 0
-2759 -1639 0
2759 -4039 -5319 -1479 1639 0
-199 359 -4039 0
199 4039 0
-359 4039 0
199 -359 -5319 0
-199 5319 0
359 5319 0
-2919 4199 0
-2919 5479 0
-2919 1639 0
-2919 -1799 0
2919 -4199 -5479 -1639 1799 0
-359 519 -4199 0
359 4199 0
-519 4199 0
359 -519 -5479 0
-359 5479 0
519 5479 0
-3079 4359 0
-3079 5639 0
-3079 1799 0
-3079 -1959 0
3079 -4359 -5639 -1799 1959 0
-519 679 -4359 0
519 4359 0
-679 4359 0
519 -679 -5639 0
-519 5639 0
679 5639 0
-3239 4519 0
-3239 5799 0
-3239 1959 0
-3239 -2119 0
3239 -4519 -5799 -1959 2119 0
-679 839 -4519 0
679 4519 0
-839 4519 0
679 -839 -5799 0
-679 5799 0
839 5799 0
-3399 4679 0
-3399 5959 0
-3399 2119 0
-3399 -2279 0
3399 -4679 -5959 -2119 2279 0
-839 999 -4679 0
839 4679 0
-999 4679 0
839 -999 -5959 0
-839 5959 0
999 5959 0
-3559 4839 0
-3559 6119 0
-3559 2279 0
-3559 -2439 0
3559 -4839 -6119 -2279 2439 0
-999 1159 -4839 0
999 4839 0
-1159 4839 0
999 -1159 -6119 0
-999 6119 0
1159 6119 0
6599 7879 0
6599 9159 0
-6599 -7879 -9159 0
-199 39 -7879 0
199 7879 0
-39 7879 0
199 -39 -9159 0
-199 9159 0
39 9159 0
6759 8039 0
6759 9319 0
-6759 -8039 -9319 0
-359 199 -8039 0
359 8039 0
-199 8039 0
359 -199 -9319 0
-359 9319 0
199 9319 0
6919 8199 0
6919 9479 0
-6919 -8199 -9479 0
-519 359 -8199 0
519 8199 0
-359 8199 0
519 -359 -9479 0
-519 9479 0
359 9479 0
7079 8359 0
7079 9639 0
-7079 -8359 -9639 0
-679 519 -8359 0
679 8359 0
-519 8359 0
679 -519 -9639 0
-679 9639 0
519 9639 0
7239 8519 0
7239 9799 0
-7239 -8519 -9799 0
-839 679 -8519 0
839 8519 0
-679 8519 0
839 -679 -9799 0
-839 9799 0
679 9799 0
7399 8679 0
7399 9959 0
-7399 -8679 -9959 0
-999 839 -8679 0
999 8679 0
-839 8679 0
999 -839 -9959 0
-999 9959 0
839 9959 0
7559 8839 0
7559 10119 0
-7559 -8839 -10119 0
-1159 999 -8839 0
1159 8839 0
-999 8839 0
1159 -999 -10119 0
-1159 10119 0
999 10119 0
1320 0
-2440 0
-2600 3880 0
-2600 5160 0
-2600 1320 0
-2600 -1480 0
2600 -3880 -5160 -1320 1480 0
-40 200 -3880 0
40 3880 0
-200 3880 0
40 -200 -5160 0
-40 5160 0
200 5160 0
-2760 4040 0
-2760 5320 0
-2760 1480 0
-2760 -1640 0
2760 -4040 -5320 -1480 1640 0
-200 360 -4040 0
200 4040 0
-360 4040 0
200 -360 -5320 0
-200 5320 0
360 5320 0
-2920 4200 0
-2920 5480 0
-2920 1640 0
-2920 -1800 0
2920 -4200 -5480 -1640 1800 0
-360 520 -4200 0
360 4200 0
-520 4200 0
360 -520 -5480 0
-360 5480 0
520 5480 0
-3080 4360 0
-3080 5640 0
-3080 1800 0
-3080 -1960 0
3080 -4360 -5640 -1800 1960 0
-520 680 -4360 0
520 4360 0
-680 4360 0
520 -680 -5640 0
-520 5640 0
680 5640 0
-3240 4520 0
-3240 5800 0
-3240 1960 0
-3240 -2120 0
3240 -4520 -5800 -1960 2120 0
-680 840 -4520 0
680 4520 0
-840 4520 0
680 -840 -5800 0
-680 5800 0
840 5800 0
-3400 4680 0
-3400 5960 0
-3400 2120 0
-3400 -2280 0
3400 -4680 -5960 -2120 2280 0
-840 1000 -4680 0
840 4680 0
-1000 4680 0
840 -1000 -5960 0
-840 5960 0
1000 5960 0
-3560 4840 0
-3560 6120 0
-3560 2280 0
-3560 -2440 0
3560 -4840 -6120 -2280 2440 0
-1000 1160 -4840 0
1000 4840 0
-1160 4840 0
1000 -1160 -6120 0
-1000 6120 0
1160 6120 0
6600 7880 0
6600 9160 0
-6600 -7880 -9160 0
-200 40 -7880 0
200 7880 0
-40 7880 0
200 -40 -9160 0
-200 9160 0
40 9160 0
6760 8040 0
6760 9320 0
-6760 -8040 -9320 0
-360 200 -8040 0
360 8040 0
-200 8040 0
360 -200 -9320 0
-360 9320 0
200 9320 0
6920 8200 0
6920 9480 0
-6920 -8200 -9480 0
-520 360 -8200 0
520 8200 0
-360 8200 0
520 -360 -9480 0
-520 9480 0
360 9480 0
7080 8360 0
7080 9640 0
-7080 -8360 -9640 0
-680 520 -8360 0
680 8360 0
-520 8360 0
680 -520 -9640 0
-680 9640 0
520 9640 0
7240 8520 0
7240 9800 0
-7240 -8520 -9800 0
-840 680 -8520 0
840 8520 0
-680 8520 0
840 -680 -9800 0
-840 9800 0
680 9800 0
7400 8680 0
7400 9960 0
-7400 -8680 -9960 0
-1000 840 -8680 0
1000 8680 0
-840 8680 0
1000 -840 -9960 0
-1000 9960 0
840 9960 0
7560 8840 0
7560 10120 0
-7560 -8840 -10120 0
-1160 1000 -8840 0
1160 8840 0
-1000 8840 0
1160 -1000 -10120 0
-1160 10120 0
1000 10120 0
1321 0
-2441 0
-2601 3881 0
-2601 5161 0
-2601 1321 0
-2601 -1481 0
2601 -3881 -5161 -1321 1481 0
-41 201 -3881 0
41 3881 0
-201 3881 0
41 -201 -5161 0
-41 5161 0
201 5161 0
-2761 4041 0
-2761 5321 0
-2761 1481 0
-2761 -1641 0
2761 -4041 -5321 -1481 1641 0
-201 361 -4041 0
201 4041 0
-361 4041 0
201 -361 -5321 0
-201 5321 0
361 5321 0
-2921 4201 0
-2921 5481 0
-2921 1641 0
-2921 -1801 0
2921 -4201 -5481 -1641 1801 0
-361 521 -4201 0
361 4201 0
-521 4201 0
361 -521 -5481 0
-361 5481 0
521 5481 0
-3081 4361 0
-3081 5641 0
-3081 1801 0
-3081 -1961 0
3081 -4361 -5641 -1801 1961 0
-521 681 -4361 0
521 4361 0
-681 4361 0
521 -681 -5641 0
-521 5641 0
681 5641 0
-3241 4521 0
-3241 5801 0
-3241 1961 0
-3241 -2121 0
3241 -4521 -5801 -1961 2121 0
-681 841 -4521 0
681 4521 0
-841 4521 0
681 -841 -5801 0
-681 5801 0
841 5801 0
-3401 4681 0
-3401 5961 0
-3401 2121 0
-3401 -2281 0
3401 -4681 -5961 -2121 2281 0
-841 1001 -4681 0
841 4681 0
-1001 4681 0
841 -1001 -5961 0
-841 5961 0
1001 5961 0
-3561 4841 0
-3561 6121 0
-3561 2281 0
-3561 -2441 0
3561 -4841 -6121 -2281 2441 0
-1001 1161 -4841 0
1001 4841 0
-1161 4841 0
1001 -1161 -6121 0
-1001 6121 0
1161 6121 0
6601 7881 0
6601 9161 0
-6601 -7881 -9161 0
-201 41 -7881 0
201 7881 0
-41 7881 0
201 -41 -9161 0
-201 9161 0
41 9161 0
6761 8041 0
6761 9321 0
-6761 -8041 -9321 0
-361 201 -8041 0
361 8041 0
-201 8041 0
361 -201 -9321 0
-361 9321 0
201 9321 0
6921 8201 0
6921 9481 0
-6921 -8201 -9481 0
-521 361 -8201 0
521 8201 0
-361 8201 0
521 -361 -9481 0
-521 9481 0
361 9481 0
7081 8361 0
7081 9641 0
-7081 -8361 -9641 0
-681 521 -8361 0
681 8361 0
-521 8361 0
681 -521 -9641 0
-681 9641 0
521 9641 0
7241 8521 0
7241 9801 0
-7241 -8521 -9801 0
-841 681 -8521 0
841 8521 0
-681 8521 0
841 -681 -9801 0
-841 9801 0
681 9801 0
7401 8681 0
7401 9961 0
-7401 -8681 -9961 0
-1001 841 -8681 0
1001 8681 0
-841 8681 0
1001 -841 -9961 0
-1001 9961 0
841 9961 0
7561 8841 0
7561 10121 0
-7561 -8841 -10121 0
-1161 1001 -8841 0
1161 8841 0
-1001 8841 0
1161 -1001 -10121 0
-1161 10121 0
1001 10121 0
1322 0
-2442 0
-2602 3882 0
-2602 5162 0
-2602 1322 0
-2602 -1482 0
2602 -3882 -5162 -1322 1482 0
-42 202 -3882 0
42 3882 0
-202 3882 0
42 -202 -5162 0
-42 5162 0
202 5162 0
-2762 4042 0
-2762 5322 0
-2762 1482 0
-2762 -1642 0
2762 -4042 -5322 -1482 1642 0
-202 362 -4042 0
202 4042 0
-362 4042 0
202 -362 -5322 0
-202 5322 0
362 5322 0
-2922 4202 0
-2922 5482 0
-2922 1642 0
-2922 -1802 0
2922 -4202 -5482 -1642 1802 0
-362 522 -4202 0
362 4202 0
-522 4202 0
362 -522 -5482 0
-362 5482 0
522 5482 0
-3082 4362 0
-3082 5642 0
-3082 1802 0
-3082 -1962 0
3082 -4362 -5642 -1802 1962 0
-522 682 -4362 0
522 4362 0
-682 4362 0
522 -682 -5642 0
-522 5642 0
682 5642 0
-3242 4522 0
-3242 5802 0
-3242 1962 0
-3242 -2122 0
3242 -4522 -5802 -1962 2122 0
-682 842 -4522 0
682 4522 0
-842 4522 0
682 -842 -5802 0
-682 5802 0
842 5802 0
-3402 4682 0
-3402 5962 0
-3402 2122 0
-3402 -2282 0
3402 -4682 -5962 -2122 2282 0
-842 1002 -4682 0
842 4682 0
-1002 4682 0
842 -1002 -5962 0
-842 5962 0
1002 5962 0
-3562 4842 0
-3562 6122 0
-3562 2282 0
-3562 -2442 0
3562 -4842 -6122 -2282 2442 0
-1002 1162 -4842 0
1002 4842 0
-1162 4842 0
1002 -1162 -6122 0
-1002 6122 0
1162 6122 0
6602 7882 0
6602 9162 0
-6602 -7882 -9162 0
-202 42 -7882 0
202 7882 0
-42 7882 0
202 -42 -9162 0
-202 9162 0
42 9162 0
6762 8042 0
6762 9322 0
-6762 -8042 -9322 0
-362 202 -8042 0
362 8042 0
-202 8042 0
362 -202 -9322 0
-362 9322 0
202 9322 0
6922 8202 0
6922 9482 0
-6922 -8202 -9482 0
-522 362 -8202 0
522 8202 0
-362 8202 0
522 -362 -9482 0
-522 9482 0
362 9482 0
7082 8362 0
7082 9642 0
-7082 -8362 -9642 0
-682 522 -8362 0
682 8362 0
-522 8362 0
682 -522 -9642 0
-682 9642 0
522 9642 0
7242 8522 0
7242 9802 0
-7242 -8522 -9802 0
-842 682 -8522 0
842 8522 0
-682 8522 0
842 -682 -9802 0
-842 9802 0
682 9802 0
7402 8682 0
7402 9962 0
-7402 -8682 -9962 0
-1002 842 -8682 0
1002 8682 0
-842 8682 0
1002 -842 -9962 0
-1002 9962 0
842 9962 0
7562 8842 0
7562 10122 0
-7562 -8842 -10122 0
-1162 1002 -8842 0
1162 8842 0
-1002 8842 0
1162 -1002 -10122 0
-1162 10122 0
1002 10122 0
1323 0
-2443 0
-2603 3883 0
-2603 5163 0
-2603 1323 0
-2603 -1483 0
2603 -3883 -5163 -1323 1483 0
-43 203 -3883 0
43 3883 0
-203 3883 0
43 -203 -5163 0
-43 5163 0
203 5163 0
-2763 4043 0
-2763 5323 0
-2763 1483 0
-2763 -1643 0
2763 -4043 -5323 -1483 1643 0
-203 363 -4043 0
203 4043 0
-363 4043 0
203 -363 -5323 0
-203 5323 0
363 5323 0
-2923 4203 0
-2923 5483 0
-2923 1643 0
-2923 -1803 0
2923 -4203 -5483 -1643 1803 0
-363 523 -4203 0
363 4203 0
-523 4203 0
363 -523 -5483 0
-363 5483 0
523 5483 0
-3083 4363 0
-3083 5643 0
-3083 1803 0
-3083 -1963 0
3083 -4363 -5643 -1803 1963 0
-523 683 -4363 0
523 4363 0
-683 4363 0
523 -683 -5643 0
-523 5643 0
683 5643 0
-3243 4523 0
-3243 5803 0
-3243 1963 0
-3243 -2123 0
3243 -4523 -5803 -1963 2123 0
-683 843 -4523 0
683 4523 0
-843 4523 0
683 -843 -5803 0
-683 5803 0
843 5803 0
-3403 4683 0
-3403 5963 0
-3403 2123 0
-3403 -2283 0
3403 -4683 -5963 -2123 2283 0
-843 1003 -4683 0
843 4683 0
-1003 4683 0
843 -1003 -5963 0
-843 5963 0
1003 5963 0
-3563 4843 0
-3563 6123 0
-3563 2283 0
-3563 -2443 0
3563 -4843 -6123 -2283 2443 0
-1003 1163 -4843 0
1003 4843 0
-1163 4843 0
1003 -1163 -6123 0
-1003 6123 0
1163 6123 0
6603 7883 0
6603 9163 0
-6603 -7883 -9163 0
-203 43 -7883 0
203 7883 0
-43 7883 0
203 -43 -9163 0
-203 9163 0
43 9163 0
6763 8043 0
6763 9323 0
-6763 -8043 -9323 0
-363 203 -8043 0
363 8043 0
-203 8043 0
363 -203 -9323 0
-363 9323 0
203 9323 0
6923 8203 0
6923 9483 0
-6923 -8203 -9483 0
-523 363 -8203 0
523 8203 0
-363 8203 0
523 -363 -9483 0
-523 9483 0
363 9483 0
7083 8363 0
7083 9643 0
-7083 -8363 -9643 0
-683 523 -8363 0
683 8363 0
-523 8363 0
683 -523 -9643 0
-683 9643 0
523 9643 0
7243 8523 0
7243 9803 0
-7243 -8523 -9803 0
-843 683 -8523 0
843 8523 0
-683 8523 0
843 -683 -9803 0
-843 9803 0
683 9803 0
7403 8683 0
7403 9963 0
-7403 -8683 -9963 0
-1003 843 -8683 0
1003 8683 0
-843 8683 0
1003 -843 -9963 0
-1003 9963 0
843 9963 0
7563 8843 0
7563 10123 0
-7563 -8843 -10123 0
-1163 1003 -8843 0
1163 8843 0
-1003 8843 0
1163 -1003 -10123 0
-1163 10123 0
1003 10123 0
1324 0
-2444 0
-2604 3884 0
-2604 5164 0
-2604 1324 0
-2604 -1484 0
2604 -3884 -5164 -1324 1484 0
-44 204 -3884 0
44 3884 0
-204 3884 0
44 -204 -5164 0
-44 5164 0
204 5164 0
-2764 4044 0
-2764 5324 0
-2764 1484 0
-2764 -1644 0
2764 -4044 -5324 -1484 1644 0
-204 364 -4044 0
204 4044 0
-364 4044 0
204 -364 -5324 0
-204 5324 0
364 5324 0
-2924 4204 0
-2924 5484 0
-2924 1644 0
-2924 -1804 0
2924 -4204 -5484 -1644 1804 0
-364 524 -4204 0
364 4204 0
-524 4204 0
364 -524 -5484 0
-364 5484 0
524 5484 0
-3084 4364 0
-3084 5644 0
-3084 1804 0
-3084 -1964 0
3084 -4364 -5644 -1804 1964 0
-524 684 -4364 0
524 4364 0
-684 4364 0
524 -684 -5644 0
-524 5644 0
684 5644 0
-3244 4524 0
-3244 5804 0
-3244 1964 0
-3244 -2124 0
3244 -4524 -5804 -1964 2124 0
-684 844 -4524 0
684 4524 0
-844 4524 0
684 -844 -5804 0
-684 5804 0
844 5804 0
-3404 4684 0
-3404 5964 0
-3404 2124 0
-3404 -2284 0
3404 -4684 -5964 -2124 2284 0
-844 1004 -4684 0
844 4684 0
-1004 4684 0
844 -1004 -5964 0
-844 5964 0
1004 5964 0
-3564 4844 0
-3564 6124 0
-3564 2284 0
-3564 -2444 0
3564 -4844 -6124 -2284 2444 0
-1004 1164 -4844 0
1004 4844 0
-1164 4844 0
1004 -1164 -6124 0
-1004 6124 0
1164 6124 0
6604 7884 0
6604 9164 0
-6604 -7884 -9164 0
-204 44 -7884 0
204 7884 0
-44 7884 0
204 -44 -9164 0
-204 9164 0
44 9164 0
6764 8044 0
6764 9324 0
-6764 -8044 -9324 0
-364 204 -8044 0
364 8044 0
-204 8044 0
364 -204 -9324 0
-364 9324 0
204 9324 0
6924 8204 0
6924 9484 0
-6924 -8204 -9484 0
-524 364 -8204 0
524 8204 0
-364 8204 0
524 -364 -9484 0
-524 9484 0
364 9484 0
7084 8364 0
7084 9644 0
-7084 -8364 -9644 0
-684 524 -8364 0
684 8364 0
-524 8364 0
684 -524 -9644 0
-684 9644 0
524 9644 0
7244 8524 0
7244 9804 0
-7244 -8524 -9804 0
-844 684 -8524 0
844 8524 0
-684 8524 0
844 -684 -9804 0
-844 9804 0
684 9804 0
7404 8684 0
7404 9964 0
-7404 -8684 -9964 0
-1004 844 -8684 0
1004 8684 0
-844 8684 0
1004 -844 -9964 0
-1004 9964 0
844 9964 0
7564 8844 0
7564 10124 0
-7564 -8844 -10124 0
-1164 1004 -8844 0
1164 8844 0
-1004 8844 0
1164 -1004 -10124 0
-1164 10124 0
1004 10124 0
1325 0
-2445 0
-2605 3885 0
-2605 5165 0
-2605 1325 0
-2605 -1485 0
2605 -3885 -5165 -1325 1485 0
-45 205 -3885 0
45 3885 0
-205 3885 0
45 -205 -5165 0
-45 5165 0
205 5165 0
-2765 4045 0
-2765 5325 0
-2765 1485 0
-2765 -1645 0
2765 -4045 -5325 -1485 1645 0
-205 365 -4045 0
205 4045 0
-365 4045 0
205 -365 -5325 0
-205 5325 0
365 5325 0
-2925 4205 0
-2925 5485 0
-2925 1645 0
-2925 -1805 0
2925 -4205 -5485 -1645 1805 0
-365 525 -4205 0
365 4205 0
-525 4205 0
365 -525 -5485 0
-365 5485 0
525 5485 0
-3085 4365 0
-3085 5645 0
-3085 1805 0
-3085 -1965 0
3085 -4365 -5645 -1805 1965 0
-525 685 -4365 0
525 4365 0
-685 4365 0
525 -685 -5645 0
-525 5645 0
685 5645 0
-3245 4525 0
-3245 5805 0
-3245 1965 0
-3245 -2125 0
3245 -4525 -5805 -1965 2125 0
-685 845 -4525 0
685 4525 0
-845 4525 0
685 -845 -5805 0
-685 5805 0
845 5805 0
-3405 4685 0
-3405 5965 0
-3405 2125 0
-3405 -2285 0
3405 -4685 -5965 -2125 2285 0
-845 1005 -4685 0
845 4685 0
-1005 4685 0
845 -1005 -5965 0
-845 5965 0
1005 5965 0
-3565 4845 0
-3565 6125 0
-3565 2285 0
-3565 -2445 0
3565 -4845 -6125 -2285 2445 0
-1005 1165 -4845 0
1005 4845 0
-1165 4845 0
1005 -1165 -6125 0
-1005 6125 0
1165 6125 0
6605 7885 0
6605 9165 0
-6605 -7885 -9165 0
-205 45 -7885 0
205 7885 0
-45 7885 0
205 -45 -9165 0
-205 9165 0
45 9165 0
6765 8045 0
6765 9325 0
-6765 -8045 -9325 0
-365 205 -8045 0
365 8045 0
-205 8045 0
365 -205 -9325 0
-365 9325 0
205 9325 0
6925 8205 0
6925 9485 0
-6925 -8205 -9485 0
-525 365 -8205 0
525 8205 0
-365 8205 0
525 -365 -9485 0
-525 9485 0
365 9485 0
7085 8365 0
7085 9645 0
-7085 -8365 -9645 0
-685 525 -8365 0
685 8365 0
-525 8365 0
685 -525 -9645 0
-685 9645 0
525 9645 0
7245 8525 0
7245 9805 0
-7245 -8525 -9805 0
-845 685 -8525 0
845 8525 0
-685 8525 0
845 -685 -9805 0
-845 9805 0
685 9805 0
7405 8685 0
7405 9965 0
-7405 -8685 -9965 0
-1005 845 -8685 0
1005 8685 0
-845 8685 0
1005 -845 -9965 0
-1005 9965 0
845 9965 0
7565 8845 0
7565 10125 0
-7565 -8845 -10125 0
-1165 1005 -8845 0
1165 8845 0
-1005 8845 0
1165 -1005 -10125 0
-1165 10125 0
1005 10125 0
1326 0
-2446 0
-2606 3886 0
-2606 5166 0
-2606 1326 0
-2606 -1486 0
2606 -3886 -5166 -1326 1486 0
-46 206 -3886 0
46 3886 0
-206 3886 0
46 -206 -5166 0
-46 5166 0
206 5166 0
-2766 4046 0
-2766 5326 0
-2766 1486 0
-2766 -1646 0
2766 -4046 -5326 -1486 1646 0
-206 366 -4046 0
206 4046 0
-366 4046 0
206 -366 -5326 0
-206 5326 0
366 5326 0
-2926 4206 0
-2926 5486 0
-2926 1646 0
-2926 -1806 0
2926 -4206 -5486 -1646 1806 0
-366 526 -4206 0
366 4206 0
-526 4206 0
366 -526 -5486 0
-366 5486 0
526 5486 0
-3086 4366 0
-3086 5646 0
-3086 1806 0
-3086 -1966 0
3086 -4366 -5646 -1806 1966 0
-526 686 -4366 0
526 4366 0
-686 4366 0
526 -686 -5646 0
-526 5646 0
686 5646 0
-3246 4526 0
-3246 5806 0
-3246 1966 0
-3246 -2126 0
3246 -4526 -5806 -1966 2126 0
-686 846 -4526 0
686 4526 0
-846 4526 0
686 -846 -5806 0
-686 5806 0
846 5806 0
-3406 4686 0
-3406 5966 0
-3406 2126 0
-3406 -2286 0
3406 -4686 -5966 -2126 2286 0
-846 1006 -4686 0
846 4686 0
-1006 4686 0
846 -1006 -5966 0
-846 5966 0
1006 5966 0
-3566 4846 0
-3566 6126 0
-3566 2286 0
-3566 -2446 0
3566 -4846 -6126 -2286 2446 0
-1006 1166 -4846 0
1006 4846 0
-1166 4846 0
1006 -1166 -6126 0
-1006 6126 0
1166 6126 0
6606 7886 0
6606 9166 0
-6606 -7886 -9166 0
-206 46 -7886 0
206 7886 0
-46 7886 0
206 -46 -9166 0
-206 9166 0
46 9166 0
6766 8046 0
6766 9326 0
-6766 -8046 -9326 0
-366 206 -8046 0
366 8046 0
-206 8046 0
366 -206 -9326 0
-366 9326 0
206 9326 0
6926 8206 0
6926 9486 0
-6926 -8206 -9486 0
-526 366 -8206 0
526 8206 0
-366 8206 0
526 -366 -9486 0
-526 9486 0
366 9486 0
7086 8366 0
7086 9646 0
-7086 -8366 -9646 0
-686 526 -8366 0
686 8366 0
-526 8366 0
686 -526 -9646 0
-686 9646 0
526 9646 0
7246 8526 0
7246 9806 0
-7246 -8526 -9806 0
-846 686 -8526 0
846 8526 0
-686 8526 0
846 -686 -9806 0
-846 9806 0
686 9806 0
7406 8686 0
7406 9966 0
-7406 -8686 -9966 0
-1006 846 -8686 0
1006 8686 0
-846 8686 0
1006 -846 -9966 0
-1006 9966 0
846 9966 0
7566 8846 0
7566 10126 0
-7566 -8846 -10126 0
-1166 1006 -8846 0
1166 8846 0
-1006 8846 0
1166 -1006 -10126 0
-1166 10126 0
1006 10126 0
1327 0
-2447 0
-2607 3887 0
-2607 5167 0
-2607 1327 0
-2607 -1487 0
2607 -3887 -5167 -1327 1487 0
-47 207 -3887 0
47 3887 0
-207 3887 0
47 -207 -5167 0
-47 5167 0
207 5167 0
-2767 4047 0
-2767 5327 0
-2767 1487 0
-2767 -1647 0
2767 -4047 -5327 -1487 1647 0
-207 367 -4047 0
207 4047 0
-367 4047 0
207 -367 -5327 0
-207 5327 0
367 5327 0
-2927 4207 0
-2927 5487 0
-2927 1647 0
-2927 -1807 0
2927 -4207 -5487 -1647 1807 0
-367 527 -4207 0
367 4207 0
-527 4207 0
367 -527 -5487 0
-367 5487 0
527 5487 0
-3087 4367 0
-3087 5647 0
-3087 1807 0
-3087 -1967 0
3087 -4367 -5647 -1807 1967 0
-527 687 -4367 0
527 4367 0
-687 4367 0
527 -687 -5647 0
-527 5647 0
687 5647 0
-3247 4527 0
-3247 5807 0
-3247 1967 0
-3247 -2127 0
3247 -4527 -5807 -1967 2127 0
-687 847 -4527 0
687 4527 0
-847 4527 0
687 -847 -5807 0
-687 5807 0
847 5807 0
-3407 4687 0
-3407 5967 0
-3407 2127 0
-3407 -2287 0
3407 -4687 -5967 -2127 2287 0
-847 1007 -4687 0
847 4687 0
-1007 4687 0
847 -1007 -5967 0
-847 5967 0
1007 5967 0
-3567 4847 0
-3567 6127 0
-3567 2287 0
-3567 -2447 0
3567 -4847 -6127 -2287 2447 0
-1007 1167 -4847 0
1007 4847 0
-1167 4847 0
1007 -1167 -6127 0
-1007 6127 0
1167 6127 0
6607 7887 0
6607 9167 0
-6607 -7887 -9167 0
-207 47 -7887 0
207 7887 0
-47 7887 0
207 -47 -9167 0
-207 9167 0
47 9167 0
6767 8047 0
6767 9327 0
-6767 -8047 -9327 0
-367 207 -8047 0
367 8047 0
-207 8047 0
367 -207 -9327 0
-367 9327 0
207 9327 0
6927 8207 0
6927 9487 0
-6927 -8207 -9487 0
-527 367 -8207 0
527 8207 0
-367 8207 0
527 -367 -9487 0
-527 9487 0
367 9487 0
7087 8367 0
7087 9647 0
-7087 -8367 -9647 0
-687 527 -8367 0
687 8367 0
-527 8367 0
687 -527 -9647 0
-687 9647 0
527 9647 0
7247 8527 0
7247 9807 0
-7247 -8527 -9807 0
-847 687 -8527 0
847 8527 0
-687 8527 0
847 -687 -9807 0
-847 9807 0
687 9807 0
7407 8687 0
7407 9967 0
-7407 -8687 -9967 0
-1007 847 -8687 0
1007 8687 0
-847 8687 0
1007 -847 -9967 0
-1007 9967 0
847 9967 0
7567 8847 0
7567 10127 0
-7567 -8847 -10127 0
-1167 1007 -8847 0
1167 8847 0
-1007 8847 0
1167 -1007 -10127 0
-1167 10127 0
1007 10127 0
1328 0
-2448 0
-2608 3888 0
-2608 5168 0
-2608 1328 0
-2608 -1488 0
2608 -3888 -5168 -1328 1488 0
-48 208 -3888 0
48 3888 0
-208 3888 0
48 -208 -5168 0
-48 5168 0
208 5168 0
-2768 4048 0
-2768 5328 0
-2768 1488 0
-2768 -1648 0
2768 -4048 -5328 -1488 1648 0
-208 368 -4048 0
208 4048 0
-368 4048 0
208 -368 -5328 0
-208 5328 0
368 5328 0
-2928 4208 0
-2928 5488 0
-2928 1648 0
-2928 -1808 0
2928 -4208 -5488 -1648 1808 0
-368 528 -4208 0
368 4208 0
-528 4208 0
368 -528 -5488 0
-368 5488 0
528 5488 0
-3088 4368 0
-3088 5648 0
-3088 1808 0
-3088 -1968 0
3088 -4368 -5648 -1808 1968 0
-528 688 -4368 0
528 4368 0
-688 4368 0
528 -688 -5648 0
-528 5648 0
688 5648 0
-3248 4528 0
-3248 5808 0
-3248 1968 0
-3248 -2128 0
3248 -4528 -5808 -1968 2128 0
-688 848 -4528 0
688 4528 0
-848 4528 0
688 -848 -5808 0
-688 5808 0
848 5808 0
-3408 4688 0
-3408 5968 0
-3408 2128 0
-3408 -2288 0
3408 -4688 -5968 -2128 2288 0
-848 1008 -4688 0
848 4688 0
-1008 4688 0
848 -1008 -5968 0
-848 5968 0
1008 5968 0
-3568 4848 0
-3568 6128 0
-3568 2288 0
-3568 -2448 0
3568 -4848 -6128 -2288 2448 0
-1008 1168 -4848 0
1008 4848 0
-1168 4848 0
1008 -1168 -6128 0
-1008 6128 0
1168 6128 0
6608 7888 0
6608 9168 0
-6608 -7888 -9168 0
-208 48 -7888 0
208 7888 0
-48 7888 0
208 -48 -9168 0
-208 9168 0
48 9168 0
6768 8048 0
6768 9328 0
-6768 -8048 -9328 0
-368 208 -8048 0
368 8048 0
-208 8048 0
368 -208 -9328 0
-368 9328 0
208 9328 0
6928 8208 0
6928 9488 0
-6928 -8208 -9488 0
-528 368 -8208 0
528 8208 0
-368 8208 0
528 -368 -9488 0
-528 9488 0
368 9488 0
7088 8368 0
7088 9648 0
-7088 -8368 -9648 0
-688 528 -8368 0
688 8368 0
-528 8368 0
688 -528 -9648 0
-688 9648 0
528 9648 0
7248 8528 0
7248 9808 0
-7248 -8528 -9808 0
-848 688 -8528 0
848 8528 0
-688 8528 0
848 -688 -9808 0
-848 9808 0
688 9808 0
7408 8688 0
7408 9968 0
-7408 -8688 -9968 0
-1008 848 -8688 0
1008 8688 0
-848 8688 0
1008 -848 -9968 0
-1008 9968 0
848 9968 0
7568 8848 0
7568 10128 0
-7568 -8848 -10128 0
-1168 1008 -8848 0
1168 8848 0
-1008 8848 0
1168 -1008 -10128 0
-1168 10128 0
1008 10128 0
1329 0
-2449 0
-2609 3889 0
-2609 5169 0
-2609 1329 0
-2609 -1489 0
2609 -3889 -5169 -1329 1489 0
-49 209 -3889 0
49 3889 0
-209 3889 0
49 -209 -5169 0
-49 5169 0
209 5169 0
-2769 4049 0
-2769 5329 0
-2769 1489 0
-2769 -1649 0
2769 -4049 -5329 -1489 1649 0
-209 369 -4049 0
209 4049 0
-369 4049 0
209 -369 -5329 0
-209 5329 0
369 5329 0
-2929 4209 0
-2929 5489 0
-2929 1649 0
-2929 -1809 0
2929 -4209 -5489 -1649 1809 0
-369 529 -4209 0
369 4209 0
-529 4209 0
369 -529 -5489 0
-369 5489 0
529 5489 0
-3089 4369 0
-3089 5649 0
-3089 1809 0
-3089 -1969 0
3089 -4369 -5649 -1809 1969 0
-529 689 -4369 0
529 4369 0
-689 4369 0
529 -689 -5649 0
-529 5649 0
689 5649 0
-3249 4529 0
-3249 5809 0
-3249 1969 0
-3249 -2129 0
3249 -4529 -5809 -1969 2129 0
-689 849 -4529 0
689 4529 0
-849 4529 0
689 -849 -5809 0
-689 5809 0
849 5809 0
-3409 4689 0
-3409 5969 0
-3409 2129 0
-3409 -2289 0
3409 -4689 -5969 -2129 2289 0
-849 1009 -4689 0
849 4689 0
-1009 4689 0
849 -1009 -5969 0
-849 5969 0
1009 5969 0
-3569 4849 0
-3569 6129 0
-3569 2289 0
-3569 -2449 0
3569 -4849 -6129 -2289 2449 0
-1009 1169 -4849 0
1009 4849 0
-1169 4849 0
1009 -1169 -6129 0
-1009 6129 0
1169 6129 0
6609 7889 0
6609 9169 0
-6609 -7889 -9169 0
-209 49 -7889 0
209 7889 0
-49 7889 0
209 -49 -9169 0
-209 9169 0
49 9169 0
6769 8049 0
6769 9329 0
-6769 -8049 -9329 0
-369 209 -8049 0
369 8049 0
-209 8049 0
369 -209 -9329 0
-369 9329 0
209 9329 0
6929 8209 0
6929 9489 0
-6929 -8209 -9489 0
-529 369 -8209 0
529 8209 0
-369 8209 0
529 -369 -9489 0
-529 9489 0
369 9489 0
7089 8369 0
7089 9649 0
-7089 -8369 -9649 0
-689 529 -8369 0
689 8369 0
-529 8369 0
689 -529 -9649 0
-689 9649 0
529 9649 0
7249 8529 0
7249 9809 0
-7249 -8529 -9809 0
-849 689 -8529 0
849 8529 0
-689 8529 0
849 -689 -9809 0
-849 9809 0
689 9809 0
7409 8689 0
7409 9969 0
-7409 -8689 -9969 0
-1009 849 -8689 0
1009 8689 0
-849 8689 0
1009 -849 -9969 0
-1009 9969 0
849 9969 0
7569 8849 0
7569 10129 0
-7569 -8849 -10129 0
-1169 1009 -8849 0
1169 8849 0
-1009 8849 0
1169 -1009 -10129 0
-1169 10129 0
1009 10129 0
1330 0
-2450 0
-2610 3890 0
-2610 5170 0
-2610 1330 0
-2610 -1490 0
2610 -3890 -5170 -1330 1490 0
-50 210 -3890 0
50 3890 0
-210 3890 0
50 -210 -5170 0
-50 5170 0
210 5170 0
-2770 4050 0
-2770 5330 0
-2770 1490 0
-2770 -1650 0
2770 -4050 -5330 -1490 1650 0
-210 370 -4050 0
210 4050 0
-370 4050 0
210 -370 -5330 0
-210 5330 0
370 5330 0
-2930 4210 0
-2930 5490 0
-2930 1650 0
-2930 -1810 0
2930 -4210 -5490 -1650 1810 0
-370 530 -4210 0
370 4210 0
-530 4210 0
370 -530 -5490 0
-370 5490 0
530 5490 0
-3090 4370 0
-3090 5650 0
-3090 1810 0
-3090 -1970 0
3090 -4370 -5650 -1810 1970 0
-530 690 -4370 0
530 4370 0
-690 4370 0
530 -690 -5650 0
-530 5650 0
690 5650 0
-3250 4530 0
-3250 5810 0
-3250 1970 0
-3250 -2130 0
3250 -4530 -5810 -1970 2130 0
-690 850 -4530 0
690 4530 0
-850 4530 0
690 -850 -5810 0
-690 5810 0
850 5810 0
-3410 4690 0
-3410 5970 0
-3410 2130 0
-3410 -2290 0
3410 -4690 -5970 -2130 2290 0
-850 1010 -4690 0
850 4690 0
-1010 4690 0
850 -1010 -5970 0
-850 5970 0
1010 5970 0
-3570 4850 0
-3570 6130 0
-3570 2290 0
-3570 -2450 0
3570 -4850 -6130 -2290 2450 0
-1010 1170 -4850 0
1010 4850 0
-1170 4850 0
1010 -1170 -6130 0
-1010 6130 0
1170 6130 0
6610 7890 0
6610 9170 0
-6610 -7890 -9170 0
-210 50 -7890 0
210 7890 0
-50 7890 0
210 -50 -9170 0
-210 9170 0
50 9170 0
6770 8050 0
6770 9330 0
-6770 -8050 -9330 0
-370 210 -8050 0
370 8050 0
-210 8050 0
370 -210 -9330 0
-370 9330 0
210 9330 0
6930 8210 0
6930 9490 0
-6930 -8210 -9490 0
-530 370 -8210 0
530 8210 0
-370 8210 0
530 -370 -9490 0
-530 9490 0
370 9490 0
7090 8370 0
7090 9650 0
-7090 -8370 -9650 0
-690 530 -8370 0
690 8370 0
-530 8370 0
690 -530 -9650 0
-690 9650 0
530 9650 0
7250 8530 0
7250 9810 0
-7250 -8530 -9810 0
-850 690 -8530 0
850 8530 0
-690 8530 0
850 -690 -9810 0
-850 9810 0
690 9810 0
7410 8690 0
7410 9970 0
-7410 -8690 -9970 0
-1010 850 -8690 0
1010 8690 0
-850 8690 0
1010 -850 -9970 0
-1010 9970 0
850 9970 0
7570 8850 0
7570 10130 0
-7570 -8850 -10130 0
-1170 1010 -8850 0
1170 8850 0
-1010 8850 0
1170 -1010 -10130 0
-1170 10130 0
1010 10130 0
1331 0
-2451 0
-2611 3891 0
-2611 5171 0
-2611 1331 0
-2611 -1491 0
2611 -3891 -5171 -1331 1491 0
-51 211 -3891 0
51 3891 0
-211 3891 0
51 -211 -5171 0
-51 5171 0
211 5171 0
-2771 4051 0
-2771 5331 0
-2771 1491 0
-2771 -1651 0
2771 -4051 -5331 -1491 1651 0
-211 371 -4051 0
211 4051 0
-371 4051 0
211 -371 -5331 0
-211 5331 0
371 5331 0
-2931 4211 0
-2931 5491 0
-2931 1651 0
-2931 -1811 0
2931 -4211 -5491 -1651 1811 0
-371 531 -4211 0
371 4211 0
-531 4211 0
371 -531 -5491 0
-371 5491 0
531 5491 0
-3091 4371 0
-3091 5651 0
-3091 1811 0
-3091 -1971 0
3091 -4371 -5651 -1811 1971 0
-531 691 -4371 0
531 4371 0
-691 4371 0
531 -691 -5651 0
-531 5651 0
691 5651 0
-3251 4531 0
-3251 5811 0
-3251 1971 0
-3251 -2131 0
3251 -4531 -5811 -1971 2131 0
-691 851 -4531 0
691 4531 0
-851 4531 0
691 -851 -5811 0
-691 5811 0
851 5811 0
-3411 4691 0
-3411 5971 0
-3411 2131 0
-3411 -2291 0
3411 -4691 -5971 -2131 2291 0
-851 1011 -4691 0
851 4691 0
-1011 4691 0
851 -1011 -5971 0
-851 5971 0
1011 5971 0
-3571 4851 0
-3571 6131 0
-3571 2291 0
-3571 -2451 0
3571 -4851 -6131 -2291 2451 0
-1011 1171 -4851 0
1011 4851 0
-1171 4851 0
1011 -1171 -6131 0
-1011 6131 0
1171 6131 0
6611 7891 0
6611 9171 0
-6611 -7891 -9171 0
-211 51 -7891 0
211 7891 0
-51 7891 0
211 -51 -9171 0
-211 9171 0
51 9171 0
6771 8051 0
6771 9331 0
-6771 -8051 -9331 0
-371 211 -8051 0
371 8051 0
-211 8051 0
371 -211 -9331 0
-371 9331 0
211 9331 0
6931 8211 0
6931 9491 0
-6931 -8211 -9491 0
-531 371 -8211 0
531 8211 0
-371 8211 0
531 -371 -9491 0
-531 9491 0
371 9491 0
7091 8371 0
7091 9651 0
-7091 -8371 -9651 0
-691 531 -8371 0
691 8371 0
-531 8371 0
691 -531 -9651 0
-691 9651 0
531 9651 0
7251 8531 0
7251 9811 0
-7251 -8531 -9811 0
-851 691 -8531 0
851 8531 0
-691 8531 0
851 -691 -9811 0
-851 9811 0
691 9811 0
7411 8691 0
7411 9971 0
-7411 -8691 -9971 0
-1011 851 -8691 0
1011 8691 0
-851 8691 0
1011 -851 -9971 0
-1011 9971 0
851 9971 0
7571 8851 0
7571 10131 0
-7571 -8851 -10131 0
-1171 1011 -8851 0
1171 8851 0
-1011 8851 0
1171 -1011 -10131 0
-1171 10131 0
1011 10131 0
1332 0
-2452 0
-2612 3892 0
-2612 5172 0
-2612 1332 0
-2612 -1492 0
2612 -3892 -5172 -1332 1492 0
-52 212 -3892 0
52 3892 0
-212 3892 0
52 -212 -5172 0
-52 5172 0
212 5172 0
-2772 4052 0
-2772 5332 0
-2772 1492 0
-2772 -1652 0
2772 -4052 -5332 -1492 1652 0
-212 372 -4052 0
212 4052 0
-372 4052 0
212 -372 -5332 0
-212 5332 0
372 5332 0
-2932 4212 0
-2932 5492 0
-2932 1652 0
-2932 -1812 0
2932 -4212 -5492 -1652 1812 0
-372 532 -4212 0
372 4212 0
-532 4212 0
372 -532 -5492 0
-372 5492 0
532 5492 0
-3092 4372 0
-3092 5652 0
-3092 1812 0
-3092 -1972 0
3092 -4372 -5652 -1812 1972 0
-532 692 -4372 0
532 4372 0
-692 4372 0
532 -692 -5652 0
-532 5652 0
692 5652 0
-3252 4532 0
-3252 5812 0
-3252 1972 0
-3252 -2132 0
3252 -4532 -5812 -1972 2132 0
-692 852 -4532 0
692 4532 0
-852 4532 0
692 -852 -5812 0
-692 5812 0
852 5812 0
-3412 4692 0
-3412 5972 0
-3412 2132 0
-3412 -2292 0
3412 -4692 -5972 -2132 2292 0
-852 1012 -4692 0
852 4692 0
-1012 4692 0
852 -1012 -5972 0
-852 5972 0
1012 5972 0
-3572 4852 0
-3572 6132 0
-3572 2292 0
-3572 -2452 0
3572 -4852 -6132 -2292 2452 0
-1012 1172 -4852 0
1012 4852 0
-1172 4852 0
1012 -1172 -6132 0
-1012 6132 0
1172 6132 0
6612 7892 0
6612 9172 0
-6612 -7892 -9172 0
-212 52 -7892 0
212 7892 0
-52 7892 0
212 -52 -9172 0
-212 9172 0
52 9172 0
6772 8052 0
6772 9332 0
-6772 -8052 -9332 0
-372 212 -8052 0
372 8052 0
-212 8052 0
372 -212 -9332 0
-372 9332 0
212 9332 0
6932 8212 0
6932 9492 0
-6932 -8212 -9492 0
-532 372 -8212 0
532 8212 0
-372 8212 0
532 -372 -9492 0
-532 9492 0
372 9492 0
7092 8372 0
7092 9652 0
-7092 -8372 -9652 0
-692 532 -8372 0
692 8372 0
-532 8372 0
692 -532 -9652 0
-692 9652 0
532 9652 0
7252 8532 0
7252 9812 0
-7252 -8532 -9812 0
-852 692 -8532 0
852 8532 0
-692 8532 0
852 -692 -9812 0
-852 9812 0
692 9812 0
7412 8692 0
7412 9972 0
-7412 -8692 -9972 0
-1012 852 -8692 0
1012 8692 0
-852 8692 0
1012 -852 -9972 0
-1012 9972 0
852 9972 0
7572 8852 0
7572 10132 0
-7572 -8852 -10132 0
-1172 1012 -8852 0
1172 8852 0
-1012 8852 0
1172 -1012 -10132 0
-1172 10132 0
1012 10132 0
1333 0
-2453 0
-2613 3893 0
-2613 5173 0
-2613 1333 0
-2613 -1493 0
2613 -3893 -5173 -1333 1493 0
-53 213 -3893 0
53 3893 0
-213 3893 0
53 -213 -5173 0
-53 5173 0
213 5173 0
-2773 4053 0
-2773 5333 0
-2773 1493 0
-2773 -1653 0
2773 -4053 -5333 -1493 1653 0
-213 373 -4053 0
213 4053 0
-373 4053 0
213 -373 -5333 0
-213 5333 0
373 5333 0
-2933 4213 0
-2933 5493 0
-2933 1653 0
-2933 -1813 0
2933 -4213 -5493 -1653 1813 0
-373 533 -4213 0
373 4213 0
-533 4213 0
373 -533 -5493 0
-373 5493 0
533 5493 0
-3093 4373 0
-3093 5653 0
-3093 1813 0
-3093 -1973 0
3093 -4373 -5653 -1813 1973 0
-533 693 -4373 0
533 4373 0
-693 4373 0
533 -693 -5653 0
-533 5653 0
693 5653 0
-3253 4533 0
-3253 5813 0
-3253 1973 0
-3253 -2133 0
3253 -4533 -5813 -1973 2133 0
-693 853 -4533 0
693 4533 0
-853 4533 0
693 -853 -5813 0
-693 5813 0
853 5813 0
-3413 4693 0
-3413 5973 0
-3413 2133 0
-3413 -2293 0
3413 -4693 -5973 -2133 2293 0
-853 1013 -4693 0
853 4693 0
-1013 4693 0
853 -1013 -5973 0
-853 5973 0
1013 5973 0
-3573 4853 0
-3573 6133 0
-3573 2293 0
-3573 -2453 0
3573 -4853 -6133 -2293 2453 0
-1013 1173 -4853 0
1013 4853 0
-1173 4853 0
1013 -1173 -6133 0
-1013 6133 0
1173 6133 0
6613 7893 0
6613 9173 0
-6613 -7893 -9173 0
-213 53 -7893 0
213 7893 0
-53 7893 0
213 -53 -9173 0
-213 9173 0
53 9173 0
6773 8053 0
6773 9333 0
-6773 -8053 -9333 0
-373 213 -8053 0
373 8053 0
-213 8053 0
373 -213 -9333 0
-373 9333 0
213 9333 0
6933 8213 0
6933 9493 0
-6933 -8213 -9493 0
-533 373 -8213 0
533 8213 0
-373 8213 0
533 -373 -9493 0
-533 9493 0
373 9493 0
7093 8373 0
7093 9653 0
-7093 -8373 -9653 0
-693 533 -8373 0
693 8373 0
-533 8373 0
693 -533 -9653 0
-693 9653 0
533 9653 0
7253 8533 0
7253 9813 0
-7253 -8533 -9813 0
-853 693 -8533 0
853 8533 0
-693 8533 0
853 -693 -9813 0
-853 9813 0
693 9813 0
7413 8693 0
7413 9973 0
-7413 -8693 -9973 0
-1013 853 -8693 0
1013 8693 0
-853 8693 0
1013 -853 -9973 0
-1013 9973 0
853 9973 0
7573 8853 0
7573 10133 0
-7573 -8853 -10133 0
-1173 1013 -8853 0
1173 8853 0
-1013 8853 0
1173 -1013 -10133 0
-1173 10133 0
1013 10133 0
1334 0
-2454 0
-2614 3894 0
-2614 5174 0
-2614 1334 0
-2614 -1494 0
2614 -3894 -5174 -1334 1494 0
-54 214 -3894 0
54 3894 0
-214 3894 0
54 -214 -5174 0
-54 5174 0
214 5174 0
-2774 4054 0
-2774 5334 0
-2774 1494 0
-2774 -1654 0
2774 -4054 -5334 -1494 1654 0
-214 374 -4054 0
214 4054 0
-374 4054 0
214 -374 -5334 0
-214 5334 0
374 5334 0
-2934 4214 0
-2934 5494 0
-2934 1654 0
-2934 -1814 0
2934 -4214 -5494 -1654 1814 0
-374 534 -4214 0
374 4214 0
-534 4214 0
374 -534 -5494 0
-374 5494 0
534 5494 0
-3094 4374 0
-3094 5654 0
-3094 1814 0
-3094 -1974 0
3094 -4374 -5654 -1814 1974 0
-534 694 -4374 0
534 4374 0
-694 4374 0
534 -694 -5654 0
-534 5654 0
694 5654 0
-3254 4534 0
-3254 5814 0
-3254 1974 0
-3254 -2134 0
3254 -4534 -5814 -1974 2134 0
-694 854 -4534 0
694 4534 0
-854 4534 0
694 -854 -5814 0
-694 5814 0
854 5814 0
-3414 4694 0
-3414 5974 0
-3414 2134 0
-3414 -2294 0
3414 -4694 -5974 -2134 2294 0
-854 1014 -4694 0
854 4694 0
-1014 4694 0
854 -1014 -5974 0
-854 5974 0
1014 5974 0
-3574 4854 0
-3574 6134 0
-3574 2294 0
-3574 -2454 0
3574 -4854 -6134 -2294 2454 0
-1014 1174 -4854 0
1014 4854 0
-1174 4854 0
1014 -1174 -6134 0
-1014 6134 0
1174 6134 0
6614 7894 0
6614 9174 0
-6614 -7894 -9174 0
-214 54 -7894 0
214 7894 0
-54 7894 0
214 -54 -9174 0
-214 9174 0
54 9174 0
6774 8054 0
6774 9334 0
-6774 -8054 -9334 0
-374 214 -8054 0
374 8054 0
-214 8054 0
374 -214 -9334 0
-374 9334 0
214 9334 0
6934 8214 0
6934 9494 0
-6934 -8214 -9494 0
-534 374 -8214 0
534 8214 0
-374 8214 0
534 -374 -9494 0
-534 9494 0
374 9494 0
7094 8374 0
7094 9654 0
-7094 -8374 -9654 0
-694 534 -8374 0
694 8374 0
-534 8374 0
694 -534 -9654 0
-694 9654 0
534 9654 0
7254 8534 0
7254 9814 0
-7254 -8534 -9814 0
-854 694 -8534 0
854 8534 0
-694 8534 0
854 -694 -9814 0
-854 9814 0
694 9814 0
7414 8694 0
7414 9974 0
-7414 -8694 -9974 0
-1014 854 -8694 0
1014 8694 0
-854 8694 0
1014 -854 -9974 0
-1014 9974 0
854 9974 0
7574 8854 0
7574 10134 0
-7574 -8854 -10134 0
-1174 1014 -8854 0
1174 8854 0
-1014 8854 0
1174 -1014 -10134 0
-1174 10134 0
1014 10134 0
1335 0
-2455 0
-2615 3895 0
-2615 5175 0
-2615 1335 0
-2615 -1495 0
2615 -3895 -5175 -1335 1495 0
-55 215 -3895 0
55 3895 0
-215 3895 0
55 -215 -5175 0
-55 5175 0
215 5175 0
-2775 4055 0
-2775 5335 0
-2775 1495 0
-2775 -1655 0
2775 -4055 -5335 -1495 1655 0
-215 375 -4055 0
215 4055 0
-375 4055 0
215 -375 -5335 0
-215 5335 0
375 5335 0
-2935 4215 0
-2935 5495 0
-2935 1655 0
-2935 -1815 0
2935 -4215 -5495 -1655 1815 0
-375 535 -4215 0
375 4215 0
-535 4215 0
375 -535 -5495 0
-375 5495 0
535 5495 0
-3095 4375 0
-3095 5655 0
-3095 1815 0
-3095 -1975 0
3095 -4375 -5655 -1815 1975 0
-535 695 -4375 0
535 4375 0
-695 4375 0
535 -695 -5655 0
-535 5655 0
695 5655 0
-3255 4535 0
-3255 5815 0
-3255 1975 0
-3255 -2135 0
3255 -4535 -5815 -1975 2135 0
-695 855 -4535 0
695 4535 0
-855 4535 0
695 -855 -5815 0
-695 5815 0
855 5815 0
-3415 4695 0
-3415 5975 0
-3415 2135 0
-3415 -2295 0
3415 -4695 -5975 -2135 2295 0
-855 1015 -4695 0
855 4695 0
-1015 4695 0
855 -1015 -5975 0
-855 5975 0
1015 5975 0
-3575 4855 0
-3575 6135 0
-3575 2295 0
-3575 -2455 0
3575 -4855 -6135 -2295 2455 0
-1015 1175 -4855 0
1015 4855 0
-1175 4855 0
1015 -1175 -6135 0
-1015 6135 0
1175 6135 0
6615 7895 0
6615 9175 0
-6615 -7895 -9175 0
-215 55 -7895 0
215 7895 0
-55 7895 0
215 -55 -9175 0
-215 9175 0
55 9175 0
6775 8055 0
6775 9335 0
-6775 -8055 -9335 0
-375 215 -8055 0
375 8055 0
-215 8055 0
375 -215 -9335 0
-375 9335 0
215 9335 0
6935 8215 0
6935 9495 0
-6935 -8215 -9495 0
-535 375 -8215 0
535 8215 0
-375 8215 0
535 -375 -9495 0
-535 9495 0
375 9495 0
7095 8375 0
7095 9655 0
-7095 -8375 -9655 0
-695 535 -8375 0
695 8375 0
-535 8375 0
695 -535 -9655 0
-695 9655 0
535 9655 0
7255 8535 0
7255 9815 0
-7255 -8535 -9815 0
-855 695 -8535 0
855 8535 0
-695 8535 0
855 -695 -9815 0
-855 9815 0
695 9815 0
7415 8695 0
7415 9975 0
-7415 -8695 -9975 0
-1015 855 -8695 0
1015 8695 0
-855 8695 0
1015 -855 -9975 0
-1015 9975 0
855 9975 0
7575 8855 0
7575 10135 0
-7575 -8855 -10135 0
-1175 1015 -8855 0
1175 8855 0
-1015 8855 0
1175 -1015 -10135 0
-1175 10135 0
1015 10135 0
1336 0
-2456 0
-2616 3896 0
-2616 5176 0
-2616 1336 0
-2616 -1496 0
2616 -3896 -5176 -1336 1496 0
-56 216 -3896 0
56 3896 0
-216 3896 0
56 -216 -5176 0
-56 5176 0
216 5176 0
-2776 4056 0
-2776 5336 0
-2776 1496 0
-2776 -1656 0
2776 -4056 -5336 -1496 1656 0
-216 376 -4056 0
216 4056 0
-376 4056 0
216 -376 -5336 0
-216 5336 0
376 5336 0
-2936 4216 0
-2936 5496 0
-2936 1656 0
-2936 -1816 0
2936 -4216 -5496 -1656 1816 0
-376 536 -4216 0
376 4216 0
-536 4216 0
376 -536 -5496 0
-376 5496 0
536 5496 0
-3096 4376 0
-3096 5656 0
-3096 1816 0
-3096 -1976 0
3096 -4376 -5656 -1816 1976 0
-536 696 -4376 0
536 4376 0
-696 4376 0
536 -696 -5656 0
-536 5656 0
696 5656 0
-3256 4536 0
-3256 5816 0
-3256 1976 0
-3256 -2136 0
3256 -4536 -5816 -1976 2136 0
-696 856 -4536 0
696 4536 0
-856 4536 0
696 -856 -5816 0
-696 5816 0
856 5816 0
-3416 4696 0
-3416 5976 0
-3416 2136 0
-3416 -2296 0
3416 -4696 -5976 -2136 2296 0
-856 1016 -4696 0
856 4696 0
-1016 4696 0
856 -1016 -5976 0
-856 5976 0
1016 5976 0
-3576 4856 0
-3576 6136 0
-3576 2296 0
-3576 -2456 0
3576 -4856 -6136 -2296 2456 0
-1016 1176 -4856 0
1016 4856 0
-1176 4856 0
1016 -1176 -6136 0
-1016 6136 0
1176 6136 0
6616 7896 0
6616 9176 0
-6616 -7896 -9176 0
-216 56 -7896 0
216 7896 0
-56 7896 0
216 -56 -9176 0
-216 9176 0
56 9176 0
6776 8056 0
6776 9336 0
-6776 -8056 -9336 0
-376 216 -8056 0
376 8056 0
-216 8056 0
376 -216 -9336 0
-376 9336 0
216 9336 0
6936 8216 0
6936 9496 0
-6936 -8216 -9496 0
-536 376 -8216 0
536 8216 0
-376 8216 0
536 -376 -9496 0
-536 9496 0
376 9496 0
7096 8376 0
7096 9656 0
-7096 -8376 -9656 0
-696 536 -8376 0
696 8376 0
-536 8376 0
696 -536 -9656 0
-696 9656 0
536 9656 0
7256 8536 0
7256 9816 0
-7256 -8536 -9816 0
-856 696 -8536 0
856 8536 0
-696 8536 0
856 -696 -9816 0
-856 9816 0
696 9816 0
7416 8696 0
7416 9976 0
-7416 -8696 -9976 0
-1016 856 -8696 0
1016 8696 0
-856 8696 0
1016 -856 -9976 0
-1016 9976 0
856 9976 0
7576 8856 0
7576 10136 0
-7576 -8856 -10136 0
-1176 1016 -8856 0
1176 8856 0
-1016 8856 0
1176 -1016 -10136 0
-1176 10136 0
1016 10136 0
1337 0
-2457 0
-2617 3897 0
-2617 5177 0
-2617 1337 0
-2617 -1497 0
2617 -3897 -5177 -1337 1497 0
-57 217 -3897 0
57 3897 0
-217 3897 0
57 -217 -5177 0
-57 5177 0
217 5177 0
-2777 4057 0
-2777 5337 0
-2777 1497 0
-2777 -1657 0
2777 -4057 -5337 -1497 1657 0
-217 377 -4057 0
217 4057 0
-377 4057 0
217 -377 -5337 0
-217 5337 0
377 5337 0
-2937 4217 0
-2937 5497 0
-2937 1657 0
-2937 -1817 0
2937 -4217 -5497 -1657 1817 0
-377 537 -4217 0
377 4217 0
-537 4217 0
377 -537 -5497 0
-377 5497 0
537 5497 0
-3097 4377 0
-3097 5657 0
-3097 1817 0
-3097 -1977 0
3097 -4377 -5657 -1817 1977 0
-537 697 -4377 0
537 4377 0
-697 4377 0
537 -697 -5657 0
-537 5657 0
697 5657 0
-3257 4537 0
-3257 5817 0
-3257 1977 0
-3257 -2137 0
3257 -4537 -5817 -1977 2137 0
-697 857 -4537 0
697 4537 0
-857 4537 0
697 -857 -5817 0
-697 5817 0
857 5817 0
-3417 4697 0
-3417 5977 0
-3417 2137 0
-3417 -2297 0
3417 -4697 -5977 -2137 2297 0
-857 1017 -4697 0
857 4697 0
-1017 4697 0
857 -1017 -5977 0
-857 5977 0
1017 5977 0
-3577 4857 0
-3577 6137 0
-3577 2297 0
-3577 -2457 0
3577 -4857 -6137 -2297 2457 0
-1017 1177 -4857 0
1017 4857 0
-1177 4857 0
1017 -1177 -6137 0
-1017 6137 0
1177 6137 0
6617 7897 0
6617 9177 0
-6617 -7897 -9177 0
-217 57 -7897 0
217 7897 0
-57 7897 0
217 -57 -9177 0
-217 9177 0
57 9177 0
6777 8057 0
6777 9337 0
-6777 -8057 -9337 0
-377 217 -8057 0
377 8057 0
-217 8057 0
377 -217 -9337 0
-377 9337 0
217 9337 0
6937 8217 0
6937 9497 0
-6937 -8217 -9497 0
-537 377 -8217 0
537 8217 0
-377 8217 0
537 -377 -9497 0
-537 9497 0
377 9497 0
7097 8377 0
7097 9657 0
-7097 -8377 -9657 0
-697 537 -8377 0
697 8377 0
-537 8377 0
697 -537 -9657 0
-697 9657 0
537 9657 0
7257 8537 0
7257 9817 0
-7257 -8537 -9817 0
-857 697 -8537 0
857 8537 0
-697 8537 0
857 -697 -9817 0
-857 9817 0
697 9817 0
7417 8697 0
7417 9977 0
-7417 -8697 -9977 0
-1017 857 -8697 0
1017 8697 0
-857 8697 0
1017 -857 -9977 0
-1017 9977 0
857 9977 0
7577 8857 0
7577 10137 0
-7577 -8857 -10137 0
-1177 1017 -8857 0
1177 8857 0
-1017 8857 0
1177 -1017 -10137 0
-1177 10137 0
1017 10137 0
1338 0
-2458 0
-2618 3898 0
-2618 5178 0
-2618 1338 0
-2618 -1498 0
2618 -3898 -5178 -1338 1498 0
-58 218 -3898 0
58 3898 0
-218 3898 0
58 -218 -5178 0
-58 5178 0
218 5178 0
-2778 4058 0
-2778 5338 0
-2778 1498 0
-2778 -1658 0
2778 -4058 -5338 -1498 1658 0
-218 378 -4058 0
218 4058 0
-378 4058 0
218 -378 -5338 0
-218 5338 0
378 5338 0
-2938 4218 0
-2938 5498 0
-2938 1658 0
-2938 -1818 0
2938 -4218 -5498 -1658 1818 0
-378 538 -4218 0
378 4218 0
-538 4218 0
378 -538 -5498 0
-378 5498 0
538 5498 0
-3098 4378 0
-3098 5658 0
-3098 1818 0
-3098 -1978 0
3098 -4378 -5658 -1818 1978 0
-538 698 -4378 0
538 4378 0
-698 4378 0
538 -698 -5658 0
-538 5658 0
698 5658 0
-3258 4538 0
-3258 5818 0
-3258 1978 0
-3258 -2138 0
3258 -4538 -5818 -1978 2138 0
-698 858 -4538 0
698 4538 0
-858 4538 0
698 -858 -5818 0
-698 5818 0
858 5818 0
-3418 4698 0
-3418 5978 0
-3418 2138 0
-3418 -2298 0
3418 -4698 -5978 -2138 2298 0
-858 1018 -4698 0
858 4698 0
-1018 4698 0
858 -1018 -5978 0
-858 5978 0
1018 5978 0
-3578 4858 0
-3578 6138 0
-3578 2298 0
-3578 -2458 0
3578 -4858 -6138 -2298 2458 0
-1018 1178 -4858 0
1018 4858 0
-1178 4858 0
1018 -1178 -6138 0
-1018 6138 0
1178 6138 0
6618 7898 0
6618 9178 0
-6618 -7898 -9178 0
-218 58 -7898 0
218 7898 0
-58 7898 0
218 -58 -9178 0
-218 9178 0
58 9178 0
6778 8058 0
6778 9338 0
-6778 -8058 -9338 0
-378 218 -8058 0
378 8058 0
-218 8058 0
378 -218 -9338 0
-378 9338 0
218 9338 0
6938 8218 0
6938 9498 0
-6938 -8218 -9498 0
-538 378 -8218 0
538 8218 0
-378 8218 0
538 -378 -9498 0
-538 9498 0
378 9498 0
7098 8378 0
7098 9658 0
-7098 -8378 -9658 0
-698 538 -8378 0
698 8378 0
-538 8378 0
698 -538 -9658 0
-698 9658 0
538 9658 0
7258 8538 0
7258 9818 0
-7258 -8538 -9818 0
-858 698 -8538 0
858 8538 0
-698 8538 0
858 -698 -9818 0
-858 9818 0
698 9818 0
7418 8698 0
7418 9978 0
-7418 -8698 -9978 0
-1018 858 -8698 0
1018 8698 0
-858 8698 0
1018 -858 -9978 0
-1018 9978 0
858 9978 0
7578 8858 0
7578 10138 0
-7578 -8858 -10138 0
-1178 1018 -8858 0
1178 8858 0
-1018 8858 0
1178 -1018 -10138 0
-1178 10138 0
1018 10138 0
1339 0
-2459 0
-2619 3899 0
-2619 5179 0
-2619 1339 0
-2619 -1499 0
2619 -3899 -5179 -1339 1499 0
-59 219 -3899 0
59 3899 0
-219 3899 0
59 -219 -5179 0
-59 5179 0
219 5179 0
-2779 4059 0
-2779 5339 0
-2779 1499 0
-2779 -1659 0
2779 -4059 -5339 -1499 1659 0
-219 379 -4059 0
219 4059 0
-379 4059 0
219 -379 -5339 0
-219 5339 0
379 5339 0
-2939 4219 0
-2939 5499 0
-2939 1659 0
-2939 -1819 0
2939 -4219 -5499 -1659 1819 0
-379 539 -4219 0
379 4219 0
-539 4219 0
379 -539 -5499 0
-379 5499 0
539 5499 0
-3099 4379 0
-3099 5659 0
-3099 1819 0
-3099 -1979 0
3099 -4379 -5659 -1819 1979 0
-539 699 -4379 0
539 4379 0
-699 4379 0
539 -699 -5659 0
-539 5659 0
699 5659 0
-3259 4539 0
-3259 5819 0
-3259 1979 0
-3259 -2139 0
3259 -4539 -5819 -1979 2139 0
-699 859 -4539 0
699 4539 0
-859 4539 0
699 -859 -5819 0
-699 5819 0
859 5819 0
-3419 4699 0
-3419 5979 0
-3419 2139 0
-3419 -2299 0
3419 -4699 -5979 -2139 2299 0
-859 1019 -4699 0
859 4699 0
-1019 4699 0
859 -1019 -5979 0
-859 5979 0
1019 5979 0
-3579 4859 0
-3579 6139 0
-3579 2299 0
-3579 -2459 0
3579 -4859 -6139 -2299 2459 0
-1019 1179 -4859 0
1019 4859 0
-1179 4859 0
1019 -1179 -6139 0
-1019 6139 0
1179 6139 0
6619 7899 0
6619 9179 0
-6619 -7899 -9179 0
-219 59 -7899 0
219 7899 0
-59 7899 0
219 -59 -9179 0
-219 9179 0
59 9179 0
6779 8059 0
6779 9339 0
-6779 -8059 -9339 0
-379 219 -8059 0
379 8059 0
-219 8059 0
379 -219 -9339 0
-379 9339 0
219 9339 0
6939 8219 0
6939 9499 0
-6939 -8219 -9499 0
-539 379 -8219 0
539 8219 0
-379 8219 0
539 -379 -9499 0
-539 9499 0
379 9499 0
7099 8379 0
7099 9659 0
-7099 -8379 -9659 0
-699 539 -8379 0
699 8379 0
-539 8379 0
699 -539 -9659 0
-699 9659 0
539 9659 0
7259 8539 0
7259 9819 0
-7259 -8539 -9819 0
-859 699 -8539 0
859 8539 0
-699 8539 0
859 -699 -9819 0
-859 9819 0
699 9819 0
7419 8699 0
7419 9979 0
-7419 -8699 -9979 0
-1019 859 -8699 0
1019 8699 0
-859 8699 0
1019 -859 -9979 0
-1019 9979 0
859 9979 0
7579 8859 0
7579 10139 0
-7579 -8859 -10139 0
-1179 1019 -8859 0
1179 8859 0
-1019 8859 0
1179 -1019 -10139 0
-1179 10139 0
1019 10139 0
1340 0
-2460 0
-2620 3900 0
-2620 5180 0
-2620 1340 0
-2620 -1500 0
2620 -3900 -5180 -1340 1500 0
-60 220 -3900 0
60 3900 0
-220 3900 0
60 -220 -5180 0
-60 5180 0
220 5180 0
-2780 4060 0
-2780 5340 0
-2780 1500 0
-2780 -1660 0
2780 -4060 -5340 -1500 1660 0
-220 380 -4060 0
220 4060 0
-380 4060 0
220 -380 -5340 0
-220 5340 0
380 5340 0
-2940 4220 0
-2940 5500 0
-2940 1660 0
-2940 -1820 0
2940 -4220 -5500 -1660 1820 0
-380 540 -4220 0
380 4220 0
-540 4220 0
380 -540 -5500 0
-380 5500 0
540 5500 0
-3100 4380 0
-3100 5660 0
-3100 1820 0
-3100 -1980 0
3100 -4380 -5660 -1820 1980 0
-540 700 -4380 0
540 4380 0
-700 4380 0
540 -700 -5660 0
-540 5660 0
700 5660 0
-3260 4540 0
-3260 5820 0
-3260 1980 0
-3260 -2140 0
3260 -4540 -5820 -1980 2140 0
-700 860 -4540 0
700 4540 0
-860 4540 0
700 -860 -5820 0
-700 5820 0
860 5820 0
-3420 4700 0
-3420 5980 0
-3420 2140 0
-3420 -2300 0
3420 -4700 -5980 -2140 2300 0
-860 1020 -4700 0
860 4700 0
-1020 4700 0
860 -1020 -5980 0
-860 5980 0
1020 5980 0
-3580 4860 0
-3580 6140 0
-3580 2300 0
-3580 -2460 0
3580 -4860 -6140 -2300 2460 0
-1020 1180 -4860 0
1020 4860 0
-1180 4860 0
1020 -1180 -6140 0
-1020 6140 0
1180 6140 0
6620 7900 0
6620 9180 0
-6620 -7900 -9180 0
-220 60 -7900 0
220 7900 0
-60 7900 0
220 -60 -9180 0
-220 9180 0
60 9180 0
6780 8060 0
6780 9340 0
-6780 -8060 -9340 0
-380 220 -8060 0
380 8060 0
-220 8060 0
380 -220 -9340 0
-380 9340 0
220 9340 0
6940 8220 0
6940 9500 0
-6940 -8220 -9500 0
-540 380 -8220 0
540 8220 0
-380 8220 0
540 -380 -9500 0
-540 9500 0
380 9500 0
7100 8380 0
7100 9660 0
-7100 -8380 -9660 0
-700 540 -8380 0
700 8380 0
-540 8380 0
700 -540 -9660 0
-700 9660 0
540 9660 0
7260 8540 0
7260 9820 0
-7260 -8540 -9820 0
-860 700 -8540 0
860 8540 0
-700 8540 0
860 -700 -9820 0
-860 9820 0
700 9820 0
7420 8700 0
7420 9980 0
-7420 -8700 -9980 0
-1020 860 -8700 0
1020 8700 0
-860 8700 0
1020 -860 -9980 0
-1020 9980 0
860 9980 0
7580 8860 0
7580 10140 0
-7580 -8860 -10140 0
-1180 1020 -8860 0
1180 8860 0
-1020 8860 0
1180 -1020 -10140 0
-1180 10140 0
1020 10140 0
1341 0
-2461 0
-2621 3901 0
-2621 5181 0
-2621 1341 0
-2621 -1501 0
2621 -3901 -5181 -1341 1501 0
-61 221 -3901 0
61 3901 0
-221 3901 0
61 -221 -5181 0
-61 5181 0
221 5181 0
-2781 4061 0
-2781 5341 0
-2781 1501 0
-2781 -1661 0
2781 -4061 -5341 -1501 1661 0
-221 381 -4061 0
221 4061 0
-381 4061 0
221 -381 -5341 0
-221 5341 0
381 5341 0
-2941 4221 0
-2941 5501 0
-2941 1661 0
-2941 -1821 0
2941 -4221 -5501 -1661 1821 0
-381 541 -4221 0
381 4221 0
-541 4221 0
381 -541 -5501 0
-381 5501 0
541 5501 0
-3101 4381 0
-3101 5661 0
-3101 1821 0
-3101 -1981 0
3101 -4381 -5661 -1821 1981 0
-541 701 -4381 0
541 4381 0
-701 4381 0
541 -701 -5661 0
-541 5661 0
701 5661 0
-3261 4541 0
-3261 5821 0
-3261 1981 0
-3261 -2141 0
3261 -4541 -5821 -1981 2141 0
-701 861 -4541 0
701 4541 0
-861 4541 0
701 -861 -5821 0
-701 5821 0
861 5821 0
-3421 4701 0
-3421 5981 0
-3421 2141 0
-3421 -2301 0
3421 -4701 -5981 -2141 2301 0
-861 1021 -4701 0
861 4701 0
-1021 4701 0
861 -1021 -5981 0
-861 5981 0
1021 5981 0
-3581 4861 0
-3581 6141 0
-3581 2301 0
-3581 -2461 0
3581 -4861 -6141 -2301 2461 0
-1021 1181 -4861 0
1021 4861 0
-1181 4861 0
1021 -1181 -6141 0
-1021 6141 0
1181 6141 0
6621 7901 0
6621 9181 0
-6621 -7901 -9181 0
-221 61 -7901 0
221 7901 0
-61 7901 0
221 -61 -9181 0
-221 9181 0
61 9181 0
6781 8061 0
6781 9341 0
-6781 -8061 -9341 0
-381 221 -8061 0
381 8061 0
-221 8061 0
381 -221 -9341 0
-381 9341 0
221 9341 0
6941 8221 0
6941 9501 0
-6941 -8221 -9501 0
-541 381 -8221 0
541 8221 0
-381 8221 0
541 -381 -9501 0
-541 9501 0
381 9501 0
7101 8381 0
7101 9661 0
-7101 -8381 -9661 0
-701 541 -8381 0
701 8381 0
-541 8381 0
701 -541 -9661 0
-701 9661 0
541 9661 0
7261 8541 0
7261 9821 0
-7261 -8541 -9821 0
-861 701 -8541 0
861 8541 0
-701 8541 0
861 -701 -9821 0
-861 9821 0
701 9821 0
7421 8701 0
7421 9981 0
-7421 -8701 -9981 0
-1021 861 -8701 0
1021 8701 0
-861 8701 0
1021 -861 -9981 0
-1021 9981 0
861 9981 0
7581 8861 0
7581 10141 0
-7581 -8861 -10141 0
-1181 1021 -8861 0
1181 8861 0
-1021 8861 0
1181 -1021 -10141 0
-1181 10141 0
1021 10141 0
1342 0
-2462 0
-2622 3902 0
-2622 5182 0
-2622 1342 0
-2622 -1502 0
2622 -3902 -5182 -1342 1502 0
-62 222 -3902 0
62 3902 0
-222 3902 0
62 -222 -5182 0
-62 5182 0
222 5182 0
-2782 4062 0
-2782 5342 0
-2782 1502 0
-2782 -1662 0
2782 -4062 -5342 -1502 1662 0
-222 382 -4062 0
222 4062 0
-382 4062 0
222 -382 -5342 0
-222 5342 0
382 5342 0
-2942 4222 0
-2942 5502 0
-2942 1662 0
-2942 -1822 0
2942 -4222 -5502 -1662 1822 0
-382 542 -4222 0
382 4222 0
-542 4222 0
382 -542 -5502 0
-382 5502 0
542 5502 0
-3102 4382 0
-3102 5662 0
-3102 1822 0
-3102 -1982 0
3102 -4382 -5662 -1822 1982 0
-542 702 -4382 0
542 4382 0
-702 4382 0
542 -702 -5662 0
-542 5662 0
702 5662 0
-3262 4542 0
-3262 5822 0
-3262 1982 0
-3262 -2142 0
3262 -4542 -5822 -1982 2142 0
-702 862 -4542 0
702 4542 0
-862 4542 0
702 -862 -5822 0
-702 5822 0
862 5822 0
-3422 4702 0
-3422 5982 0
-3422 2142 0
-3422 -2302 0
3422 -4702 -5982 -2142 2302 0
-862 1022 -4702 0
862 4702 0
-1022 4702 0
862 -1022 -5982 0
-862 5982 0
1022 5982 0
-3582 4862 0
-3582 6142 0
-3582 2302 0
-3582 -2462 0
3582 -4862 -6142 -2302 2462 0
-1022 1182 -4862 0
1022 4862 0
-1182 4862 0
1022 -1182 -6142 0
-1022 6142 0
1182 6142 0
6622 7902 0
6622 9182 0
-6622 -7902 -9182 0
-222 62 -7902 0
222 7902 0
-62 7902 0
222 -62 -9182 0
-222 9182 0
62 9182 0
6782 8062 0
6782 9342 0
-6782 -8062 -9342 0
-382 222 -8062 0
382 8062 0
-222 8062 0
382 -222 -9342 0
-382 9342 0
222 9342 0
6942 8222 0
6942 9502 0
-6942 -8222 -9502 0
-542 382 -8222 0
542 8222 0
-382 8222 0
542 -382 -9502 0
-542 9502 0
382 9502 0
7102 8382 0
7102 9662 0
-7102 -8382 -9662 0
-702 542 -8382 0
702 8382 0
-542 8382 0
702 -542 -9662 0
-702 9662 0
542 9662 0
7262 8542 0
7262 9822 0
-7262 -8542 -9822 0
-862 702 -8542 0
862 8542 0
-702 8542 0
862 -702 -9822 0
-862 9822 0
702 9822 0
7422 8702 0
7422 9982 0
-7422 -8702 -9982 0
-1022 862 -8702 0
1022 8702 0
-862 8702 0
1022 -862 -9982 0
-1022 9982 0
862 9982 0
7582 8862 0
7582 10142 0
-7582 -8862 -10142 0
-1182 1022 -8862 0
1182 8862 0
-1022 8862 0
1182 -1022 -10142 0
-1182 10142 0
1022 10142 0
1343 0
-2463 0
-2623 3903 0
-2623 5183 0
-2623 1343 0
-2623 -1503 0
2623 -3903 -5183 -1343 1503 0
-63 223 -3903 0
63 3903 0
-223 3903 0
63 -223 -5183 0
-63 5183 0
223 5183 0
-2783 4063 0
-2783 5343 0
-2783 1503 0
-2783 -1663 0
2783 -4063 -5343 -1503 1663 0
-223 383 -4063 0
223 4063 0
-383 4063 0
223 -383 -5343 0
-223 5343 0
383 5343 0
-2943 4223 0
-2943 5503 0
-2943 1663 0
-2943 -1823 0
2943 -4223 -5503 -1663 1823 0
-383 543 -4223 0
383 4223 0
-543 4223 0
383 -543 -5503 0
-383 5503 0
543 5503 0
-3103 4383 0
-3103 5663 0
-3103 1823 0
-3103 -1983 0
3103 -4383 -5663 -1823 1983 0
-543 703 -4383 0
543 4383 0
-703 4383 0
543 -703 -5663 0
-543 5663 0
703 5663 0
-3263 4543 0
-3263 5823 0
-3263 1983 0
-3263 -2143 0
3263 -4543 -5823 -1983 2143 0
-703 863 -4543 0
703 4543 0
-863 4543 0
703 -863 -5823 0
-703 5823 0
863 5823 0
-3423 4703 0
-3423 5983 0
-3423 2143 0
-3423 -2303 0
3423 -4703 -5983 -2143 2303 0
-863 1023 -4703 0
863 4703 0
-1023 4703 0
863 -1023 -5983 0
-863 5983 0
1023 5983 0
-3583 4863 0
-3583 6143 0
-3583 2303 0
-3583 -2463 0
3583 -4863 -6143 -2303 2463 0
-1023 1183 -4863 0
1023 4863 0
-1183 4863 0
1023 -1183 -6143 0
-1023 6143 0
1183 6143 0
6623 7903 0
6623 9183 0
-6623 -7903 -9183 0
-223 63 -7903 0
223 7903 0
-63 7903 0
223 -63 -9183 0
-223 9183 0
63 9183 0
6783 8063 0
6783 9343 0
-6783 -8063 -9343 0
-383 223 -8063 0
383 8063 0
-223 8063 0
383 -223 -9343 0
-383 9343 0
223 9343 0
6943 8223 0
6943 9503 0
-6943 -8223 -9503 0
-543 383 -8223 0
543 8223 0
-383 8223 0
543 -383 -9503 0
-543 9503 0
383 9503 0
7103 8383 0
7103 9663 0
-7103 -8383 -9663 0
-703 543 -8383 0
703 8383 0
-543 8383 0
703 -543 -9663 0
-703 9663 0
543 9663 0
7263 8543 0
7263 9823 0
-7263 -8543 -9823 0
-863 703 -8543 0
863 8543 0
-703 8543 0
863 -703 -9823 0
-863 9823 0
703 9823 0
7423 8703 0
7423 9983 0
-7423 -8703 -9983 0
-1023 863 -8703 0
1023 8703 0
-863 8703 0
1023 -863 -9983 0
-1023 9983 0
863 9983 0
7583 8863 0
7583 10143 0
-7583 -8863 -10143 0
-1183 1023 -8863 0
1183 8863 0
-1023 8863 0
1183 -1023 -10143 0
-1183 10143 0
1023 10143 0
1344 0
-2464 0
-2624 3904 0
-2624 5184 0
-2624 1344 0
-2624 -1504 0
2624 -3904 -5184 -1344 1504 0
-64 224 -3904 0
64 3904 0
-224 3904 0
64 -224 -5184 0
-64 5184 0
224 5184 0
-2784 4064 0
-2784 5344 0
-2784 1504 0
-2784 -1664 0
2784 -4064 -5344 -1504 1664 0
-224 384 -4064 0
224 4064 0
-384 4064 0
224 -384 -5344 0
-224 5344 0
384 5344 0
-2944 4224 0
-2944 5504 0
-2944 1664 0
-2944 -1824 0
2944 -4224 -5504 -1664 1824 0
-384 544 -4224 0
384 4224 0
-544 4224 0
384 -544 -5504 0
-384 5504 0
544 5504 0
-3104 4384 0
-3104 5664 0
-3104 1824 0
-3104 -1984 0
3104 -4384 -5664 -1824 1984 0
-544 704 -4384 0
544 4384 0
-704 4384 0
544 -704 -5664 0
-544 5664 0
704 5664 0
-3264 4544 0
-3264 5824 0
-3264 1984 0
-3264 -2144 0
3264 -4544 -5824 -1984 2144 0
-704 864 -4544 0
704 4544 0
-864 4544 0
704 -864 -5824 0
-704 5824 0
864 5824 0
-3424 4704 0
-3424 5984 0
-3424 2144 0
-3424 -2304 0
3424 -4704 -5984 -2144 2304 0
-864 1024 -4704 0
864 4704 0
-1024 4704 0
864 -1024 -5984 0
-864 5984 0
1024 5984 0
-3584 4864 0
-3584 6144 0
-3584 2304 0
-3584 -2464 0
3584 -4864 -6144 -2304 2464 0
-1024 1184 -4864 0
1024 4864 0
-1184 4864 0
1024 -1184 -6144 0
-1024 6144 0
1184 6144 0
6624 7904 0
6624 9184 0
-6624 -7904 -9184 0
-224 64 -7904 0
224 7904 0
-64 7904 0
224 -64 -9184 0
-224 9184 0
64 9184 0
6784 8064 0
6784 9344 0
-6784 -8064 -9344 0
-384 224 -8064 0
384 8064 0
-224 8064 0
384 -224 -9344 0
-384 9344 0
224 9344 0
6944 8224 0
6944 9504 0
-6944 -8224 -9504 0
-544 384 -8224 0
544 8224 0
-384 8224 0
544 -384 -9504 0
-544 9504 0
384 9504 0
7104 8384 0
7104 9664 0
-7104 -8384 -9664 0
-704 544 -8384 0
704 8384 0
-544 8384 0
704 -544 -9664 0
-704 9664 0
544 9664 0
7264 8544 0
7264 9824 0
-7264 -8544 -9824 0
-864 704 -8544 0
864 8544 0
-704 8544 0
864 -704 -9824 0
-864 9824 0
704 9824 0
7424 8704 0
7424 9984 0
-7424 -8704 -9984 0
-1024 864 -8704 0
1024 8704 0
-864 8704 0
1024 -864 -9984 0
-1024 9984 0
864 9984 0
7584 8864 0
7584 10144 0
-7584 -8864 -10144 0
-1184 1024 -8864 0
1184 8864 0
-1024 8864 0
1184 -1024 -10144 0
-1184 10144 0
1024 10144 0
1345 0
-2465 0
-2625 3905 0
-2625 5185 0
-2625 1345 0
-2625 -1505 0
2625 -3905 -5185 -1345 1505 0
-65 225 -3905 0
65 3905 0
-225 3905 0
65 -225 -5185 0
-65 5185 0
225 5185 0
-2785 4065 0
-2785 5345 0
-2785 1505 0
-2785 -1665 0
2785 -4065 -5345 -1505 1665 0
-225 385 -4065 0
225 4065 0
-385 4065 0
225 -385 -5345 0
-225 5345 0
385 5345 0
-2945 4225 0
-2945 5505 0
-2945 1665 0
-2945 -1825 0
2945 -4225 -5505 -1665 1825 0
-385 545 -4225 0
385 4225 0
-545 4225 0
385 -545 -5505 0
-385 5505 0
545 5505 0
-3105 4385 0
-3105 5665 0
-3105 1825 0
-3105 -1985 0
3105 -4385 -5665 -1825 1985 0
-545 705 -4385 0
545 4385 0
-705 4385 0
545 -705 -5665 0
-545 5665 0
705 5665 0
-3265 4545 0
-3265 5825 0
-3265 1985 0
-3265 -2145 0
3265 -4545 -5825 -1985 2145 0
-705 865 -4545 0
705 4545 0
-865 4545 0
705 -865 -5825 0
-705 5825 0
865 5825 0
-3425 4705 0
-3425 5985 0
-3425 2145 0
-3425 -2305 0
3425 -4705 -5985 -2145 2305 0
-865 1025 -4705 0
865 4705 0
-1025 4705 0
865 -1025 -5985 0
-865 5985 0
1025 5985 0
-3585 4865 0
-3585 6145 0
-3585 2305 0
-3585 -2465 0
3585 -4865 -6145 -2305 2465 0
-1025 1185 -4865 0
1025 4865 0
-1185 4865 0
1025 -1185 -6145 0
-1025 6145 0
1185 6145 0
6625 7905 0
6625 9185 0
-6625 -7905 -9185 0
-225 65 -7905 0
225 7905 0
-65 7905 0
225 -65 -9185 0
-225 9185 0
65 9185 0
6785 8065 0
6785 9345 0
-6785 -8065 -9345 0
-385 225 -8065 0
385 8065 0
-225 8065 0
385 -225 -9345 0
-385 9345 0
225 9345 0
6945 8225 0
6945 9505 0
-6945 -8225 -9505 0
-545 385 -8225 0
545 8225 0
-385 8225 0
545 -385 -9505 0
-545 9505 0
385 9505 0
7105 8385 0
7105 9665 0
-7105 -8385 -9665 0
-705 545 -8385 0
705 8385 0
-545 8385 0
705 -545 -9665 0
-705 9665 0
545 9665 0
7265 8545 0
7265 9825 0
-7265 -8545 -9825 0
-865 705 -8545 0
865 8545 0
-705 8545 0
865 -705 -9825 0
-865 9825 0
705 9825 0
7425 8705 0
7425 9985 0
-7425 -8705 -9985 0
-1025 865 -8705 0
1025 8705 0
-865 8705 0
1025 -865 -9985 0
-1025 9985 0
865 9985 0
7585 8865 0
7585 10145 0
-7585 -8865 -10145 0
-1185 1025 -8865 0
1185 8865 0
-1025 8865 0
1185 -1025 -10145 0
-1185 10145 0
1025 10145 0
1346 0
-2466 0
-2626 3906 0
-2626 5186 0
-2626 1346 0
-2626 -1506 0
2626 -3906 -5186 -1346 1506 0
-66 226 -3906 0
66 3906 0
-226 3906 0
66 -226 -5186 0
-66 5186 0
226 5186 0
-2786 4066 0
-2786 5346 0
-2786 1506 0
-2786 -1666 0
2786 -4066 -5346 -1506 1666 0
-226 386 -4066 0
226 4066 0
-386 4066 0
226 -386 -5346 0
-226 5346 0
386 5346 0
-2946 4226 0
-2946 5506 0
-2946 1666 0
-2946 -1826 0
2946 -4226 -5506 -1666 1826 0
-386 546 -4226 0
386 4226 0
-546 4226 0
386 -546 -5506 0
-386 5506 0
546 5506 0
-3106 4386 0
-3106 5666 0
-3106 1826 0
-3106 -1986 0
3106 -4386 -5666 -1826 1986 0
-546 706 -4386 0
546 4386 0
-706 4386 0
546 -706 -5666 0
-546 5666 0
706 5666 0
-3266 4546 0
-3266 5826 0
-3266 1986 0
-3266 -2146 0
3266 -4546 -5826 -1986 2146 0
-706 866 -4546 0
706 4546 0
-866 4546 0
706 -866 -5826 0
-706 5826 0
866 5826 0
-3426 4706 0
-3426 5986 0
-3426 2146 0
-3426 -2306 0
3426 -4706 -5986 -2146 2306 0
-866 1026 -4706 0
866 4706 0
-1026 4706 0
866 -1026 -5986 0
-866 5986 0
1026 5986 0
-3586 4866 0
-3586 6146 0
-3586 2306 0
-3586 -2466 0
3586 -4866 -6146 -2306 2466 0
-1026 1186 -4866 0
1026 4866 0
-1186 4866 0
1026 -1186 -6146 0
-1026 6146 0
1186 6146 0
6626 7906 0
6626 9186 0
-6626 -7906 -9186 0
-226 66 -7906 0
226 7906 0
-66 7906 0
226 -66 -9186 0
-226 9186 0
66 9186 0
6786 8066 0
6786 9346 0
-6786 -8066 -9346 0
-386 226 -8066 0
386 8066 0
-226 8066 0
386 -226 -9346 0
-386 9346 0
226 9346 0
6946 8226 0
6946 9506 0
-6946 -8226 -9506 0
-546 386 -8226 0
546 8226 0
-386 8226 0
546 -386 -9506 0
-546 9506 0
386 9506 0
7106 8386 0
7106 9666 0
-7106 -8386 -9666 0
-706 546 -8386 0
706 8386 0
-546 8386 0
706 -546 -9666 0
-706 9666 0
546 9666 0
7266 8546 0
7266 9826 0
-7266 -8546 -9826 0
-866 706 -8546 0
866 8546 0
-706 8546 0
866 -706 -9826 0
-866 9826 0
706 9826 0
7426 8706 0
7426 9986 0
-7426 -8706 -9986 0
-1026 866 -8706 0
1026 8706 0
-866 8706 0
1026 -866 -9986 0
-1026 9986 0
866 9986 0
7586 8866 0
7586 10146 0
-7586 -8866 -10146 0
-1186 1026 -8866 0
1186 8866 0
-1026 8866 0
1186 -1026 -10146 0
-1186 10146 0
1026 10146 0
1347 0
-2467 0
-2627 3907 0
-2627 5187 0
-2627 1347 0
-2627 -1507 0
2627 -3907 -5187 -1347 1507 0
-67 227 -3907 0
67 3907 0
-227 3907 0
67 -227 -5187 0
-67 5187 0
227 5187 0
-2787 4067 0
-2787 5347 0
-2787 1507 0
-2787 -1667 0
2787 -4067 -5347 -1507 1667 0
-227 387 -4067 0
227 4067 0
-387 4067 0
227 -387 -5347 0
-227 5347 0
387 5347 0
-2947 4227 0
-2947 5507 0
-2947 1667 0
-2947 -1827 0
2947 -4227 -5507 -1667 1827 0
-387 547 -4227 0
387 4227 0
-547 4227 0
387 -547 -5507 0
-387 5507 0
547 5507 0
-3107 4387 0
-3107 5667 0
-3107 1827 0
-3107 -1987 0
3107 -4387 -5667 -1827 1987 0
-547 707 -4387 0
547 4387 0
-707 4387 0
547 -707 -5667 0
-547 5667 0
707 5667 0
-3267 4547 0
-3267 5827 0
-3267 1987 0
-3267 -2147 0
3267 -4547 -5827 -1987 2147 0
-707 867 -4547 0
707 4547 0
-867 4547 0
707 -867 -5827 0
-707 5827 0
867 5827 0
-3427 4707 0
-3427 5987 0
-3427 2147 0
-3427 -2307 0
3427 -4707 -5987 -2147 2307 0
-867 1027 -4707 0
867 4707 0
-1027 4707 0
867 -1027 -5987 0
-867 5987 0
1027 5987 0
-3587 4867 0
-3587 6147 0
-3587 2307 0
-3587 -2467 0
3587 -4867 -6147 -2307 2467 0
-1027 1187 -4867 0
1027 4867 0
-1187 4867 0
1027 -1187 -6147 0
-1027 6147 0
1187 6147 0
6627 7907 0
6627 9187 0
-6627 -7907 -9187 0
-227 67 -7907 0
227 7907 0
-67 7907 0
227 -67 -9187 0
-227 9187 0
67 9187 0
6787 8067 0
6787 9347 0
-6787 -8067 -9347 0
-387 227 -8067 0
387 8067 0
-227 8067 0
387 -227 -9347 0
-387 9347 0
227 9347 0
6947 8227 0
6947 9507 0
-6947 -8227 -9507 0
-547 387 -8227 0
547 8227 0
-387 8227 0
547 -387 -9507 0
-547 9507 0
387 9507 0
7107 8387 0
7107 9667 0
-7107 -8387 -9667 0
-707 547 -8387 0
707 8387 0
-547 8387 0
707 -547 -9667 0
-707 9667 0
547 9667 0
7267 8547 0
7267 9827 0
-7267 -8547 -9827 0
-867 707 -8547 0
867 8547 0
-707 8547 0
867 -707 -9827 0
-867 9827 0
707 9827 0
7427 8707 0
7427 9987 0
-7427 -8707 -9987 0
-1027 867 -8707 0
1027 8707 0
-867 8707 0
1027 -867 -9987 0
-1027 9987 0
867 9987 0
7587 8867 0
7587 10147 0
-7587 -8867 -10147 0
-1187 1027 -8867 0
1187 8867 0
-1027 8867 0
1187 -1027 -10147 0
-1187 10147 0
1027 10147 0
1348 0
-2468 0
-2628 3908 0
-2628 5188 0
-2628 1348 0
-2628 -1508 0
2628 -3908 -5188 -1348 1508 0
-68 228 -3908 0
68 3908 0
-228 3908 0
68 -228 -5188 0
-68 5188 0
228 5188 0
-2788 4068 0
-2788 5348 0
-2788 1508 0
-2788 -1668 0
2788 -4068 -5348 -1508 1668 0
-228 388 -4068 0
228 4068 0
-388 4068 0
228 -388 -5348 0
-228 5348 0
388 5348 0
-2948 4228 0
-2948 5508 0
-2948 1668 0
-2948 -1828 0
2948 -4228 -5508 -1668 1828 0
-388 548 -4228 0
388 4228 0
-548 4228 0
388 -548 -5508 0
-388 5508 0
548 5508 0
-3108 4388 0
-3108 5668 0
-3108 1828 0
-3108 -1988 0
3108 -4388 -5668 -1828 1988 0
-548 708 -4388 0
548 4388 0
-708 4388 0
548 -708 -5668 0
-548 5668 0
708 5668 0
-3268 4548 0
-3268 5828 0
-3268 1988 0
-3268 -2148 0
3268 -4548 -5828 -1988 2148 0
-708 868 -4548 0
708 4548 0
-868 4548 0
708 -868 -5828 0
-708 5828 0
868 5828 0
-3428 4708 0
-3428 5988 0
-3428 2148 0
-3428 -2308 0
3428 -4708 -5988 -2148 2308 0
-868 1028 -4708 0
868 4708 0
-1028 4708 0
868 -1028 -5988 0
-868 5988 0
1028 5988 0
-3588 4868 0
-3588 6148 0
-3588 2308 0
-3588 -2468 0
3588 -4868 -6148 -2308 2468 0
-1028 1188 -4868 0
1028 4868 0
-1188 4868 0
1028 -1188 -6148 0
-1028 6148 0
1188 6148 0
6628 7908 0
6628 9188 0
-6628 -7908 -9188 0
-228 68 -7908 0
228 7908 0
-68 7908 0
228 -68 -9188 0
-228 9188 0
68 9188 0
6788 8068 0
6788 9348 0
-6788 -8068 -9348 0
-388 228 -8068 0
388 8068 0
-228 8068 0
388 -228 -9348 0
-388 9348 0
228 9348 0
6948 8228 0
6948 9508 0
-6948 -8228 -9508 0
-548 388 -8228 0
548 8228 0
-388 8228 0
548 -388 -9508 0
-548 9508 0
388 9508 0
7108 8388 0
7108 9668 0
-7108 -8388 -9668 0
-708 548 -8388 0
708 8388 0
-548 8388 0
708 -548 -9668 0
-708 9668 0
548 9668 0
7268 8548 0
7268 9828 0
-7268 -8548 -9828 0
-868 708 -8548 0
868 8548 0
-708 8548 0
868 -708 -9828 0
-868 9828 0
708 9828 0
7428 8708 0
7428 9988 0
-7428 -8708 -9988 0
-1028 868 -8708 0
1028 8708 0
-868 8708 0
1028 -868 -9988 0
-1028 9988 0
868 9988 0
7588 8868 0
7588 10148 0
-7588 -8868 -10148 0
-1188 1028 -8868 0
1188 8868 0
-1028 8868 0
1188 -1028 -10148 0
-1188 10148 0
1028 10148 0
1349 0
-2469 0
-2629 3909 0
-2629 5189 0
-2629 1349 0
-2629 -1509 0
2629 -3909 -5189 -1349 1509 0
-69 229 -3909 0
69 3909 0
-229 3909 0
69 -229 -5189 0
-69 5189 0
229 5189 0
-2789 4069 0
-2789 5349 0
-2789 1509 0
-2789 -1669 0
2789 -4069 -5349 -1509 1669 0
-229 389 -4069 0
229 4069 0
-389 4069 0
229 -389 -5349 0
-229 5349 0
389 5349 0
-2949 4229 0
-2949 5509 0
-2949 1669 0
-2949 -1829 0
2949 -4229 -5509 -1669 1829 0
-389 549 -4229 0
389 4229 0
-549 4229 0
389 -549 -5509 0
-389 5509 0
549 5509 0
-3109 4389 0
-3109 5669 0
-3109 1829 0
-3109 -1989 0
3109 -4389 -5669 -1829 1989 0
-549 709 -4389 0
549 4389 0
-709 4389 0
549 -709 -5669 0
-549 5669 0
709 5669 0
-3269 4549 0
-3269 5829 0
-3269 1989 0
-3269 -2149 0
3269 -4549 -5829 -1989 2149 0
-709 869 -4549 0
709 4549 0
-869 4549 0
709 -869 -5829 0
-709 5829 0
869 5829 0
-3429 4709 0
-3429 5989 0
-3429 2149 0
-3429 -2309 0
3429 -4709 -5989 -2149 2309 0
-869 1029 -4709 0
869 4709 0
-1029 4709 0
869 -1029 -5989 0
-869 5989 0
1029 5989 0
-3589 4869 0
-3589 6149 0
-3589 2309 0
-3589 -2469 0
3589 -4869 -6149 -2309 2469 0
-1029 1189 -4869 0
1029 4869 0
-1189 4869 0
1029 -1189 -6149 0
-1029 6149 0
1189 6149 0
6629 7909 0
6629 9189 0
-6629 -7909 -9189 0
-229 69 -7909 0
229 7909 0
-69 7909 0
229 -69 -9189 0
-229 9189 0
69 9189 0
6789 8069 0
6789 9349 0
-6789 -8069 -9349 0
-389 229 -8069 0
389 8069 0
-229 8069 0
389 -229 -9349 0
-389 9349 0
229 9349 0
6949 8229 0
6949 9509 0
-6949 -8229 -9509 0
-549 389 -8229 0
549 8229 0
-389 8229 0
549 -389 -9509 0
-549 9509 0
389 9509 0
7109 8389 0
7109 9669 0
-7109 -8389 -9669 0
-709 549 -8389 0
709 8389 0
-549 8389 0
709 -549 -9669 0
-709 9669 0
549 9669 0
7269 8549 0
7269 9829 0
-7269 -8549 -9829 0
-869 709 -8549 0
869 8549 0
-709 8549 0
869 -709 -9829 0
-869 9829 0
709 9829 0
7429 8709 0
7429 9989 0
-7429 -8709 -9989 0
-1029 869 -8709 0
1029 8709 0
-869 8709 0
1029 -869 -9989 0
-1029 9989 0
869 9989 0
7589 8869 0
7589 10149 0
-7589 -8869 -10149 0
-1189 1029 -8869 0
1189 8869 0
-1029 8869 0
1189 -1029 -10149 0
-1189 10149 0
1029 10149 0
1350 0
-2470 0
-2630 3910 0
-2630 5190 0
-2630 1350 0
-2630 -1510 0
2630 -3910 -5190 -1350 1510 0
-70 230 -3910 0
70 3910 0
-230 3910 0
70 -230 -5190 0
-70 5190 0
230 5190 0
-2790 4070 0
-2790 5350 0
-2790 1510 0
-2790 -1670 0
2790 -4070 -5350 -1510 1670 0
-230 390 -4070 0
230 4070 0
-390 4070 0
230 -390 -5350 0
-230 5350 0
390 5350 0
-2950 4230 0
-2950 5510 0
-2950 1670 0
-2950 -1830 0
2950 -4230 -5510 -1670 1830 0
-390 550 -4230 0
390 4230 0
-550 4230 0
390 -550 -5510 0
-390 5510 0
550 5510 0
-3110 4390 0
-3110 5670 0
-3110 1830 0
-3110 -1990 0
3110 -4390 -5670 -1830 1990 0
-550 710 -4390 0
550 4390 0
-710 4390 0
550 -710 -5670 0
-550 5670 0
710 5670 0
-3270 4550 0
-3270 5830 0
-3270 1990 0
-3270 -2150 0
3270 -4550 -5830 -1990 2150 0
-710 870 -4550 0
710 4550 0
-870 4550 0
710 -870 -5830 0
-710 5830 0
870 5830 0
-3430 4710 0
-3430 5990 0
-3430 2150 0
-3430 -2310 0
3430 -4710 -5990 -2150 2310 0
-870 1030 -4710 0
870 4710 0
-1030 4710 0
870 -1030 -5990 0
-870 5990 0
1030 5990 0
-3590 4870 0
-3590 6150 0
-3590 2310 0
-3590 -2470 0
3590 -4870 -6150 -2310 2470 0
-1030 1190 -4870 0
1030 4870 0
-1190 4870 0
1030 -1190 -6150 0
-1030 6150 0
1190 6150 0
6630 7910 0
6630 9190 0
-6630 -7910 -9190 0
-230 70 -7910 0
230 7910 0
-70 7910 0
230 -70 -9190 0
-230 9190 0
70 9190 0
6790 8070 0
6790 9350 0
-6790 -8070 -9350 0
-390 230 -8070 0
390 8070 0
-230 8070 0
390 -230 -9350 0
-390 9350 0
230 9350 0
6950 8230 0
6950 9510 0
-6950 -8230 -9510 0
-550 390 -8230 0
550 8230 0
-390 8230 0
550 -390 -9510 0
-550 9510 0
390 9510 0
7110 8390 0
7110 9670 0
-7110 -8390 -9670 0
-710 550 -8390 0
710 8390 0
-550 8390 0
710 -550 -9670 0
-710 9670 0
550 9670 0
7270 8550 0
7270 9830 0
-7270 -8550 -9830 0
-870 710 -8550 0
870 8550 0
-710 8550 0
870 -710 -9830 0
-870 9830 0
710 9830 0
7430 8710 0
7430 9990 0
-7430 -8710 -9990 0
-1030 870 -8710 0
1030 8710 0
-870 8710 0
1030 -870 -9990 0
-1030 9990 0
870 9990 0
7590 8870 0
7590 10150 0
-7590 -8870 -10150 0
-1190 1030 -8870 0
1190 8870 0
-1030 8870 0
1190 -1030 -10150 0
-1190 10150 0
1030 10150 0
1351 0
-2471 0
-2631 3911 0
-2631 5191 0
-2631 1351 0
-2631 -1511 0
2631 -3911 -5191 -1351 1511 0
-71 231 -3911 0
71 3911 0
-231 3911 0
71 -231 -5191 0
-71 5191 0
231 5191 0
-2791 4071 0
-2791 5351 0
-2791 1511 0
-2791 -1671 0
2791 -4071 -5351 -1511 1671 0
-231 391 -4071 0
231 4071 0
-391 4071 0
231 -391 -5351 0
-231 5351 0
391 5351 0
-2951 4231 0
-2951 5511 0
-2951 1671 0
-2951 -1831 0
2951 -4231 -5511 -1671 1831 0
-391 551 -4231 0
391 4231 0
-551 4231 0
391 -551 -5511 0
-391 5511 0
551 5511 0
-3111 4391 0
-3111 5671 0
-3111 1831 0
-3111 -1991 0
3111 -4391 -5671 -1831 1991 0
-551 711 -4391 0
551 4391 0
-711 4391 0
551 -711 -5671 0
-551 5671 0
711 5671 0
-3271 4551 0
-3271 5831 0
-3271 1991 0
-3271 -2151 0
3271 -4551 -5831 -1991 2151 0
-711 871 -4551 0
711 4551 0
-871 4551 0
711 -871 -5831 0
-711 5831 0
871 5831 0
-3431 4711 0
-3431 5991 0
-3431 2151 0
-3431 -2311 0
3431 -4711 -5991 -2151 2311 0
-871 1031 -4711 0
871 4711 0
-1031 4711 0
871 -1031 -5991 0
-871 5991 0
1031 5991 0
-3591 4871 0
-3591 6151 0
-3591 2311 0
-3591 -2471 0
3591 -4871 -6151 -2311 2471 0
-1031 1191 -4871 0
1031 4871 0
-1191 4871 0
1031 -1191 -6151 0
-1031 6151 0
1191 6151 0
6631 7911 0
6631 9191 0
-6631 -7911 -9191 0
-231 71 -7911 0
231 7911 0
-71 7911 0
231 -71 -9191 0
-231 9191 0
71 9191 0
6791 8071 0
6791 9351 0
-6791 -8071 -9351 0
-391 231 -8071 0
391 8071 0
-231 8071 0
391 -231 -9351 0
-391 9351 0
231 9351 0
6951 8231 0
6951 9511 0
-6951 -8231 -9511 0
-551 391 -8231 0
551 8231 0
-391 8231 0
551 -391 -9511 0
-551 9511 0
391 9511 0
7111 8391 0
7111 9671 0
-7111 -8391 -9671 0
-711 551 -8391 0
711 8391 0
-551 8391 0
711 -551 -9671 0
-711 9671 0
551 9671 0
7271 8551 0
7271 9831 0
-7271 -8551 -9831 0
-871 711 -8551 0
871 8551 0
-711 8551 0
871 -711 -9831 0
-871 9831 0
711 9831 0
7431 8711 0
7431 9991 0
-7431 -8711 -9991 0
-1031 871 -8711 0
1031 8711 0
-871 8711 0
1031 -871 -9991 0
-1031 9991 0
871 9991 0
7591 8871 0
7591 10151 0
-7591 -8871 -10151 0
-1191 1031 -8871 0
1191 8871 0
-1031 8871 0
1191 -1031 -10151 0
-1191 10151 0
1031 10151 0
1352 0
-2472 0
-2632 3912 0
-2632 5192 0
-2632 1352 0
-2632 -1512 0
2632 -3912 -5192 -1352 1512 0
-72 232 -3912 0
72 3912 0
-232 3912 0
72 -232 -5192 0
-72 5192 0
232 5192 0
-2792 4072 0
-2792 5352 0
-2792 1512 0
-2792 -1672 0
2792 -4072 -5352 -1512 1672 0
-232 392 -4072 0
232 4072 0
-392 4072 0
232 -392 -5352 0
-232 5352 0
392 5352 0
-2952 4232 0
-2952 5512 0
-2952 1672 0
-2952 -1832 0
2952 -4232 -5512 -1672 1832 0
-392 552 -4232 0
392 4232 0
-552 4232 0
392 -552 -5512 0
-392 5512 0
552 5512 0
-3112 4392 0
-3112 5672 0
-3112 1832 0
-3112 -1992 0
3112 -4392 -5672 -1832 1992 0
-552 712 -4392 0
552 4392 0
-712 4392 0
552 -712 -5672 0
-552 5672 0
712 5672 0
-3272 4552 0
-3272 5832 0
-3272 1992 0
-3272 -2152 0
3272 -4552 -5832 -1992 2152 0
-712 872 -4552 0
712 4552 0
-872 4552 0
712 -872 -5832 0
-712 5832 0
872 5832 0
-3432 4712 0
-3432 5992 0
-3432 2152 0
-3432 -2312 0
3432 -4712 -5992 -2152 2312 0
-872 1032 -4712 0
872 4712 0
-1032 4712 0
872 -1032 -5992 0
-872 5992 0
1032 5992 0
-3592 4872 0
-3592 6152 0
-3592 2312 0
-3592 -2472 0
3592 -4872 -6152 -2312 2472 0
-1032 1192 -4872 0
1032 4872 0
-1192 4872 0
1032 -1192 -6152 0
-1032 6152 0
1192 6152 0
6632 7912 0
6632 9192 0
-6632 -7912 -9192 0
-232 72 -7912 0
232 7912 0
-72 7912 0
232 -72 -9192 0
-232 9192 0
72 9192 0
6792 8072 0
6792 9352 0
-6792 -8072 -9352 0
-392 232 -8072 0
392 8072 0
-232 8072 0
392 -232 -9352 0
-392 9352 0
232 9352 0
6952 8232 0
6952 9512 0
-6952 -8232 -9512 0
-552 392 -8232 0
552 8232 0
-392 8232 0
552 -392 -9512 0
-552 9512 0
392 9512 0
7112 8392 0
7112 9672 0
-7112 -8392 -9672 0
-712 552 -8392 0
712 8392 0
-552 8392 0
712 -552 -9672 0
-712 9672 0
552 9672 0
7272 8552 0
7272 9832 0
-7272 -8552 -9832 0
-872 712 -8552 0
872 8552 0
-712 8552 0
872 -712 -9832 0
-872 9832 0
712 9832 0
7432 8712 0
7432 9992 0
-7432 -8712 -9992 0
-1032 872 -8712 0
1032 8712 0
-872 8712 0
1032 -872 -9992 0
-1032 9992 0
872 9992 0
7592 8872 0
7592 10152 0
-7592 -8872 -10152 0
-1192 1032 -8872 0
1192 8872 0
-1032 8872 0
1192 -1032 -10152 0
-1192 10152 0
1032 10152 0
1353 0
-2473 0
-2633 3913 0
-2633 5193 0
-2633 1353 0
-2633 -1513 0
2633 -3913 -5193 -1353 1513 0
-73 233 -3913 0
73 3913 0
-233 3913 0
73 -233 -5193 0
-73 5193 0
233 5193 0
-2793 4073 0
-2793 5353 0
-2793 1513 0
-2793 -1673 0
2793 -4073 -5353 -1513 1673 0
-233 393 -4073 0
233 4073 0
-393 4073 0
233 -393 -5353 0
-233 5353 0
393 5353 0
-2953 4233 0
-2953 5513 0
-2953 1673 0
-2953 -1833 0
2953 -4233 -5513 -1673 1833 0
-393 553 -4233 0
393 4233 0
-553 4233 0
393 -553 -5513 0
-393 5513 0
553 5513 0
-3113 4393 0
-3113 5673 0
-3113 1833 0
-3113 -1993 0
3113 -4393 -5673 -1833 1993 0
-553 713 -4393 0
553 4393 0
-713 4393 0
553 -713 -5673 0
-553 5673 0
713 5673 0
-3273 4553 0
-3273 5833 0
-3273 1993 0
-3273 -2153 0
3273 -4553 -5833 -1993 2153 0
-713 873 -4553 0
713 4553 0
-873 4553 0
713 -873 -5833 0
-713 5833 0
873 5833 0
-3433 4713 0
-3433 5993 0
-3433 2153 0
-3433 -2313 0
3433 -4713 -5993 -2153 2313 0
-873 1033 -4713 0
873 4713 0
-1033 4713 0
873 -1033 -5993 0
-873 5993 0
1033 5993 0
-3593 4873 0
-3593 6153 0
-3593 2313 0
-3593 -2473 0
3593 -4873 -6153 -2313 2473 0
-1033 1193 -4873 0
1033 4873 0
-1193 4873 0
1033 -1193 -6153 0
-1033 6153 0
1193 6153 0
6633 7913 0
6633 9193 0
-6633 -7913 -9193 0
-233 73 -7913 0
233 7913 0
-73 7913 0
233 -73 -9193 0
-233 9193 0
73 9193 0
6793 8073 0
6793 9353 0
-6793 -8073 -9353 0
-393 233 -8073 0
393 8073 0
-233 8073 0
393 -233 -9353 0
-393 9353 0
233 9353 0
6953 8233 0
6953 9513 0
-6953 -8233 -9513 0
-553 393 -8233 0
553 8233 0
-393 8233 0
553 -393 -9513 0
-553 9513 0
393 9513 0
7113 8393 0
7113 9673 0
-7113 -8393 -9673 0
-713 553 -8393 0
713 8393 0
-553 8393 0
713 -553 -9673 0
-713 9673 0
553 9673 0
7273 8553 0
7273 9833 0
-7273 -8553 -9833 0
-873 713 -8553 0
873 8553 0
-713 8553 0
873 -713 -9833 0
-873 9833 0
713 9833 0
7433 8713 0
7433 9993 0
-7433 -8713 -9993 0
-1033 873 -8713 0
1033 8713 0
-873 8713 0
1033 -873 -9993 0
-1033 9993 0
873 9993 0
7593 8873 0
7593 10153 0
-7593 -8873 -10153 0
-1193 1033 -8873 0
1193 8873 0
-1033 8873 0
1193 -1033 -10153 0
-1193 10153 0
1033 10153 0
1354 0
-2474 0
-2634 3914 0
-2634 5194 0
-2634 1354 0
-2634 -1514 0
2634 -3914 -5194 -1354 1514 0
-74 234 -3914 0
74 3914 0
-234 3914 0
74 -234 -5194 0
-74 5194 0
234 5194 0
-2794 4074 0
-2794 5354 0
-2794 1514 0
-2794 -1674 0
2794 -4074 -5354 -1514 1674 0
-234 394 -4074 0
234 4074 0
-394 4074 0
234 -394 -5354 0
-234 5354 0
394 5354 0
-2954 4234 0
-2954 5514 0
-2954 1674 0
-2954 -1834 0
2954 -4234 -5514 -1674 1834 0
-394 554 -4234 0
394 4234 0
-554 4234 0
394 -554 -5514 0
-394 5514 0
554 5514 0
-3114 4394 0
-3114 5674 0
-3114 1834 0
-3114 -1994 0
3114 -4394 -5674 -1834 1994 0
-554 714 -4394 0
554 4394 0
-714 4394 0
554 -714 -5674 0
-554 5674 0
714 5674 0
-3274 4554 0
-3274 5834 0
-3274 1994 0
-3274 -2154 0
3274 -4554 -5834 -1994 2154 0
-714 874 -4554 0
714 4554 0
-874 4554 0
714 -874 -5834 0
-714 5834 0
874 5834 0
-3434 4714 0
-3434 5994 0
-3434 2154 0
-3434 -2314 0
3434 -4714 -5994 -2154 2314 0
-874 1034 -4714 0
874 4714 0
-1034 4714 0
874 -1034 -5994 0
-874 5994 0
1034 5994 0
-3594 4874 0
-3594 6154 0
-3594 2314 0
-3594 -2474 0
3594 -4874 -6154 -2314 2474 0
-1034 1194 -4874 0
1034 4874 0
-1194 4874 0
1034 -1194 -6154 0
-1034 6154 0
1194 6154 0
6634 7914 0
6634 9194 0
-6634 -7914 -9194 0
-234 74 -7914 0
234 7914 0
-74 7914 0
234 -74 -9194 0
-234 9194 0
74 9194 0
6794 8074 0
6794 9354 0
-6794 -8074 -9354 0
-394 234 -8074 0
394 8074 0
-234 8074 0
394 -234 -9354 0
-394 9354 0
234 9354 0
6954 8234 0
6954 9514 0
-6954 -8234 -9514 0
-554 394 -8234 0
554 8234 0
-394 8234 0
554 -394 -9514 0
-554 9514 0
394 9514 0
7114 8394 0
7114 9674 0
-7114 -8394 -9674 0
-714 554 -8394 0
714 8394 0
-554 8394 0
714 -554 -9674 0
-714 9674 0
554 9674 0
7274 8554 0
7274 9834 0
-7274 -8554 -9834 0
-874 714 -8554 0
874 8554 0
-714 8554 0
874 -714 -9834 0
-874 9834 0
714 9834 0
7434 8714 0
7434 9994 0
-7434 -8714 -9994 0
-1034 874 -8714 0
1034 8714 0
-874 8714 0
1034 -874 -9994 0
-1034 9994 0
874 9994 0
7594 8874 0
7594 10154 0
-7594 -8874 -10154 0
-1194 1034 -8874 0
1194 8874 0
-1034 8874 0
1194 -1034 -10154 0
-1194 10154 0
1034 10154 0
1355 0
-2475 0
-2635 3915 0
-2635 5195 0
-2635 1355 0
-2635 -1515 0
2635 -3915 -5195 -1355 1515 0
-75 235 -3915 0
75 3915 0
-235 3915 0
75 -235 -5195 0
-75 5195 0
235 5195 0
-2795 4075 0
-2795 5355 0
-2795 1515 0
-2795 -1675 0
2795 -4075 -5355 -1515 1675 0
-235 395 -4075 0
235 4075 0
-395 4075 0
235 -395 -5355 0
-235 5355 0
395 5355 0
-2955 4235 0
-2955 5515 0
-2955 1675 0
-2955 -1835 0
2955 -4235 -5515 -1675 1835 0
-395 555 -4235 0
395 4235 0
-555 4235 0
395 -555 -5515 0
-395 5515 0
555 5515 0
-3115 4395 0
-3115 5675 0
-3115 1835 0
-3115 -1995 0
3115 -4395 -5675 -1835 1995 0
-555 715 -4395 0
555 4395 0
-715 4395 0
555 -715 -5675 0
-555 5675 0
715 5675 0
-3275 4555 0
-3275 5835 0
-3275 1995 0
-3275 -2155 0
3275 -4555 -5835 -1995 2155 0
-715 875 -4555 0
715 4555 0
-875 4555 0
715 -875 -5835 0
-715 5835 0
875 5835 0
-3435 4715 0
-3435 5995 0
-3435 2155 0
-3435 -2315 0
3435 -4715 -5995 -2155 2315 0
-875 1035 -4715 0
875 4715 0
-1035 4715 0
875 -1035 -5995 0
-875 5995 0
1035 5995 0
-3595 4875 0
-3595 6155 0
-3595 2315 0
-3595 -2475 0
3595 -4875 -6155 -2315 2475 0
-1035 1195 -4875 0
1035 4875 0
-1195 4875 0
1035 -1195 -6155 0
-1035 6155 0
1195 6155 0
6635 7915 0
6635 9195 0
-6635 -7915 -9195 0
-235 75 -7915 0
235 7915 0
-75 7915 0
235 -75 -9195 0
-235 9195 0
75 9195 0
6795 8075 0
6795 9355 0
-6795 -8075 -9355 0
-395 235 -8075 0
395 8075 0
-235 8075 0
395 -235 -9355 0
-395 9355 0
235 9355 0
6955 8235 0
6955 9515 0
-6955 -8235 -9515 0
-555 395 -8235 0
555 8235 0
-395 8235 0
555 -395 -9515 0
-555 9515 0
395 9515 0
7115 8395 0
7115 9675 0
-7115 -8395 -9675 0
-715 555 -8395 0
715 8395 0
-555 8395 0
715 -555 -9675 0
-715 9675 0
555 9675 0
7275 8555 0
7275 9835 0
-7275 -8555 -9835 0
-875 715 -8555 0
875 8555 0
-715 8555 0
875 -715 -9835 0
-875 9835 0
715 9835 0
7435 8715 0
7435 9995 0
-7435 -8715 -9995 0
-1035 875 -8715 0
1035 8715 0
-875 8715 0
1035 -875 -9995 0
-1035 9995 0
875 9995 0
7595 8875 0
7595 10155 0
-7595 -8875 -10155 0
-1195 1035 -8875 0
1195 8875 0
-1035 8875 0
1195 -1035 -10155 0
-1195 10155 0
1035 10155 0
1356 0
-2476 0
-2636 3916 0
-2636 5196 0
-2636 1356 0
-2636 -1516 0
2636 -3916 -5196 -1356 1516 0
-76 236 -3916 0
76 3916 0
-236 3916 0
76 -236 -5196 0
-76 5196 0
236 5196 0
-2796 4076 0
-2796 5356 0
-2796 1516 0
-2796 -1676 0
2796 -4076 -5356 -1516 1676 0
-236 396 -4076 0
236 4076 0
-396 4076 0
236 -396 -5356 0
-236 5356 0
396 5356 0
-2956 4236 0
-2956 5516 0
-2956 1676 0
-2956 -1836 0
2956 -4236 -5516 -1676 1836 0
-396 556 -4236 0
396 4236 0
-556 4236 0
396 -556 -5516 0
-396 5516 0
556 5516 0
-3116 4396 0
-3116 5676 0
-3116 1836 0
-3116 -1996 0
3116 -4396 -5676 -1836 1996 0
-556 716 -4396 0
556 4396 0
-716 4396 0
556 -716 -5676 0
-556 5676 0
716 5676 0
-3276 4556 0
-3276 5836 0
-3276 1996 0
-3276 -2156 0
3276 -4556 -5836 -1996 2156 0
-716 876 -4556 0
716 4556 0
-876 4556 0
716 -876 -5836 0
-716 5836 0
876 5836 0
-3436 4716 0
-3436 5996 0
-3436 2156 0
-3436 -2316 0
3436 -4716 -5996 -2156 2316 0
-876 1036 -4716 0
876 4716 0
-1036 4716 0
876 -1036 -5996 0
-876 5996 0
1036 5996 0
-3596 4876 0
-3596 6156 0
-3596 2316 0
-3596 -2476 0
3596 -4876 -6156 -2316 2476 0
-1036 1196 -4876 0
1036 4876 0
-1196 4876 0
1036 -1196 -6156 0
-1036 6156 0
1196 6156 0
6636 7916 0
6636 9196 0
-6636 -7916 -9196 0
-236 76 -7916 0
236 7916 0
-76 7916 0
236 -76 -9196 0
-236 9196 0
76 9196 0
6796 8076 0
6796 9356 0
-6796 -8076 -9356 0
-396 236 -8076 0
396 8076 0
-236 8076 0
396 -236 -9356 0
-396 9356 0
236 9356 0
6956 8236 0
6956 9516 0
-6956 -8236 -9516 0
-556 396 -8236 0
556 8236 0
-396 8236 0
556 -396 -9516 0
-556 9516 0
396 9516 0
7116 8396 0
7116 9676 0
-7116 -8396 -9676 0
-716 556 -8396 0
716 8396 0
-556 8396 0
716 -556 -9676 0
-716 9676 0
556 9676 0
7276 8556 0
7276 9836 0
-7276 -8556 -9836 0
-876 716 -8556 0
876 8556 0
-716 8556 0
876 -716 -9836 0
-876 9836 0
716 9836 0
7436 8716 0
7436 9996 0
-7436 -8716 -9996 0
-1036 876 -8716 0
1036 8716 0
-876 8716 0
1036 -876 -9996 0
-1036 9996 0
876 9996 0
7596 8876 0
7596 10156 0
-7596 -8876 -10156 0
-1196 1036 -8876 0
1196 8876 0
-1036 8876 0
1196 -1036 -10156 0
-1196 10156 0
1036 10156 0
1357 0
-2477 0
-2637 3917 0
-2637 5197 0
-2637 1357 0
-2637 -1517 0
2637 -3917 -5197 -1357 1517 0
-77 237 -3917 0
77 3917 0
-237 3917 0
77 -237 -5197 0
-77 5197 0
237 5197 0
-2797 4077 0
-2797 5357 0
-2797 1517 0
-2797 -1677 0
2797 -4077 -5357 -1517 1677 0
-237 397 -4077 0
237 4077 0
-397 4077 0
237 -397 -5357 0
-237 5357 0
397 5357 0
-2957 4237 0
-2957 5517 0
-2957 1677 0
-2957 -1837 0
2957 -4237 -5517 -1677 1837 0
-397 557 -4237 0
397 4237 0
-557 4237 0
397 -557 -5517 0
-397 5517 0
557 5517 0
-3117 4397 0
-3117 5677 0
-3117 1837 0
-3117 -1997 0
3117 -4397 -5677 -1837 1997 0
-557 717 -4397 0
557 4397 0
-717 4397 0
557 -717 -5677 0
-557 5677 0
717 5677 0
-3277 4557 0
-3277 5837 0
-3277 1997 0
-3277 -2157 0
3277 -4557 -5837 -1997 2157 0
-717 877 -4557 0
717 4557 0
-877 4557 0
717 -877 -5837 0
-717 5837 0
877 5837 0
-3437 4717 0
-3437 5997 0
-3437 2157 0
-3437 -2317 0
3437 -4717 -5997 -2157 2317 0
-877 1037 -4717 0
877 4717 0
-1037 4717 0
877 -1037 -5997 0
-877 5997 0
1037 5997 0
-3597 4877 0
-3597 6157 0
-3597 2317 0
-3597 -2477 0
3597 -4877 -6157 -2317 2477 0
-1037 1197 -4877 0
1037 4877 0
-1197 4877 0
1037 -1197 -6157 0
-1037 6157 0
1197 6157 0
6637 7917 0
6637 9197 0
-6637 -7917 -9197 0
-237 77 -7917 0
237 7917 0
-77 7917 0
237 -77 -9197 0
-237 9197 0
77 9197 0
6797 8077 0
6797 9357 0
-6797 -8077 -9357 0
-397 237 -8077 0
397 8077 0
-237 8077 0
397 -237 -9357 0
-397 9357 0
237 9357 0
6957 8237 0
6957 9517 0
-6957 -8237 -9517 0
-557 397 -8237 0
557 8237 0
-397 8237 0
557 -397 -9517 0
-557 9517 0
397 9517 0
7117 8397 0
7117 9677 0
-7117 -8397 -9677 0
-717 557 -8397 0
717 8397 0
-557 8397 0
717 -557 -9677 0
-717 9677 0
557 9677 0
7277 8557 0
7277 9837 0
-7277 -8557 -9837 0
-877 717 -8557 0
877 8557 0
-717 8557 0
877 -717 -9837 0
-877 9837 0
717 9837 0
7437 8717 0
7437 9997 0
-7437 -8717 -9997 0
-1037 877 -8717 0
1037 8717 0
-877 8717 0
1037 -877 -9997 0
-1037 9997 0
877 9997 0
7597 8877 0
7597 10157 0
-7597 -8877 -10157 0
-1197 1037 -8877 0
1197 8877 0
-1037 8877 0
1197 -1037 -10157 0
-1197 10157 0
1037 10157 0
1358 0
-2478 0
-2638 3918 0
-2638 5198 0
-2638 1358 0
-2638 -1518 0
2638 -3918 -5198 -1358 1518 0
-78 238 -3918 0
78 3918 0
-238 3918 0
78 -238 -5198 0
-78 5198 0
238 5198 0
-2798 4078 0
-2798 5358 0
-2798 1518 0
-2798 -1678 0
2798 -4078 -5358 -1518 1678 0
-238 398 -4078 0
238 4078 0
-398 4078 0
238 -398 -5358 0
-238 5358 0
398 5358 0
-2958 4238 0
-2958 5518 0
-2958 1678 0
-2958 -1838 0
2958 -4238 -5518 -1678 1838 0
-398 558 -4238 0
398 4238 0
-558 4238 0
398 -558 -5518 0
-398 5518 0
558 5518 0
-3118 4398 0
-3118 5678 0
-3118 1838 0
-3118 -1998 0
3118 -4398 -5678 -1838 1998 0
-558 718 -4398 0
558 4398 0
-718 4398 0
558 -718 -5678 0
-558 5678 0
718 5678 0
-3278 4558 0
-3278 5838 0
-3278 1998 0
-3278 -2158 0
3278 -4558 -5838 -1998 2158 0
-718 878 -4558 0
718 4558 0
-878 4558 0
718 -878 -5838 0
-718 5838 0
878 5838 0
-3438 4718 0
-3438 5998 0
-3438 2158 0
-3438 -2318 0
3438 -4718 -5998 -2158 2318 0
-878 1038 -4718 0
878 4718 0
-1038 4718 0
878 -1038 -5998 0
-878 5998 0
1038 5998 0
-3598 4878 0
-3598 6158 0
-3598 2318 0
-3598 -2478 0
3598 -4878 -6158 -2318 2478 0
-1038 1198 -4878 0
1038 4878 0
-1198 4878 0
1038 -1198 -6158 0
-1038 6158 0
1198 6158 0
6638 7918 0
6638 9198 0
-6638 -7918 -9198 0
-238 78 -7918 0
238 7918 0
-78 7918 0
238 -78 -9198 0
-238 9198 0
78 9198 0
6798 8078 0
6798 9358 0
-6798 -8078 -9358 0
-398 238 -8078 0
398 8078 0
-238 8078 0
398 -238 -9358 0
-398 9358 0
238 9358 0
6958 8238 0
6958 9518 0
-6958 -8238 -9518 0
-558 398 -8238 0
558 8238 0
-398 8238 0
558 -398 -9518 0
-558 9518 0
398 9518 0
7118 8398 0
7118 9678 0
-7118 -8398 -9678 0
-718 558 -8398 0
718 8398 0
-558 8398 0
718 -558 -9678 0
-718 9678 0
558 9678 0
7278 8558 0
7278 9838 0
-7278 -8558 -9838 0
-878 718 -8558 0
878 8558 0
-718 8558 0
878 -718 -9838 0
-878 9838 0
718 9838 0
7438 8718 0
7438 9998 0
-7438 -8718 -9998 0
-1038 878 -8718 0
1038 8718 0
-878 8718 0
1038 -878 -9998 0
-1038 9998 0
878 9998 0
7598 8878 0
7598 10158 0
-7598 -8878 -10158 0
-1198 1038 -8878 0
1198 8878 0
-1038 8878 0
1198 -1038 -10158 0
-1198 10158 0
1038 10158 0
1359 0
-2479 0
-2639 3919 0
-2639 5199 0
-2639 1359 0
-2639 -1519 0
2639 -3919 -5199 -1359 1519 0
-79 239 -3919 0
79 3919 0
-239 3919 0
79 -239 -5199 0
-79 5199 0
239 5199 0
-2799 4079 0
-2799 5359 0
-2799 1519 0
-2799 -1679 0
2799 -4079 -5359 -1519 1679 0
-239 399 -4079 0
239 4079 0
-399 4079 0
239 -399 -5359 0
-239 5359 0
399 5359 0
-2959 4239 0
-2959 5519 0
-2959 1679 0
-2959 -1839 0
2959 -4239 -5519 -1679 1839 0
-399 559 -4239 0
399 4239 0
-559 4239 0
399 -559 -5519 0
-399 5519 0
559 5519 0
-3119 4399 0
-3119 5679 0
-3119 1839 0
-3119 -1999 0
3119 -4399 -5679 -1839 1999 0
-559 719 -4399 0
559 4399 0
-719 4399 0
559 -719 -5679 0
-559 5679 0
719 5679 0
-3279 4559 0
-3279 5839 0
-3279 1999 0
-3279 -2159 0
3279 -4559 -5839 -1999 2159 0
-719 879 -4559 0
719 4559 0
-879 4559 0
719 -879 -5839 0
-719 5839 0
879 5839 0
-3439 4719 0
-3439 5999 0
-3439 2159 0
-3439 -2319 0
3439 -4719 -5999 -2159 2319 0
-879 1039 -4719 0
879 4719 0
-1039 4719 0
879 -1039 -5999 0
-879 5999 0
1039 5999 0
-3599 4879 0
-3599 6159 0
-3599 2319 0
-3599 -2479 0
3599 -4879 -6159 -2319 2479 0
-1039 1199 -4879 0
1039 4879 0
-1199 4879 0
1039 -1199 -6159 0
-1039 6159 0
1199 6159 0
6639 7919 0
6639 9199 0
-6639 -7919 -9199 0
-239 79 -7919 0
239 7919 0
-79 7919 0
239 -79 -9199 0
-239 9199 0
79 9199 0
6799 8079 0
6799 9359 0
-6799 -8079 -9359 0
-399 239 -8079 0
399 8079 0
-239 8079 0
399 -239 -9359 0
-399 9359 0
239 9359 0
6959 8239 0
6959 9519 0
-6959 -8239 -9519 0
-559 399 -8239 0
559 8239 0
-399 8239 0
559 -399 -9519 0
-559 9519 0
399 9519 0
7119 8399 0
7119 9679 0
-7119 -8399 -9679 0
-719 559 -8399 0
719 8399 0
-559 8399 0
719 -559 -9679 0
-719 9679 0
559 9679 0
7279 8559 0
7279 9839 0
-7279 -8559 -9839 0
-879 719 -8559 0
879 8559 0
-719 8559 0
879 -719 -9839 0
-879 9839 0
719 9839 0
7439 8719 0
7439 9999 0
-7439 -8719 -9999 0
-1039 879 -8719 0
1039 8719 0
-879 8719 0
1039 -879 -9999 0
-1039 9999 0
879 9999 0
7599 8879 0
7599 10159 0
-7599 -8879 -10159 0
-1199 1039 -8879 0
1199 8879 0
-1039 8879 0
1199 -1039 -10159 0
-1199 10159 0
1039 10159 0
1360 0
-2480 0
-2640 3920 0
-2640 5200 0
-2640 1360 0
-2640 -1520 0
2640 -3920 -5200 -1360 1520 0
-80 240 -3920 0
80 3920 0
-240 3920 0
80 -240 -5200 0
-80 5200 0
240 5200 0
-2800 4080 0
-2800 5360 0
-2800 1520 0
-2800 -1680 0
2800 -4080 -5360 -1520 1680 0
-240 400 -4080 0
240 4080 0
-400 4080 0
240 -400 -5360 0
-240 5360 0
400 5360 0
-2960 4240 0
-2960 5520 0
-2960 1680 0
-2960 -1840 0
2960 -4240 -5520 -1680 1840 0
-400 560 -4240 0
400 4240 0
-560 4240 0
400 -560 -5520 0
-400 5520 0
560 5520 0
-3120 4400 0
-3120 5680 0
-3120 1840 0
-3120 -2000 0
3120 -4400 -5680 -1840 2000 0
-560 720 -4400 0
560 4400 0
-720 4400 0
560 -720 -5680 0
-560 5680 0
720 5680 0
-3280 4560 0
-3280 5840 0
-3280 2000 0
-3280 -2160 0
3280 -4560 -5840 -2000 2160 0
-720 880 -4560 0
720 4560 0
-880 4560 0
720 -880 -5840 0
-720 5840 0
880 5840 0
-3440 4720 0
-3440 6000 0
-3440 2160 0
-3440 -2320 0
3440 -4720 -6000 -2160 2320 0
-880 1040 -4720 0
880 4720 0
-1040 4720 0
880 -1040 -6000 0
-880 6000 0
1040 6000 0
-3600 4880 0
-3600 6160 0
-3600 2320 0
-3600 -2480 0
3600 -4880 -6160 -2320 2480 0
-1040 1200 -4880 0
1040 4880 0
-1200 4880 0
1040 -1200 -6160 0
-1040 6160 0
1200 6160 0
6640 7920 0
6640 9200 0
-6640 -7920 -9200 0
-240 80 -7920 0
240 7920 0
-80 7920 0
240 -80 -9200 0
-240 9200 0
80 9200 0
6800 8080 0
6800 9360 0
-6800 -8080 -9360 0
-400 240 -8080 0
400 8080 0
-240 8080 0
400 -240 -9360 0
-400 9360 0
240 9360 0
6960 8240 0
6960 9520 0
-6960 -8240 -9520 0
-560 400 -8240 0
560 8240 0
-400 8240 0
560 -400 -9520 0
-560 9520 0
400 9520 0
7120 8400 0
7120 9680 0
-7120 -8400 -9680 0
-720 560 -8400 0
720 8400 0
-560 8400 0
720 -560 -9680 0
-720 9680 0
560 9680 0
7280 8560 0
7280 9840 0
-7280 -8560 -9840 0
-880 720 -8560 0
880 8560 0
-720 8560 0
880 -720 -9840 0
-880 9840 0
720 9840 0
7440 8720 0
7440 10000 0
-7440 -8720 -10000 0
-1040 880 -8720 0
1040 8720 0
-880 8720 0
1040 -880 -10000 0
-1040 10000 0
880 10000 0
7600 8880 0
7600 10160 0
-7600 -8880 -10160 0
-1200 1040 -8880 0
1200 8880 0
-1040 8880 0
1200 -1040 -10160 0
-1200 10160 0
1040 10160 0
1361 0
-2481 0
-2641 3921 0
-2641 5201 0
-2641 1361 0
-2641 -1521 0
2641 -3921 -5201 -1361 1521 0
-81 241 -3921 0
81 3921 0
-241 3921 0
81 -241 -5201 0
-81 5201 0
241 5201 0
-2801 4081 0
-2801 5361 0
-2801 1521 0
-2801 -1681 0
2801 -4081 -5361 -1521 1681 0
-241 401 -4081 0
241 4081 0
-401 4081 0
241 -401 -5361 0
-241 5361 0
401 5361 0
-2961 4241 0
-2961 5521 0
-2961 1681 0
-2961 -1841 0
2961 -4241 -5521 -1681 1841 0
-401 561 -4241 0
401 4241 0
-561 4241 0
401 -561 -5521 0
-401 5521 0
561 5521 0
-3121 4401 0
-3121 5681 0
-3121 1841 0
-3121 -2001 0
3121 -4401 -5681 -1841 2001 0
-561 721 -4401 0
561 4401 0
-721 4401 0
561 -721 -5681 0
-561 5681 0
721 5681 0
-3281 4561 0
-3281 5841 0
-3281 2001 0
-3281 -2161 0
3281 -4561 -5841 -2001 2161 0
-721 881 -4561 0
721 4561 0
-881 4561 0
721 -881 -5841 0
-721 5841 0
881 5841 0
-3441 4721 0
-3441 6001 0
-3441 2161 0
-3441 -2321 0
3441 -4721 -6001 -2161 2321 0
-881 1041 -4721 0
881 4721 0
-1041 4721 0
881 -1041 -6001 0
-881 6001 0
1041 6001 0
-3601 4881 0
-3601 6161 0
-3601 2321 0
-3601 -2481 0
3601 -4881 -6161 -2321 2481 0
-1041 1201 -4881 0
1041 4881 0
-1201 4881 0
1041 -1201 -6161 0
-1041 6161 0
1201 6161 0
6641 7921 0
6641 9201 0
-6641 -7921 -9201 0
-241 81 -7921 0
241 7921 0
-81 7921 0
241 -81 -9201 0
-241 9201 0
81 9201 0
6801 8081 0
6801 9361 0
-6801 -8081 -9361 0
-401 241 -8081 0
401 8081 0
-241 8081 0
401 -241 -9361 0
-401 9361 0
241 9361 0
6961 8241 0
6961 9521 0
-6961 -8241 -9521 0
-561 401 -8241 0
561 8241 0
-401 8241 0
561 -401 -9521 0
-561 9521 0
401 9521 0
7121 8401 0
7121 9681 0
-7121 -8401 -9681 0
-721 561 -8401 0
721 8401 0
-561 8401 0
721 -561 -9681 0
-721 9681 0
561 9681 0
7281 8561 0
7281 9841 0
-7281 -8561 -9841 0
-881 721 -8561 0
881 8561 0
-721 8561 0
881 -721 -9841 0
-881 9841 0
721 9841 0
7441 8721 0
7441 10001 0
-7441 -8721 -10001 0
-1041 881 -8721 0
1041 8721 0
-881 8721 0
1041 -881 -10001 0
-1041 10001 0
881 10001 0
7601 8881 0
7601 10161 0
-7601 -8881 -10161 0
-1201 1041 -8881 0
1201 8881 0
-1041 8881 0
1201 -1041 -10161 0
-1201 10161 0
1041 10161 0
1362 0
-2482 0
-2642 3922 0
-2642 5202 0
-2642 1362 0
-2642 -1522 0
2642 -3922 -5202 -1362 1522 0
-82 242 -3922 0
82 3922 0
-242 3922 0
82 -242 -5202 0
-82 5202 0
242 5202 0
-2802 4082 0
-2802 5362 0
-2802 1522 0
-2802 -1682 0
2802 -4082 -5362 -1522 1682 0
-242 402 -4082 0
242 4082 0
-402 4082 0
242 -402 -5362 0
-242 5362 0
402 5362 0
-2962 4242 0
-2962 5522 0
-2962 1682 0
-2962 -1842 0
2962 -4242 -5522 -1682 1842 0
-402 562 -4242 0
402 4242 0
-562 4242 0
402 -562 -5522 0
-402 5522 0
562 5522 0
-3122 4402 0
-3122 5682 0
-3122 1842 0
-3122 -2002 0
3122 -4402 -5682 -1842 2002 0
-562 722 -4402 0
562 4402 0
-722 4402 0
562 -722 -5682 0
-562 5682 0
722 5682 0
-3282 4562 0
-3282 5842 0
-3282 2002 0
-3282 -2162 0
3282 -4562 -5842 -2002 2162 0
-722 882 -4562 0
722 4562 0
-882 4562 0
722 -882 -5842 0
-722 5842 0
882 5842 0
-3442 4722 0
-3442 6002 0
-3442 2162 0
-3442 -2322 0
3442 -4722 -6002 -2162 2322 0
-882 1042 -4722 0
882 4722 0
-1042 4722 0
882 -1042 -6002 0
-882 6002 0
1042 6002 0
-3602 4882 0
-3602 6162 0
-3602 2322 0
-3602 -2482 0
3602 -4882 -6162 -2322 2482 0
-1042 1202 -4882 0
1042 4882 0
-1202 4882 0
1042 -1202 -6162 0
-1042 6162 0
1202 6162 0
6642 7922 0
6642 9202 0
-6642 -7922 -9202 0
-242 82 -7922 0
242 7922 0
-82 7922 0
242 -82 -9202 0
-242 9202 0
82 9202 0
6802 8082 0
6802 9362 0
-6802 -8082 -9362 0
-402 242 -8082 0
402 8082 0
-242 8082 0
402 -242 -9362 0
-402 9362 0
242 9362 0
6962 8242 0
6962 9522 0
-6962 -8242 -9522 0
-562 402 -8242 0
562 8242 0
-402 8242 0
562 -402 -9522 0
-562 9522 0
402 9522 0
7122 8402 0
7122 9682 0
-7122 -8402 -9682 0
-722 562 -8402 0
722 8402 0
-562 8402 0
722 -562 -9682 0
-722 9682 0
562 9682 0
7282 8562 0
7282 9842 0
-7282 -8562 -9842 0
-882 722 -8562 0
882 8562 0
-722 8562 0
882 -722 -9842 0
-882 9842 0
722 9842 0
7442 8722 0
7442 10002 0
-7442 -8722 -10002 0
-1042 882 -8722 0
1042 8722 0
-882 8722 0
1042 -882 -10002 0
-1042 10002 0
882 10002 0
7602 8882 0
7602 10162 0
-7602 -8882 -10162 0
-1202 1042 -8882 0
1202 8882 0
-1042 8882 0
1202 -1042 -10162 0
-1202 10162 0
1042 10162 0
1363 0
-2483 0
-2643 3923 0
-2643 5203 0
-2643 1363 0
-2643 -1523 0
2643 -3923 -5203 -1363 1523 0
-83 243 -3923 0
83 3923 0
-243 3923 0
83 -243 -5203 0
-83 5203 0
243 5203 0
-2803 4083 0
-2803 5363 0
-2803 1523 0
-2803 -1683 0
2803 -4083 -5363 -1523 1683 0
-243 403 -4083 0
243 4083 0
-403 4083 0
243 -403 -5363 0
-243 5363 0
403 5363 0
-2963 4243 0
-2963 5523 0
-2963 1683 0
-2963 -1843 0
2963 -4243 -5523 -1683 1843 0
-403 563 -4243 0
403 4243 0
-563 4243 0
403 -563 -5523 0
-403 5523 0
563 5523 0
-3123 4403 0
-3123 5683 0
-3123 1843 0
-3123 -2003 0
3123 -4403 -5683 -1843 2003 0
-563 723 -4403 0
563 4403 0
-723 4403 0
563 -723 -5683 0
-563 5683 0
723 5683 0
-3283 4563 0
-3283 5843 0
-3283 2003 0
-3283 -2163 0
3283 -4563 -5843 -2003 2163 0
-723 883 -4563 0
723 4563 0
-883 4563 0
723 -883 -5843 0
-723 5843 0
883 5843 0
-3443 4723 0
-3443 6003 0
-3443 2163 0
-3443 -2323 0
3443 -4723 -6003 -2163 2323 0
-883 1043 -4723 0
883 4723 0
-1043 4723 0
883 -1043 -6003 0
-883 6003 0
1043 6003 0
-3603 4883 0
-3603 6163 0
-3603 2323 0
-3603 -2483 0
3603 -4883 -6163 -2323 2483 0
-1043 1203 -4883 0
1043 4883 0
-1203 4883 0
1043 -1203 -6163 0
-1043 6163 0
1203 6163 0
6643 7923 0
6643 9203 0
-6643 -7923 -9203 0
-243 83 -7923 0
243 7923 0
-83 7923 0
243 -83 -9203 0
-243 9203 0
83 9203 0
6803 8083 0
6803 9363 0
-6803 -8083 -9363 0
-403 243 -8083 0
403 8083 0
-243 8083 0
403 -243 -9363 0
-403 9363 0
243 9363 0
6963 8243 0
6963 9523 0
-6963 -8243 -9523 0
-563 403 -8243 0
563 8243 0
-403 8243 0
563 -403 -9523 0
-563 9523 0
403 9523 0
7123 8403 0
7123 9683 0
-7123 -8403 -9683 0
-723 563 -8403 0
723 8403 0
-563 8403 0
723 -563 -9683 0
-723 9683 0
563 9683 0
7283 8563 0
7283 9843 0
-7283 -8563 -9843 0
-883 723 -8563 0
883 8563 0
-723 8563 0
883 -723 -9843 0
-883 9843 0
723 9843 0
7443 8723 0
7443 10003 0
-7443 -8723 -10003 0
-1043 883 -8723 0
1043 8723 0
-883 8723 0
1043 -883 -10003 0
-1043 10003 0
883 10003 0
7603 8883 0
7603 10163 0
-7603 -8883 -10163 0
-1203 1043 -8883 0
1203 8883 0
-1043 8883 0
1203 -1043 -10163 0
-1203 10163 0
1043 10163 0
1364 0
-2484 0
-2644 3924 0
-2644 5204 0
-2644 1364 0
-2644 -1524 0
2644 -3924 -5204 -1364 1524 0
-84 244 -3924 0
84 3924 0
-244 3924 0
84 -244 -5204 0
-84 5204 0
244 5204 0
-2804 4084 0
-2804 5364 0
-2804 1524 0
-2804 -1684 0
2804 -4084 -5364 -1524 1684 0
-244 404 -4084 0
244 4084 0
-404 4084 0
244 -404 -5364 0
-244 5364 0
404 5364 0
-2964 4244 0
-2964 5524 0
-2964 1684 0
-2964 -1844 0
2964 -4244 -5524 -1684 1844 0
-404 564 -4244 0
404 4244 0
-564 4244 0
404 -564 -5524 0
-404 5524 0
564 5524 0
-3124 4404 0
-3124 5684 0
-3124 1844 0
-3124 -2004 0
3124 -4404 -5684 -1844 2004 0
-564 724 -4404 0
564 4404 0
-724 4404 0
564 -724 -5684 0
-564 5684 0
724 5684 0
-3284 4564 0
-3284 5844 0
-3284 2004 0
-3284 -2164 0
3284 -4564 -5844 -2004 2164 0
-724 884 -4564 0
724 4564 0
-884 4564 0
724 -884 -5844 0
-724 5844 0
884 5844 0
-3444 4724 0
-3444 6004 0
-3444 2164 0
-3444 -2324 0
3444 -4724 -6004 -2164 2324 0
-884 1044 -4724 0
884 4724 0
-1044 4724 0
884 -1044 -6004 0
-884 6004 0
1044 6004 0
-3604 4884 0
-3604 6164 0
-3604 2324 0
-3604 -2484 0
3604 -4884 -6164 -2324 2484 0
-1044 1204 -4884 0
1044 4884 0
-1204 4884 0
1044 -1204 -6164 0
-1044 6164 0
1204 6164 0
6644 7924 0
6644 9204 0
-6644 -7924 -9204 0
-244 84 -7924 0
244 7924 0
-84 7924 0
244 -84 -9204 0
-244 9204 0
84 9204 0
6804 8084 0
6804 9364 0
-6804 -8084 -9364 0
-404 244 -8084 0
404 8084 0
-244 8084 0
404 -244 -9364 0
-404 9364 0
244 9364 0
6964 8244 0
6964 9524 0
-6964 -8244 -9524 0
-564 404 -8244 0
564 8244 0
-404 8244 0
564 -404 -9524 0
-564 9524 0
404 9524 0
7124 8404 0
7124 9684 0
-7124 -8404 -9684 0
-724 564 -8404 0
724 8404 0
-564 8404 0
724 -564 -9684 0
-724 9684 0
564 9684 0
7284 8564 0
7284 9844 0
-7284 -8564 -9844 0
-884 724 -8564 0
884 8564 0
-724 8564 0
884 -724 -9844 0
-884 9844 0
724 9844 0
7444 8724 0
7444 10004 0
-7444 -8724 -10004 0
-1044 884 -8724 0
1044 8724 0
-884 8724 0
1044 -884 -10004 0
-1044 10004 0
884 10004 0
7604 8884 0
7604 10164 0
-7604 -8884 -10164 0
-1204 1044 -8884 0
1204 8884 0
-1044 8884 0
1204 -1044 -10164 0
-1204 10164 0
1044 10164 0
1365 0
-2485 0
-2645 3925 0
-2645 5205 0
-2645 1365 0
-2645 -1525 0
2645 -3925 -5205 -1365 1525 0
-85 245 -3925 0
85 3925 0
-245 3925 0
85 -245 -5205 0
-85 5205 0
245 5205 0
-2805 4085 0
-2805 5365 0
-2805 1525 0
-2805 -1685 0
2805 -4085 -5365 -1525 1685 0
-245 405 -4085 0
245 4085 0
-405 4085 0
245 -405 -5365 0
-245 5365 0
405 5365 0
-2965 4245 0
-2965 5525 0
-2965 1685 0
-2965 -1845 0
2965 -4245 -5525 -1685 1845 0
-405 565 -4245 0
405 4245 0
-565 4245 0
405 -565 -5525 0
-405 5525 0
565 5525 0
-3125 4405 0
-3125 5685 0
-3125 1845 0
-3125 -2005 0
3125 -4405 -5685 -1845 2005 0
-565 725 -4405 0
565 4405 0
-725 4405 0
565 -725 -5685 0
-565 5685 0
725 5685 0
-3285 4565 0
-3285 5845 0
-3285 2005 0
-3285 -2165 0
3285 -4565 -5845 -2005 2165 0
-725 885 -4565 0
725 4565 0
-885 4565 0
725 -885 -5845 0
-725 5845 0
885 5845 0
-3445 4725 0
-3445 6005 0
-3445 2165 0
-3445 -2325 0
3445 -4725 -6005 -2165 2325 0
-885 1045 -4725 0
885 4725 0
-1045 4725 0
885 -1045 -6005 0
-885 6005 0
1045 6005 0
-3605 4885 0
-3605 6165 0
-3605 2325 0
-3605 -2485 0
3605 -4885 -6165 -2325 2485 0
-1045 1205 -4885 0
1045 4885 0
-1205 4885 0
1045 -1205 -6165 0
-1045 6165 0
1205 6165 0
6645 7925 0
6645 9205 0
-6645 -7925 -9205 0
-245 85 -7925 0
245 7925 0
-85 7925 0
245 -85 -9205 0
-245 9205 0
85 9205 0
6805 8085 0
6805 9365 0
-6805 -8085 -9365 0
-405 245 -8085 0
405 8085 0
-245 8085 0
405 -245 -9365 0
-405 9365 0
245 9365 0
6965 8245 0
6965 9525 0
-6965 -8245 -9525 0
-565 405 -8245 0
565 8245 0
-405 8245 0
565 -405 -9525 0
-565 9525 0
405 9525 0
7125 8405 0
7125 9685 0
-7125 -8405 -9685 0
-725 565 -8405 0
725 8405 0
-565 8405 0
725 -565 -9685 0
-725 9685 0
565 9685 0
7285 8565 0
7285 9845 0
-7285 -8565 -9845 0
-885 725 -8565 0
885 8565 0
-725 8565 0
885 -725 -9845 0
-885 9845 0
725 9845 0
7445 8725 0
7445 10005 0
-7445 -8725 -10005 0
-1045 885 -8725 0
1045 8725 0
-885 8725 0
1045 -885 -10005 0
-1045 10005 0
885 10005 0
7605 8885 0
7605 10165 0
-7605 -8885 -10165 0
-1205 1045 -8885 0
1205 8885 0
-1045 8885 0
1205 -1045 -10165 0
-1205 10165 0
1045 10165 0
1366 0
-2486 0
-2646 3926 0
-2646 5206 0
-2646 1366 0
-2646 -1526 0
2646 -3926 -5206 -1366 1526 0
-86 246 -3926 0
86 3926 0
-246 3926 0
86 -246 -5206 0
-86 5206 0
246 5206 0
-2806 4086 0
-2806 5366 0
-2806 1526 0
-2806 -1686 0
2806 -4086 -5366 -1526 1686 0
-246 406 -4086 0
246 4086 0
-406 4086 0
246 -406 -5366 0
-246 5366 0
406 5366 0
-2966 4246 0
-2966 5526 0
-2966 1686 0
-2966 -1846 0
2966 -4246 -5526 -1686 1846 0
-406 566 -4246 0
406 4246 0
-566 4246 0
406 -566 -5526 0
-406 5526 0
566 5526 0
-3126 4406 0
-3126 5686 0
-3126 1846 0
-3126 -2006 0
3126 -4406 -5686 -1846 2006 0
-566 726 -4406 0
566 4406 0
-726 4406 0
566 -726 -5686 0
-566 5686 0
726 5686 0
-3286 4566 0
-3286 5846 0
-3286 2006 0
-3286 -2166 0
3286 -4566 -5846 -2006 2166 0
-726 886 -4566 0
726 4566 0
-886 4566 0
726 -886 -5846 0
-726 5846 0
886 5846 0
-3446 4726 0
-3446 6006 0
-3446 2166 0
-3446 -2326 0
3446 -4726 -6006 -2166 2326 0
-886 1046 -4726 0
886 4726 0
-1046 4726 0
886 -1046 -6006 0
-886 6006 0
1046 6006 0
-3606 4886 0
-3606 6166 0
-3606 2326 0
-3606 -2486 0
3606 -4886 -6166 -2326 2486 0
-1046 1206 -4886 0
1046 4886 0
-1206 4886 0
1046 -1206 -6166 0
-1046 6166 0
1206 6166 0
6646 7926 0
6646 9206 0
-6646 -7926 -9206 0
-246 86 -7926 0
246 7926 0
-86 7926 0
246 -86 -9206 0
-246 9206 0
86 9206 0
6806 8086 0
6806 9366 0
-6806 -8086 -9366 0
-406 246 -8086 0
406 8086 0
-246 8086 0
406 -246 -9366 0
-406 9366 0
246 9366 0
6966 8246 0
6966 9526 0
-6966 -8246 -9526 0
-566 406 -8246 0
566 8246 0
-406 8246 0
566 -406 -9526 0
-566 9526 0
406 9526 0
7126 8406 0
7126 9686 0
-7126 -8406 -9686 0
-726 566 -8406 0
726 8406 0
-566 8406 0
726 -566 -9686 0
-726 9686 0
566 9686 0
7286 8566 0
7286 9846 0
-7286 -8566 -9846 0
-886 726 -8566 0
886 8566 0
-726 8566 0
886 -726 -9846 0
-886 9846 0
726 9846 0
7446 8726 0
7446 10006 0
-7446 -8726 -10006 0
-1046 886 -8726 0
1046 8726 0
-886 8726 0
1046 -886 -10006 0
-1046 10006 0
886 10006 0
7606 8886 0
7606 10166 0
-7606 -8886 -10166 0
-1206 1046 -8886 0
1206 8886 0
-1046 8886 0
1206 -1046 -10166 0
-1206 10166 0
1046 10166 0
1367 0
-2487 0
-2647 3927 0
-2647 5207 0
-2647 1367 0
-2647 -1527 0
2647 -3927 -5207 -1367 1527 0
-87 247 -3927 0
87 3927 0
-247 3927 0
87 -247 -5207 0
-87 5207 0
247 5207 0
-2807 4087 0
-2807 5367 0
-2807 1527 0
-2807 -1687 0
2807 -4087 -5367 -1527 1687 0
-247 407 -4087 0
247 4087 0
-407 4087 0
247 -407 -5367 0
-247 5367 0
407 5367 0
-2967 4247 0
-2967 5527 0
-2967 1687 0
-2967 -1847 0
2967 -4247 -5527 -1687 1847 0
-407 567 -4247 0
407 4247 0
-567 4247 0
407 -567 -5527 0
-407 5527 0
567 5527 0
-3127 4407 0
-3127 5687 0
-3127 1847 0
-3127 -2007 0
3127 -4407 -5687 -1847 2007 0
-567 727 -4407 0
567 4407 0
-727 4407 0
567 -727 -5687 0
-567 5687 0
727 5687 0
-3287 4567 0
-3287 5847 0
-3287 2007 0
-3287 -2167 0
3287 -4567 -5847 -2007 2167 0
-727 887 -4567 0
727 4567 0
-887 4567 0
727 -887 -5847 0
-727 5847 0
887 5847 0
-3447 4727 0
-3447 6007 0
-3447 2167 0
-3447 -2327 0
3447 -4727 -6007 -2167 2327 0
-887 1047 -4727 0
887 4727 0
-1047 4727 0
887 -1047 -6007 0
-887 6007 0
1047 6007 0
-3607 4887 0
-3607 6167 0
-3607 2327 0
-3607 -2487 0
3607 -4887 -6167 -2327 2487 0
-1047 1207 -4887 0
1047 4887 0
-1207 4887 0
1047 -1207 -6167 0
-1047 6167 0
1207 6167 0
6647 7927 0
6647 9207 0
-6647 -7927 -9207 0
-247 87 -7927 0
247 7927 0
-87 7927 0
247 -87 -9207 0
-247 9207 0
87 9207 0
6807 8087 0
6807 9367 0
-6807 -8087 -9367 0
-407 247 -8087 0
407 8087 0
-247 8087 0
407 -247 -9367 0
-407 9367 0
247 9367 0
6967 8247 0
6967 9527 0
-6967 -8247 -9527 0
-567 407 -8247 0
567 8247 0
-407 8247 0
567 -407 -9527 0
-567 9527 0
407 9527 0
7127 8407 0
7127 9687 0
-7127 -8407 -9687 0
-727 567 -8407 0
727 8407 0
-567 8407 0
727 -567 -9687 0
-727 9687 0
567 9687 0
7287 8567 0
7287 9847 0
-7287 -8567 -9847 0
-887 727 -8567 0
887 8567 0
-727 8567 0
887 -727 -9847 0
-887 9847 0
727 9847 0
7447 8727 0
7447 10007 0
-7447 -8727 -10007 0
-1047 887 -8727 0
1047 8727 0
-887 8727 0
1047 -887 -10007 0
-1047 10007 0
887 10007 0
7607 8887 0
7607 10167 0
-7607 -8887 -10167 0
-1207 1047 -8887 0
1207 8887 0
-1047 8887 0
1207 -1047 -10167 0
-1207 10167 0
1047 10167 0
1368 0
-2488 0
-2648 3928 0
-2648 5208 0
-2648 1368 0
-2648 -1528 0
2648 -3928 -5208 -1368 1528 0
-88 248 -3928 0
88 3928 0
-248 3928 0
88 -248 -5208 0
-88 5208 0
248 5208 0
-2808 4088 0
-2808 5368 0
-2808 1528 0
-2808 -1688 0
2808 -4088 -5368 -1528 1688 0
-248 408 -4088 0
248 4088 0
-408 4088 0
248 -408 -5368 0
-248 5368 0
408 5368 0
-2968 4248 0
-2968 5528 0
-2968 1688 0
-2968 -1848 0
2968 -4248 -5528 -1688 1848 0
-408 568 -4248 0
408 4248 0
-568 4248 0
408 -568 -5528 0
-408 5528 0
568 5528 0
-3128 4408 0
-3128 5688 0
-3128 1848 0
-3128 -2008 0
3128 -4408 -5688 -1848 2008 0
-568 728 -4408 0
568 4408 0
-728 4408 0
568 -728 -5688 0
-568 5688 0
728 5688 0
-3288 4568 0
-3288 5848 0
-3288 2008 0
-3288 -2168 0
3288 -4568 -5848 -2008 2168 0
-728 888 -4568 0
728 4568 0
-888 4568 0
728 -888 -5848 0
-728 5848 0
888 5848 0
-3448 4728 0
-3448 6008 0
-3448 2168 0
-3448 -2328 0
3448 -4728 -6008 -2168 2328 0
-888 1048 -4728 0
888 4728 0
-1048 4728 0
888 -1048 -6008 0
-888 6008 0
1048 6008 0
-3608 4888 0
-3608 6168 0
-3608 2328 0
-3608 -2488 0
3608 -4888 -6168 -2328 2488 0
-1048 1208 -4888 0
1048 4888 0
-1208 4888 0
1048 -1208 -6168 0
-1048 6168 0
1208 6168 0
6648 7928 0
6648 9208 0
-6648 -7928 -9208 0
-248 88 -7928 0
248 7928 0
-88 7928 0
248 -88 -9208 0
-248 9208 0
88 9208 0
6808 8088 0
6808 9368 0
-6808 -8088 -9368 0
-408 248 -8088 0
408 8088 0
-248 8088 0
408 -248 -9368 0
-408 9368 0
248 9368 0
6968 8248 0
6968 9528 0
-6968 -8248 -9528 0
-568 408 -8248 0
568 8248 0
-408 8248 0
568 -408 -9528 0
-568 9528 0
408 9528 0
7128 8408 0
7128 9688 0
-7128 -8408 -9688 0
-728 568 -8408 0
728 8408 0
-568 8408 0
728 -568 -9688 0
-728 9688 0
568 9688 0
7288 8568 0
7288 9848 0
-7288 -8568 -9848 0
-888 728 -8568 0
888 8568 0
-728 8568 0
888 -728 -9848 0
-888 9848 0
728 9848 0
7448 8728 0
7448 10008 0
-7448 -8728 -10008 0
-1048 888 -8728 0
1048 8728 0
-888 8728 0
1048 -888 -10008 0
-1048 10008 0
888 10008 0
7608 8888 0
7608 10168 0
-7608 -8888 -10168 0
-1208 1048 -8888 0
1208 8888 0
-1048 8888 0
1208 -1048 -10168 0
-1208 10168 0
1048 10168 0
1369 0
-2489 0
-2649 3929 0
-2649 5209 0
-2649 1369 0
-2649 -1529 0
2649 -3929 -5209 -1369 1529 0
-89 249 -3929 0
89 3929 0
-249 3929 0
89 -249 -5209 0
-89 5209 0
249 5209 0
-2809 4089 0
-2809 5369 0
-2809 1529 0
-2809 -1689 0
2809 -4089 -5369 -1529 1689 0
-249 409 -4089 0
249 4089 0
-409 4089 0
249 -409 -5369 0
-249 5369 0
409 5369 0
-2969 4249 0
-2969 5529 0
-2969 1689 0
-2969 -1849 0
2969 -4249 -5529 -1689 1849 0
-409 569 -4249 0
409 4249 0
-569 4249 0
409 -569 -5529 0
-409 5529 0
569 5529 0
-3129 4409 0
-3129 5689 0
-3129 1849 0
-3129 -2009 0
3129 -4409 -5689 -1849 2009 0
-569 729 -4409 0
569 4409 0
-729 4409 0
569 -729 -5689 0
-569 5689 0
729 5689 0
-3289 4569 0
-3289 5849 0
-3289 2009 0
-3289 -2169 0
3289 -4569 -5849 -2009 2169 0
-729 889 -4569 0
729 4569 0
-889 4569 0
729 -889 -5849 0
-729 5849 0
889 5849 0
-3449 4729 0
-3449 6009 0
-3449 2169 0
-3449 -2329 0
3449 -4729 -6009 -2169 2329 0
-889 1049 -4729 0
889 4729 0
-1049 4729 0
889 -1049 -6009 0
-889 6009 0
1049 6009 0
-3609 4889 0
-3609 6169 0
-3609 2329 0
-3609 -2489 0
3609 -4889 -6169 -2329 2489 0
-1049 1209 -4889 0
1049 4889 0
-1209 4889 0
1049 -1209 -6169 0
-1049 6169 0
1209 6169 0
6649 7929 0
6649 9209 0
-6649 -7929 -9209 0
-249 89 -7929 0
249 7929 0
-89 7929 0
249 -89 -9209 0
-249 9209 0
89 9209 0
6809 8089 0
6809 9369 0
-6809 -8089 -9369 0
-409 249 -8089 0
409 8089 0
-249 8089 0
409 -249 -9369 0
-409 9369 0
249 9369 0
6969 8249 0
6969 9529 0
-6969 -8249 -9529 0
-569 409 -8249 0
569 8249 0
-409 8249 0
569 -409 -9529 0
-569 9529 0
409 9529 0
7129 8409 0
7129 9689 0
-7129 -8409 -9689 0
-729 569 -8409 0
729 8409 0
-569 8409 0
729 -569 -9689 0
-729 9689 0
569 9689 0
7289 8569 0
7289 9849 0
-7289 -8569 -9849 0
-889 729 -8569 0
889 8569 0
-729 8569 0
889 -729 -9849 0
-889 9849 0
729 9849 0
7449 8729 0
7449 10009 0
-7449 -8729 -10009 0
-1049 889 -8729 0
1049 8729 0
-889 8729 0
1049 -889 -10009 0
-1049 10009 0
889 10009 0
7609 8889 0
7609 10169 0
-7609 -8889 -10169 0
-1209 1049 -8889 0
1209 8889 0
-1049 8889 0
1209 -1049 -10169 0
-1209 10169 0
1049 10169 0
1370 0
-2490 0
-2650 3930 0
-2650 5210 0
-2650 1370 0
-2650 -1530 0
2650 -3930 -5210 -1370 1530 0
-90 250 -3930 0
90 3930 0
-250 3930 0
90 -250 -5210 0
-90 5210 0
250 5210 0
-2810 4090 0
-2810 5370 0
-2810 1530 0
-2810 -1690 0
2810 -4090 -5370 -1530 1690 0
-250 410 -4090 0
250 4090 0
-410 4090 0
250 -410 -5370 0
-250 5370 0
410 5370 0
-2970 4250 0
-2970 5530 0
-2970 1690 0
-2970 -1850 0
2970 -4250 -5530 -1690 1850 0
-410 570 -4250 0
410 4250 0
-570 4250 0
410 -570 -5530 0
-410 5530 0
570 5530 0
-3130 4410 0
-3130 5690 0
-3130 1850 0
-3130 -2010 0
3130 -4410 -5690 -1850 2010 0
-570 730 -4410 0
570 4410 0
-730 4410 0
570 -730 -5690 0
-570 5690 0
730 5690 0
-3290 4570 0
-3290 5850 0
-3290 2010 0
-3290 -2170 0
3290 -4570 -5850 -2010 2170 0
-730 890 -4570 0
730 4570 0
-890 4570 0
730 -890 -5850 0
-730 5850 0
890 5850 0
-3450 4730 0
-3450 6010 0
-3450 2170 0
-3450 -2330 0
3450 -4730 -6010 -2170 2330 0
-890 1050 -4730 0
890 4730 0
-1050 4730 0
890 -1050 -6010 0
-890 6010 0
1050 6010 0
-3610 4890 0
-3610 6170 0
-3610 2330 0
-3610 -2490 0
3610 -4890 -6170 -2330 2490 0
-1050 1210 -4890 0
1050 4890 0
-1210 4890 0
1050 -1210 -6170 0
-1050 6170 0
1210 6170 0
6650 7930 0
6650 9210 0
-6650 -7930 -9210 0
-250 90 -7930 0
250 7930 0
-90 7930 0
250 -90 -9210 0
-250 9210 0
90 9210 0
6810 8090 0
6810 9370 0
-6810 -8090 -9370 0
-410 250 -8090 0
410 8090 0
-250 8090 0
410 -250 -9370 0
-410 9370 0
250 9370 0
6970 8250 0
6970 9530 0
-6970 -8250 -9530 0
-570 410 -8250 0
570 8250 0
-410 8250 0
570 -410 -9530 0
-570 9530 0
410 9530 0
7130 8410 0
7130 9690 0
-7130 -8410 -9690 0
-730 570 -8410 0
730 8410 0
-570 8410 0
730 -570 -9690 0
-730 9690 0
570 9690 0
7290 8570 0
7290 9850 0
-7290 -8570 -9850 0
-890 730 -8570 0
890 8570 0
-730 8570 0
890 -730 -9850 0
-890 9850 0
730 9850 0
7450 8730 0
7450 10010 0
-7450 -8730 -10010 0
-1050 890 -8730 0
1050 8730 0
-890 8730 0
1050 -890 -10010 0
-1050 10010 0
890 10010 0
7610 8890 0
7610 10170 0
-7610 -8890 -10170 0
-1210 1050 -8890 0
1210 8890 0
-1050 8890 0
1210 -1050 -10170 0
-1210 10170 0
1050 10170 0
1371 0
-2491 0
-2651 3931 0
-2651 5211 0
-2651 1371 0
-2651 -1531 0
2651 -3931 -5211 -1371 1531 0
-91 251 -3931 0
91 3931 0
-251 3931 0
91 -251 -5211 0
-91 5211 0
251 5211 0
-2811 4091 0
-2811 5371 0
-2811 1531 0
-2811 -1691 0
2811 -4091 -5371 -1531 1691 0
-251 411 -4091 0
251 4091 0
-411 4091 0
251 -411 -5371 0
-251 5371 0
411 5371 0
-2971 4251 0
-2971 5531 0
-2971 1691 0
-2971 -1851 0
2971 -4251 -5531 -1691 1851 0
-411 571 -4251 0
411 4251 0
-571 4251 0
411 -571 -5531 0
-411 5531 0
571 5531 0
-3131 4411 0
-3131 5691 0
-3131 1851 0
-3131 -2011 0
3131 -4411 -5691 -1851 2011 0
-571 731 -4411 0
571 4411 0
-731 4411 0
571 -731 -5691 0
-571 5691 0
731 5691 0
-3291 4571 0
-3291 5851 0
-3291 2011 0
-3291 -2171 0
3291 -4571 -5851 -2011 2171 0
-731 891 -4571 0
731 4571 0
-891 4571 0
731 -891 -5851 0
-731 5851 0
891 5851 0
-3451 4731 0
-3451 6011 0
-3451 2171 0
-3451 -2331 0
3451 -4731 -6011 -2171 2331 0
-891 1051 -4731 0
891 4731 0
-1051 4731 0
891 -1051 -6011 0
-891 6011 0
1051 6011 0
-3611 4891 0
-3611 6171 0
-3611 2331 0
-3611 -2491 0
3611 -4891 -6171 -2331 2491 0
-1051 1211 -4891 0
1051 4891 0
-1211 4891 0
1051 -1211 -6171 0
-1051 6171 0
1211 6171 0
6651 7931 0
6651 9211 0
-6651 -7931 -9211 0
-251 91 -7931 0
251 7931 0
-91 7931 0
251 -91 -9211 0
-251 9211 0
91 9211 0
6811 8091 0
6811 9371 0
-6811 -8091 -9371 0
-411 251 -8091 0
411 8091 0
-251 8091 0
411 -251 -9371 0
-411 9371 0
251 9371 0
6971 8251 0
6971 9531 0
-6971 -8251 -9531 0
-571 411 -8251 0
571 8251 0
-411 8251 0
571 -411 -9531 0
-571 9531 0
411 9531 0
7131 8411 0
7131 9691 0
-7131 -8411 -9691 0
-731 571 -8411 0
731 8411 0
-571 8411 0
731 -571 -9691 0
-731 9691 0
571 9691 0
7291 8571 0
7291 9851 0
-7291 -8571 -9851 0
-891 731 -8571 0
891 8571 0
-731 8571 0
891 -731 -9851 0
-891 9851 0
731 9851 0
7451 8731 0
7451 10011 0
-7451 -8731 -10011 0
-1051 891 -8731 0
1051 8731 0
-891 8731 0
1051 -891 -10011 0
-1051 10011 0
891 10011 0
7611 8891 0
7611 10171 0
-7611 -8891 -10171 0
-1211 1051 -8891 0
1211 8891 0
-1051 8891 0
1211 -1051 -10171 0
-1211 10171 0
1051 10171 0
1372 0
-2492 0
-2652 3932 0
-2652 5212 0
-2652 1372 0
-2652 -1532 0
2652 -3932 -5212 -1372 1532 0
-92 252 -3932 0
92 3932 0
-252 3932 0
92 -252 -5212 0
-92 5212 0
252 5212 0
-2812 4092 0
-2812 5372 0
-2812 1532 0
-2812 -1692 0
2812 -4092 -5372 -1532 1692 0
-252 412 -4092 0
252 4092 0
-412 4092 0
252 -412 -5372 0
-252 5372 0
412 5372 0
-2972 4252 0
-2972 5532 0
-2972 1692 0
-2972 -1852 0
2972 -4252 -5532 -1692 1852 0
-412 572 -4252 0
412 4252 0
-572 4252 0
412 -572 -5532 0
-412 5532 0
572 5532 0
-3132 4412 0
-3132 5692 0
-3132 1852 0
-3132 -2012 0
3132 -4412 -5692 -1852 2012 0
-572 732 -4412 0
572 4412 0
-732 4412 0
572 -732 -5692 0
-572 5692 0
732 5692 0
-3292 4572 0
-3292 5852 0
-3292 2012 0
-3292 -2172 0
3292 -4572 -5852 -2012 2172 0
-732 892 -4572 0
732 4572 0
-892 4572 0
732 -892 -5852 0
-732 5852 0
892 5852 0
-3452 4732 0
-3452 6012 0
-3452 2172 0
-3452 -2332 0
3452 -4732 -6012 -2172 2332 0
-892 1052 -4732 0
892 4732 0
-1052 4732 0
892 -1052 -6012 0
-892 6012 0
1052 6012 0
-3612 4892 0
-3612 6172 0
-3612 2332 0
-3612 -2492 0
3612 -4892 -6172 -2332 2492 0
-1052 1212 -4892 0
1052 4892 0
-1212 4892 0
1052 -1212 -6172 0
-1052 6172 0
1212 6172 0
6652 7932 0
6652 9212 0
-6652 -7932 -9212 0
-252 92 -7932 0
252 7932 0
-92 7932 0
252 -92 -9212 0
-252 9212 0
92 9212 0
6812 8092 0
6812 9372 0
-6812 -8092 -9372 0
-412 252 -8092 0
412 8092 0
-252 8092 0
412 -252 -9372 0
-412 9372 0
252 9372 0
6972 8252 0
6972 9532 0
-6972 -8252 -9532 0
-572 412 -8252 0
572 8252 0
-412 8252 0
572 -412 -9532 0
-572 9532 0
412 9532 0
7132 8412 0
7132 9692 0
-7132 -8412 -9692 0
-732 572 -8412 0
732 8412 0
-572 8412 0
732 -572 -9692 0
-732 9692 0
572 9692 0
7292 8572 0
7292 9852 0
-7292 -8572 -9852 0
-892 732 -8572 0
892 8572 0
-732 8572 0
892 -732 -9852 0
-892 9852 0
732 9852 0
7452 8732 0
7452 10012 0
-7452 -8732 -10012 0
-1052 892 -8732 0
1052 8732 0
-892 8732 0
1052 -892 -10012 0
-1052 10012 0
892 10012 0
7612 8892 0
7612 10172 0
-7612 -8892 -10172 0
-1212 1052 -8892 0
1212 8892 0
-1052 8892 0
1212 -1052 -10172 0
-1212 10172 0
1052 10172 0
1373 0
-2493 0
-2653 3933 0
-2653 5213 0
-2653 1373 0
-2653 -1533 0
2653 -3933 -5213 -1373 1533 0
-93 253 -3933 0
93 3933 0
-253 3933 0
93 -253 -5213 0
-93 5213 0
253 5213 0
-2813 4093 0
-2813 5373 0
-2813 1533 0
-2813 -1693 0
2813 -4093 -5373 -1533 1693 0
-253 413 -4093 0
253 4093 0
-413 4093 0
253 -413 -5373 0
-253 5373 0
413 5373 0
-2973 4253 0
-2973 5533 0
-2973 1693 0
-2973 -1853 0
2973 -4253 -5533 -1693 1853 0
-413 573 -4253 0
413 4253 0
-573 4253 0
413 -573 -5533 0
-413 5533 0
573 5533 0
-3133 4413 0
-3133 5693 0
-3133 1853 0
-3133 -2013 0
3133 -4413 -5693 -1853 2013 0
-573 733 -4413 0
573 4413 0
-733 4413 0
573 -733 -5693 0
-573 5693 0
733 5693 0
-3293 4573 0
-3293 5853 0
-3293 2013 0
-3293 -2173 0
3293 -4573 -5853 -2013 2173 0
-733 893 -4573 0
733 4573 0
-893 4573 0
733 -893 -5853 0
-733 5853 0
893 5853 0
-3453 4733 0
-3453 6013 0
-3453 2173 0
-3453 -2333 0
3453 -4733 -6013 -2173 2333 0
-893 1053 -4733 0
893 4733 0
-1053 4733 0
893 -1053 -6013 0
-893 6013 0
1053 6013 0
-3613 4893 0
-3613 6173 0
-3613 2333 0
-3613 -2493 0
3613 -4893 -6173 -2333 2493 0
-1053 1213 -4893 0
1053 4893 0
-1213 4893 0
1053 -1213 -6173 0
-1053 6173 0
1213 6173 0
6653 7933 0
6653 9213 0
-6653 -7933 -9213 0
-253 93 -7933 0
253 7933 0
-93 7933 0
253 -93 -9213 0
-253 9213 0
93 9213 0
6813 8093 0
6813 9373 0
-6813 -8093 -9373 0
-413 253 -8093 0
413 8093 0
-253 8093 0
413 -253 -9373 0
-413 9373 0
253 9373 0
6973 8253 0
6973 9533 0
-6973 -8253 -9533 0
-573 413 -8253 0
573 8253 0
-413 8253 0
573 -413 -9533 0
-573 9533 0
413 9533 0
7133 8413 0
7133 9693 0
-7133 -8413 -9693 0
-733 573 -8413 0
733 8413 0
-573 8413 0
733 -573 -9693 0
-733 9693 0
573 9693 0
7293 8573 0
7293 9853 0
-7293 -8573 -9853 0
-893 733 -8573 0
893 8573 0
-733 8573 0
893 -733 -9853 0
-893 9853 0
733 9853 0
7453 8733 0
7453 10013 0
-7453 -8733 -10013 0
-1053 893 -8733 0
1053 8733 0
-893 8733 0
1053 -893 -10013 0
-1053 10013 0
893 10013 0
7613 8893 0
7613 10173 0
-7613 -8893 -10173 0
-1213 1053 -8893 0
1213 8893 0
-1053 8893 0
1213 -1053 -10173 0
-1213 10173 0
1053 10173 0
1374 0
-2494 0
-2654 3934 0
-2654 5214 0
-2654 1374 0
-2654 -1534 0
2654 -3934 -5214 -1374 1534 0
-94 254 -3934 0
94 3934 0
-254 3934 0
94 -254 -5214 0
-94 5214 0
254 5214 0
-2814 4094 0
-2814 5374 0
-2814 1534 0
-2814 -1694 0
2814 -4094 -5374 -1534 1694 0
-254 414 -4094 0
254 4094 0
-414 4094 0
254 -414 -5374 0
-254 5374 0
414 5374 0
-2974 4254 0
-2974 5534 0
-2974 1694 0
-2974 -1854 0
2974 -4254 -5534 -1694 1854 0
-414 574 -4254 0
414 4254 0
-574 4254 0
414 -574 -5534 0
-414 5534 0
574 5534 0
-3134 4414 0
-3134 5694 0
-3134 1854 0
-3134 -2014 0
3134 -4414 -5694 -1854 2014 0
-574 734 -4414 0
574 4414 0
-734 4414 0
574 -734 -5694 0
-574 5694 0
734 5694 0
-3294 4574 0
-3294 5854 0
-3294 2014 0
-3294 -2174 0
3294 -4574 -5854 -2014 2174 0
-734 894 -4574 0
734 4574 0
-894 4574 0
734 -894 -5854 0
-734 5854 0
894 5854 0
-3454 4734 0
-3454 6014 0
-3454 2174 0
-3454 -2334 0
3454 -4734 -6014 -2174 2334 0
-894 1054 -4734 0
894 4734 0
-1054 4734 0
894 -1054 -6014 0
-894 6014 0
1054 6014 0
-3614 4894 0
-3614 6174 0
-3614 2334 0
-3614 -2494 0
3614 -4894 -6174 -2334 2494 0
-1054 1214 -4894 0
1054 4894 0
-1214 4894 0
1054 -1214 -6174 0
-1054 6174 0
1214 6174 0
6654 7934 0
6654 9214 0
-6654 -7934 -9214 0
-254 94 -7934 0
254 7934 0
-94 7934 0
254 -94 -9214 0
-254 9214 0
94 9214 0
6814 8094 0
6814 9374 0
-6814 -8094 -9374 0
-414 254 -8094 0
414 8094 0
-254 8094 0
414 -254 -9374 0
-414 9374 0
254 9374 0
6974 8254 0
6974 9534 0
-6974 -8254 -9534 0
-574 414 -8254 0
574 8254 0
-414 8254 0
574 -414 -9534 0
-574 9534 0
414 9534 0
7134 8414 0
7134 9694 0
-7134 -8414 -9694 0
-734 574 -8414 0
734 8414 0
-574 8414 0
734 -574 -9694 0
-734 9694 0
574 9694 0
7294 8574 0
7294 9854 0
-7294 -8574 -9854 0
-894 734 -8574 0
894 8574 0
-734 8574 0
894 -734 -9854 0
-894 9854 0
734 9854 0
7454 8734 0
7454 10014 0
-7454 -8734 -10014 0
-1054 894 -8734 0
1054 8734 0
-894 8734 0
1054 -894 -10014 0
-1054 10014 0
894 10014 0
7614 8894 0
7614 10174 0
-7614 -8894 -10174 0
-1214 1054 -8894 0
1214 8894 0
-1054 8894 0
1214 -1054 -10174 0
-1214 10174 0
1054 10174 0
1375 0
-2495 0
-2655 3935 0
-2655 5215 0
-2655 1375 0
-2655 -1535 0
2655 -3935 -5215 -1375 1535 0
-95 255 -3935 0
95 3935 0
-255 3935 0
95 -255 -5215 0
-95 5215 0
255 5215 0
-2815 4095 0
-2815 5375 0
-2815 1535 0
-2815 -1695 0
2815 -4095 -5375 -1535 1695 0
-255 415 -4095 0
255 4095 0
-415 4095 0
255 -415 -5375 0
-255 5375 0
415 5375 0
-2975 4255 0
-2975 5535 0
-2975 1695 0
-2975 -1855 0
2975 -4255 -5535 -1695 1855 0
-415 575 -4255 0
415 4255 0
-575 4255 0
415 -575 -5535 0
-415 5535 0
575 5535 0
-3135 4415 0
-3135 5695 0
-3135 1855 0
-3135 -2015 0
3135 -4415 -5695 -1855 2015 0
-575 735 -4415 0
575 4415 0
-735 4415 0
575 -735 -5695 0
-575 5695 0
735 5695 0
-3295 4575 0
-3295 5855 0
-3295 2015 0
-3295 -2175 0
3295 -4575 -5855 -2015 2175 0
-735 895 -4575 0
735 4575 0
-895 4575 0
735 -895 -5855 0
-735 5855 0
895 5855 0
-3455 4735 0
-3455 6015 0
-3455 2175 0
-3455 -2335 0
3455 -4735 -6015 -2175 2335 0
-895 1055 -4735 0
895 4735 0
-1055 4735 0
895 -1055 -6015 0
-895 6015 0
1055 6015 0
-3615 4895 0
-3615 6175 0
-3615 2335 0
-3615 -2495 0
3615 -4895 -6175 -2335 2495 0
-1055 1215 -4895 0
1055 4895 0
-1215 4895 0
1055 -1215 -6175 0
-1055 6175 0
1215 6175 0
6655 7935 0
6655 9215 0
-6655 -7935 -9215 0
-255 95 -7935 0
255 7935 0
-95 7935 0
255 -95 -9215 0
-255 9215 0
95 9215 0
6815 8095 0
6815 9375 0
-6815 -8095 -9375 0
-415 255 -8095 0
415 8095 0
-255 8095 0
415 -255 -9375 0
-415 9375 0
255 9375 0
6975 8255 0
6975 9535 0
-6975 -8255 -9535 0
-575 415 -8255 0
575 8255 0
-415 8255 0
575 -415 -9535 0
-575 9535 0
415 9535 0
7135 8415 0
7135 9695 0
-7135 -8415 -9695 0
-735 575 -8415 0
735 8415 0
-575 8415 0
735 -575 -9695 0
-735 9695 0
575 9695 0
7295 8575 0
7295 9855 0
-7295 -8575 -9855 0
-895 735 -8575 0
895 8575 0
-735 8575 0
895 -735 -9855 0
-895 9855 0
735 9855 0
7455 8735 0
7455 10015 0
-7455 -8735 -10015 0
-1055 895 -8735 0
1055 8735 0
-895 8735 0
1055 -895 -10015 0
-1055 10015 0
895 10015 0
7615 8895 0
7615 10175 0
-7615 -8895 -10175 0
-1215 1055 -8895 0
1215 8895 0
-1055 8895 0
1215 -1055 -10175 0
-1215 10175 0
1055 10175 0
1376 0
-2496 0
-2656 3936 0
-2656 5216 0
-2656 1376 0
-2656 -1536 0
2656 -3936 -5216 -1376 1536 0
-96 256 -3936 0
96 3936 0
-256 3936 0
96 -256 -5216 0
-96 5216 0
256 5216 0
-2816 4096 0
-2816 5376 0
-2816 1536 0
-2816 -1696 0
2816 -4096 -5376 -1536 1696 0
-256 416 -4096 0
256 4096 0
-416 4096 0
256 -416 -5376 0
-256 5376 0
416 5376 0
-2976 4256 0
-2976 5536 0
-2976 1696 0
-2976 -1856 0
2976 -4256 -5536 -1696 1856 0
-416 576 -4256 0
416 4256 0
-576 4256 0
416 -576 -5536 0
-416 5536 0
576 5536 0
-3136 4416 0
-3136 5696 0
-3136 1856 0
-3136 -2016 0
3136 -4416 -5696 -1856 2016 0
-576 736 -4416 0
576 4416 0
-736 4416 0
576 -736 -5696 0
-576 5696 0
736 5696 0
-3296 4576 0
-3296 5856 0
-3296 2016 0
-3296 -2176 0
3296 -4576 -5856 -2016 2176 0
-736 896 -4576 0
736 4576 0
-896 4576 0
736 -896 -5856 0
-736 5856 0
896 5856 0
-3456 4736 0
-3456 6016 0
-3456 2176 0
-3456 -2336 0
3456 -4736 -6016 -2176 2336 0
-896 1056 -4736 0
896 4736 0
-1056 4736 0
896 -1056 -6016 0
-896 6016 0
1056 6016 0
-3616 4896 0
-3616 6176 0
-3616 2336 0
-3616 -2496 0
3616 -4896 -6176 -2336 2496 0
-1056 1216 -4896 0
1056 4896 0
-1216 4896 0
1056 -1216 -6176 0
-1056 6176 0
1216 6176 0
6656 7936 0
6656 9216 0
-6656 -7936 -9216 0
-256 96 -7936 0
256 7936 0
-96 7936 0
256 -96 -9216 0
-256 9216 0
96 9216 0
6816 8096 0
6816 9376 0
-6816 -8096 -9376 0
-416 256 -8096 0
416 8096 0
-256 8096 0
416 -256 -9376 0
-416 9376 0
256 9376 0
6976 8256 0
6976 9536 0
-6976 -8256 -9536 0
-576 416 -8256 0
576 8256 0
-416 8256 0
576 -416 -9536 0
-576 9536 0
416 9536 0
7136 8416 0
7136 9696 0
-7136 -8416 -9696 0
-736 576 -8416 0
736 8416 0
-576 8416 0
736 -576 -9696 0
-736 9696 0
576 9696 0
7296 8576 0
7296 9856 0
-7296 -8576 -9856 0
-896 736 -8576 0
896 8576 0
-736 8576 0
896 -736 -9856 0
-896 9856 0
736 9856 0
7456 8736 0
7456 10016 0
-7456 -8736 -10016 0
-1056 896 -8736 0
1056 8736 0
-896 8736 0
1056 -896 -10016 0
-1056 10016 0
896 10016 0
7616 8896 0
7616 10176 0
-7616 -8896 -10176 0
-1216 1056 -8896 0
1216 8896 0
-1056 8896 0
1216 -1056 -10176 0
-1216 10176 0
1056 10176 0
1377 0
-2497 0
-2657 3937 0
-2657 5217 0
-2657 1377 0
-2657 -1537 0
2657 -3937 -5217 -1377 1537 0
-97 257 -3937 0
97 3937 0
-257 3937 0
97 -257 -5217 0
-97 5217 0
257 5217 0
-2817 4097 0
-2817 5377 0
-2817 1537 0
-2817 -1697 0
2817 -4097 -5377 -1537 1697 0
-257 417 -4097 0
257 4097 0
-417 4097 0
257 -417 -5377 0
-257 5377 0
417 5377 0
-2977 4257 0
-2977 5537 0
-2977 1697 0
-2977 -1857 0
2977 -4257 -5537 -1697 1857 0
-417 577 -4257 0
417 4257 0
-577 4257 0
417 -577 -5537 0
-417 5537 0
577 5537 0
-3137 4417 0
-3137 5697 0
-3137 1857 0
-3137 -2017 0
3137 -4417 -5697 -1857 2017 0
-577 737 -4417 0
577 4417 0
-737 4417 0
577 -737 -5697 0
-577 5697 0
737 5697 0
-3297 4577 0
-3297 5857 0
-3297 2017 0
-3297 -2177 0
3297 -4577 -5857 -2017 2177 0
-737 897 -4577 0
737 4577 0
-897 4577 0
737 -897 -5857 0
-737 5857 0
897 5857 0
-3457 4737 0
-3457 6017 0
-3457 2177 0
-3457 -2337 0
3457 -4737 -6017 -2177 2337 0
-897 1057 -4737 0
897 4737 0
-1057 4737 0
897 -1057 -6017 0
-897 6017 0
1057 6017 0
-3617 4897 0
-3617 6177 0
-3617 2337 0
-3617 -2497 0
3617 -4897 -6177 -2337 2497 0
-1057 1217 -4897 0
1057 4897 0
-1217 4897 0
1057 -1217 -6177 0
-1057 6177 0
1217 6177 0
6657 7937 0
6657 9217 0
-6657 -7937 -9217 0
-257 97 -7937 0
257 7937 0
-97 7937 0
257 -97 -9217 0
-257 9217 0
97 9217 0
6817 8097 0
6817 9377 0
-6817 -8097 -9377 0
-417 257 -8097 0
417 8097 0
-257 8097 0
417 -257 -9377 0
-417 9377 0
257 9377 0
6977 8257 0
6977 9537 0
-6977 -8257 -9537 0
-577 417 -8257 0
577 8257 0
-417 8257 0
577 -417 -9537 0
-577 9537 0
417 9537 0
7137 8417 0
7137 9697 0
-7137 -8417 -9697 0
-737 577 -8417 0
737 8417 0
-577 8417 0
737 -577 -9697 0
-737 9697 0
577 9697 0
7297 8577 0
7297 9857 0
-7297 -8577 -9857 0
-897 737 -8577 0
897 8577 0
-737 8577 0
897 -737 -9857 0
-897 9857 0
737 9857 0
7457 8737 0
7457 10017 0
-7457 -8737 -10017 0
-1057 897 -8737 0
1057 8737 0
-897 8737 0
1057 -897 -10017 0
-1057 10017 0
897 10017 0
7617 8897 0
7617 10177 0
-7617 -8897 -10177 0
-1217 1057 -8897 0
1217 8897 0
-1057 8897 0
1217 -1057 -10177 0
-1217 10177 0
1057 10177 0
1378 0
-2498 0
-2658 3938 0
-2658 5218 0
-2658 1378 0
-2658 -1538 0
2658 -3938 -5218 -1378 1538 0
-98 258 -3938 0
98 3938 0
-258 3938 0
98 -258 -5218 0
-98 5218 0
258 5218 0
-2818 4098 0
-2818 5378 0
-2818 1538 0
-2818 -1698 0
2818 -4098 -5378 -1538 1698 0
-258 418 -4098 0
258 4098 0
-418 4098 0
258 -418 -5378 0
-258 5378 0
418 5378 0
-2978 4258 0
-2978 5538 0
-2978 1698 0
-2978 -1858 0
2978 -4258 -5538 -1698 1858 0
-418 578 -4258 0
418 4258 0
-578 4258 0
418 -578 -5538 0
-418 5538 0
578 5538 0
-3138 4418 0
-3138 5698 0
-3138 1858 0
-3138 -2018 0
3138 -4418 -5698 -1858 2018 0
-578 738 -4418 0
578 4418 0
-738 4418 0
578 -738 -5698 0
-578 5698 0
738 5698 0
-3298 4578 0
-3298 5858 0
-3298 2018 0
-3298 -2178 0
3298 -4578 -5858 -2018 2178 0
-738 898 -4578 0
738 4578 0
-898 4578 0
738 -898 -5858 0
-738 5858 0
898 5858 0
-3458 4738 0
-3458 6018 0
-3458 2178 0
-3458 -2338 0
3458 -4738 -6018 -2178 2338 0
-898 1058 -4738 0
898 4738 0
-1058 4738 0
898 -1058 -6018 0
-898 6018 0
1058 6018 0
-3618 4898 0
-3618 6178 0
-3618 2338 0
-3618 -2498 0
3618 -4898 -6178 -2338 2498 0
-1058 1218 -4898 0
1058 4898 0
-1218 4898 0
1058 -1218 -6178 0
-1058 6178 0
1218 6178 0
6658 7938 0
6658 9218 0
-6658 -7938 -9218 0
-258 98 -7938 0
258 7938 0
-98 7938 0
258 -98 -9218 0
-258 9218 0
98 9218 0
6818 8098 0
6818 9378 0
-6818 -8098 -9378 0
-418 258 -8098 0
418 8098 0
-258 8098 0
418 -258 -9378 0
-418 9378 0
258 9378 0
6978 8258 0
6978 9538 0
-6978 -8258 -9538 0
-578 418 -8258 0
578 8258 0
-418 8258 0
578 -418 -9538 0
-578 9538 0
418 9538 0
7138 8418 0
7138 9698 0
-7138 -8418 -9698 0
-738 578 -8418 0
738 8418 0
-578 8418 0
738 -578 -9698 0
-738 9698 0
578 9698 0
7298 8578 0
7298 9858 0
-7298 -8578 -9858 0
-898 738 -8578 0
898 8578 0
-738 8578 0
898 -738 -9858 0
-898 9858 0
738 9858 0
7458 8738 0
7458 10018 0
-7458 -8738 -10018 0
-1058 898 -8738 0
1058 8738 0
-898 8738 0
1058 -898 -10018 0
-1058 10018 0
898 10018 0
7618 8898 0
7618 10178 0
-7618 -8898 -10178 0
-1218 1058 -8898 0
1218 8898 0
-1058 8898 0
1218 -1058 -10178 0
-1218 10178 0
1058 10178 0
1379 0
-2499 0
-2659 3939 0
-2659 5219 0
-2659 1379 0
-2659 -1539 0
2659 -3939 -5219 -1379 1539 0
-99 259 -3939 0
99 3939 0
-259 3939 0
99 -259 -5219 0
-99 5219 0
259 5219 0
-2819 4099 0
-2819 5379 0
-2819 1539 0
-2819 -1699 0
2819 -4099 -5379 -1539 1699 0
-259 419 -4099 0
259 4099 0
-419 4099 0
259 -419 -5379 0
-259 5379 0
419 5379 0
-2979 4259 0
-2979 5539 0
-2979 1699 0
-2979 -1859 0
2979 -4259 -5539 -1699 1859 0
-419 579 -4259 0
419 4259 0
-579 4259 0
419 -579 -5539 0
-419 5539 0
579 5539 0
-3139 4419 0
-3139 5699 0
-3139 1859 0
-3139 -2019 0
3139 -4419 -5699 -1859 2019 0
-579 739 -4419 0
579 4419 0
-739 4419 0
579 -739 -5699 0
-579 5699 0
739 5699 0
-3299 4579 0
-3299 5859 0
-3299 2019 0
-3299 -2179 0
3299 -4579 -5859 -2019 2179 0
-739 899 -4579 0
739 4579 0
-899 4579 0
739 -899 -5859 0
-739 5859 0
899 5859 0
-3459 4739 0
-3459 6019 0
-3459 2179 0
-3459 -2339 0
3459 -4739 -6019 -2179 2339 0
-899 1059 -4739 0
899 4739 0
-1059 4739 0
899 -1059 -6019 0
-899 6019 0
1059 6019 0
-3619 4899 0
-3619 6179 0
-3619 2339 0
-3619 -2499 0
3619 -4899 -6179 -2339 2499 0
-1059 1219 -4899 0
1059 4899 0
-1219 4899 0
1059 -1219 -6179 0
-1059 6179 0
1219 6179 0
6659 7939 0
6659 9219 0
-6659 -7939 -9219 0
-259 99 -7939 0
259 7939 0
-99 7939 0
259 -99 -9219 0
-259 9219 0
99 9219 0
6819 8099 0
6819 9379 0
-6819 -8099 -9379 0
-419 259 -8099 0
419 8099 0
-259 8099 0
419 -259 -9379 0
-419 9379 0
259 9379 0
6979 8259 0
6979 9539 0
-6979 -8259 -9539 0
-579 419 -8259 0
579 8259 0
-419 8259 0
579 -419 -9539 0
-579 9539 0
419 9539 0
7139 8419 0
7139 9699 0
-7139 -8419 -9699 0
-739 579 -8419 0
739 8419 0
-579 8419 0
739 -579 -9699 0
-739 9699 0
579 9699 0
7299 8579 0
7299 9859 0
-7299 -8579 -9859 0
-899 739 -8579 0
899 8579 0
-739 8579 0
899 -739 -9859 0
-899 9859 0
739 9859 0
7459 8739 0
7459 10019 0
-7459 -8739 -10019 0
-1059 899 -8739 0
1059 8739 0
-899 8739 0
1059 -899 -10019 0
-1059 10019 0
899 10019 0
7619 8899 0
7619 10179 0
-7619 -8899 -10179 0
-1219 1059 -8899 0
1219 8899 0
-1059 8899 0
1219 -1059 -10179 0
-1219 10179 0
1059 10179 0
1380 0
-2500 0
-2660 3940 0
-2660 5220 0
-2660 1380 0
-2660 -1540 0
2660 -3940 -5220 -1380 1540 0
-100 260 -3940 0
100 3940 0
-260 3940 0
100 -260 -5220 0
-100 5220 0
260 5220 0
-2820 4100 0
-2820 5380 0
-2820 1540 0
-2820 -1700 0
2820 -4100 -5380 -1540 1700 0
-260 420 -4100 0
260 4100 0
-420 4100 0
260 -420 -5380 0
-260 5380 0
420 5380 0
-2980 4260 0
-2980 5540 0
-2980 1700 0
-2980 -1860 0
2980 -4260 -5540 -1700 1860 0
-420 580 -4260 0
420 4260 0
-580 4260 0
420 -580 -5540 0
-420 5540 0
580 5540 0
-3140 4420 0
-3140 5700 0
-3140 1860 0
-3140 -2020 0
3140 -4420 -5700 -1860 2020 0
-580 740 -4420 0
580 4420 0
-740 4420 0
580 -740 -5700 0
-580 5700 0
740 5700 0
-3300 4580 0
-3300 5860 0
-3300 2020 0
-3300 -2180 0
3300 -4580 -5860 -2020 2180 0
-740 900 -4580 0
740 4580 0
-900 4580 0
740 -900 -5860 0
-740 5860 0
900 5860 0
-3460 4740 0
-3460 6020 0
-3460 2180 0
-3460 -2340 0
3460 -4740 -6020 -2180 2340 0
-900 1060 -4740 0
900 4740 0
-1060 4740 0
900 -1060 -6020 0
-900 6020 0
1060 6020 0
-3620 4900 0
-3620 6180 0
-3620 2340 0
-3620 -2500 0
3620 -4900 -6180 -2340 2500 0
-1060 1220 -4900 0
1060 4900 0
-1220 4900 0
1060 -1220 -6180 0
-1060 6180 0
1220 6180 0
6660 7940 0
6660 9220 0
-6660 -7940 -9220 0
-260 100 -7940 0
260 7940 0
-100 7940 0
260 -100 -9220 0
-260 9220 0
100 9220 0
6820 8100 0
6820 9380 0
-6820 -8100 -9380 0
-420 260 -8100 0
420 8100 0
-260 8100 0
420 -260 -9380 0
-420 9380 0
260 9380 0
6980 8260 0
6980 9540 0
-6980 -8260 -9540 0
-580 420 -8260 0
580 8260 0
-420 8260 0
580 -420 -9540 0
-580 9540 0
420 9540 0
7140 8420 0
7140 9700 0
-7140 -8420 -9700 0
-740 580 -8420 0
740 8420 0
-580 8420 0
740 -580 -9700 0
-740 9700 0
580 9700 0
7300 8580 0
7300 9860 0
-7300 -8580 -9860 0
-900 740 -8580 0
900 8580 0
-740 8580 0
900 -740 -9860 0
-900 9860 0
740 9860 0
7460 8740 0
7460 10020 0
-7460 -8740 -10020 0
-1060 900 -8740 0
1060 8740 0
-900 8740 0
1060 -900 -10020 0
-1060 10020 0
900 10020 0
7620 8900 0
7620 10180 0
-7620 -8900 -10180 0
-1220 1060 -8900 0
1220 8900 0
-1060 8900 0
1220 -1060 -10180 0
-1220 10180 0
1060 10180 0
1381 0
-2501 0
-2661 3941 0
-2661 5221 0
-2661 1381 0
-2661 -1541 0
2661 -3941 -5221 -1381 1541 0
-101 261 -3941 0
101 3941 0
-261 3941 0
101 -261 -5221 0
-101 5221 0
261 5221 0
-2821 4101 0
-2821 5381 0
-2821 1541 0
-2821 -1701 0
2821 -4101 -5381 -1541 1701 0
-261 421 -4101 0
261 4101 0
-421 4101 0
261 -421 -5381 0
-261 5381 0
421 5381 0
-2981 4261 0
-2981 5541 0
-2981 1701 0
-2981 -1861 0
2981 -4261 -5541 -1701 1861 0
-421 581 -4261 0
421 4261 0
-581 4261 0
421 -581 -5541 0
-421 5541 0
581 5541 0
-3141 4421 0
-3141 5701 0
-3141 1861 0
-3141 -2021 0
3141 -4421 -5701 -1861 2021 0
-581 741 -4421 0
581 4421 0
-741 4421 0
581 -741 -5701 0
-581 5701 0
741 5701 0
-3301 4581 0
-3301 5861 0
-3301 2021 0
-3301 -2181 0
3301 -4581 -5861 -2021 2181 0
-741 901 -4581 0
741 4581 0
-901 4581 0
741 -901 -5861 0
-741 5861 0
901 5861 0
-3461 4741 0
-3461 6021 0
-3461 2181 0
-3461 -2341 0
3461 -4741 -6021 -2181 2341 0
-901 1061 -4741 0
901 4741 0
-1061 4741 0
901 -1061 -6021 0
-901 6021 0
1061 6021 0
-3621 4901 0
-3621 6181 0
-3621 2341 0
-3621 -2501 0
3621 -4901 -6181 -2341 2501 0
-1061 1221 -4901 0
1061 4901 0
-1221 4901 0
1061 -1221 -6181 0
-1061 6181 0
1221 6181 0
6661 7941 0
6661 9221 0
-6661 -7941 -9221 0
-261 101 -7941 0
261 7941 0
-101 7941 0
261 -101 -9221 0
-261 9221 0
101 9221 0
6821 8101 0
6821 9381 0
-6821 -8101 -9381 0
-421 261 -8101 0
421 8101 0
-261 8101 0
421 -261 -9381 0
-421 9381 0
261 9381 0
6981 8261 0
6981 9541 0
-6981 -8261 -9541 0
-581 421 -8261 0
581 8261 0
-421 8261 0
581 -421 -9541 0
-581 9541 0
421 9541 0
7141 8421 0
7141 9701 0
-7141 -8421 -9701 0
-741 581 -8421 0
741 8421 0
-581 8421 0
741 -581 -9701 0
-741 9701 0
581 9701 0
7301 8581 0
7301 9861 0
-7301 -8581 -9861 0
-901 741 -8581 0
901 8581 0
-741 8581 0
901 -741 -9861 0
-901 9861 0
741 9861 0
7461 8741 0
7461 10021 0
-7461 -8741 -10021 0
-1061 901 -8741 0
1061 8741 0
-901 8741 0
1061 -901 -10021 0
-1061 10021 0
901 10021 0
7621 8901 0
7621 10181 0
-7621 -8901 -10181 0
-1221 1061 -8901 0
1221 8901 0
-1061 8901 0
1221 -1061 -10181 0
-1221 10181 0
1061 10181 0
1382 0
-2502 0
-2662 3942 0
-2662 5222 0
-2662 1382 0
-2662 -1542 0
2662 -3942 -5222 -1382 1542 0
-102 262 -3942 0
102 3942 0
-262 3942 0
102 -262 -5222 0
-102 5222 0
262 5222 0
-2822 4102 0
-2822 5382 0
-2822 1542 0
-2822 -1702 0
2822 -4102 -5382 -1542 1702 0
-262 422 -4102 0
262 4102 0
-422 4102 0
262 -422 -5382 0
-262 5382 0
422 5382 0
-2982 4262 0
-2982 5542 0
-2982 1702 0
-2982 -1862 0
2982 -4262 -5542 -1702 1862 0
-422 582 -4262 0
422 4262 0
-582 4262 0
422 -582 -5542 0
-422 5542 0
582 5542 0
-3142 4422 0
-3142 5702 0
-3142 1862 0
-3142 -2022 0
3142 -4422 -5702 -1862 2022 0
-582 742 -4422 0
582 4422 0
-742 4422 0
582 -742 -5702 0
-582 5702 0
742 5702 0
-3302 4582 0
-3302 5862 0
-3302 2022 0
-3302 -2182 0
3302 -4582 -5862 -2022 2182 0
-742 902 -4582 0
742 4582 0
-902 4582 0
742 -902 -5862 0
-742 5862 0
902 5862 0
-3462 4742 0
-3462 6022 0
-3462 2182 0
-3462 -2342 0
3462 -4742 -6022 -2182 2342 0
-902 1062 -4742 0
902 4742 0
-1062 4742 0
902 -1062 -6022 0
-902 6022 0
1062 6022 0
-3622 4902 0
-3622 6182 0
-3622 2342 0
-3622 -2502 0
3622 -4902 -6182 -2342 2502 0
-1062 1222 -4902 0
1062 4902 0
-1222 4902 0
1062 -1222 -6182 0
-1062 6182 0
1222 6182 0
6662 7942 0
6662 9222 0
-6662 -7942 -9222 0
-262 102 -7942 0
262 7942 0
-102 7942 0
262 -102 -9222 0
-262 9222 0
102 9222 0
6822 8102 0
6822 9382 0
-6822 -8102 -9382 0
-422 262 -8102 0
422 8102 0
-262 8102 0
422 -262 -9382 0
-422 9382 0
262 9382 0
6982 8262 0
6982 9542 0
-6982 -8262 -9542 0
-582 422 -8262 0
582 8262 0
-422 8262 0
582 -422 -9542 0
-582 9542 0
422 9542 0
7142 8422 0
7142 9702 0
-7142 -8422 -9702 0
-742 582 -8422 0
742 8422 0
-582 8422 0
742 -582 -9702 0
-742 9702 0
582 9702 0
7302 8582 0
7302 9862 0
-7302 -8582 -9862 0
-902 742 -8582 0
902 8582 0
-742 8582 0
902 -742 -9862 0
-902 9862 0
742 9862 0
7462 8742 0
7462 10022 0
-7462 -8742 -10022 0
-1062 902 -8742 0
1062 8742 0
-902 8742 0
1062 -902 -10022 0
-1062 10022 0
902 10022 0
7622 8902 0
7622 10182 0
-7622 -8902 -10182 0
-1222 1062 -8902 0
1222 8902 0
-1062 8902 0
1222 -1062 -10182 0
-1222 10182 0
1062 10182 0
1383 0
-2503 0
-2663 3943 0
-2663 5223 0
-2663 1383 0
-2663 -1543 0
2663 -3943 -5223 -1383 1543 0
-103 263 -3943 0
103 3943 0
-263 3943 0
103 -263 -5223 0
-103 5223 0
263 5223 0
-2823 4103 0
-2823 5383 0
-2823 1543 0
-2823 -1703 0
2823 -4103 -5383 -1543 1703 0
-263 423 -4103 0
263 4103 0
-423 4103 0
263 -423 -5383 0
-263 5383 0
423 5383 0
-2983 4263 0
-2983 5543 0
-2983 1703 0
-2983 -1863 0
2983 -4263 -5543 -1703 1863 0
-423 583 -4263 0
423 4263 0
-583 4263 0
423 -583 -5543 0
-423 5543 0
583 5543 0
-3143 4423 0
-3143 5703 0
-3143 1863 0
-3143 -2023 0
3143 -4423 -5703 -1863 2023 0
-583 743 -4423 0
583 4423 0
-743 4423 0
583 -743 -5703 0
-583 5703 0
743 5703 0
-3303 4583 0
-3303 5863 0
-3303 2023 0
-3303 -2183 0
3303 -4583 -5863 -2023 2183 0
-743 903 -4583 0
743 4583 0
-903 4583 0
743 -903 -5863 0
-743 5863 0
903 5863 0
-3463 4743 0
-3463 6023 0
-3463 2183 0
-3463 -2343 0
3463 -4743 -6023 -2183 2343 0
-903 1063 -4743 0
903 4743 0
-1063 4743 0
903 -1063 -6023 0
-903 6023 0
1063 6023 0
-3623 4903 0
-3623 6183 0
-3623 2343 0
-3623 -2503 0
3623 -4903 -6183 -2343 2503 0
-1063 1223 -4903 0
1063 4903 0
-1223 4903 0
1063 -1223 -6183 0
-1063 6183 0
1223 6183 0
6663 7943 0
6663 9223 0
-6663 -7943 -9223 0
-263 103 -7943 0
263 7943 0
-103 7943 0
263 -103 -9223 0
-263 9223 0
103 9223 0
6823 8103 0
6823 9383 0
-6823 -8103 -9383 0
-423 263 -8103 0
423 8103 0
-263 8103 0
423 -263 -9383 0
-423 9383 0
263 9383 0
6983 8263 0
6983 9543 0
-6983 -8263 -9543 0
-583 423 -8263 0
583 8263 0
-423 8263 0
583 -423 -9543 0
-583 9543 0
423 9543 0
7143 8423 0
7143 9703 0
-7143 -8423 -9703 0
-743 583 -8423 0
743 8423 0
-583 8423 0
743 -583 -9703 0
-743 9703 0
583 9703 0
7303 8583 0
7303 9863 0
-7303 -8583 -9863 0
-903 743 -8583 0
903 8583 0
-743 8583 0
903 -743 -9863 0
-903 9863 0
743 9863 0
7463 8743 0
7463 10023 0
-7463 -8743 -10023 0
-1063 903 -8743 0
1063 8743 0
-903 8743 0
1063 -903 -10023 0
-1063 10023 0
903 10023 0
7623 8903 0
7623 10183 0
-7623 -8903 -10183 0
-1223 1063 -8903 0
1223 8903 0
-1063 8903 0
1223 -1063 -10183 0
-1223 10183 0
1063 10183 0
1384 0
-2504 0
-2664 3944 0
-2664 5224 0
-2664 1384 0
-2664 -1544 0
2664 -3944 -5224 -1384 1544 0
-104 264 -3944 0
104 3944 0
-264 3944 0
104 -264 -5224 0
-104 5224 0
264 5224 0
-2824 4104 0
-2824 5384 0
-2824 1544 0
-2824 -1704 0
2824 -4104 -5384 -1544 1704 0
-264 424 -4104 0
264 4104 0
-424 4104 0
264 -424 -5384 0
-264 5384 0
424 5384 0
-2984 4264 0
-2984 5544 0
-2984 1704 0
-2984 -1864 0
2984 -4264 -5544 -1704 1864 0
-424 584 -4264 0
424 4264 0
-584 4264 0
424 -584 -5544 0
-424 5544 0
584 5544 0
-3144 4424 0
-3144 5704 0
-3144 1864 0
-3144 -2024 0
3144 -4424 -5704 -1864 2024 0
-584 744 -4424 0
584 4424 0
-744 4424 0
584 -744 -5704 0
-584 5704 0
744 5704 0
-3304 4584 0
-3304 5864 0
-3304 2024 0
-3304 -2184 0
3304 -4584 -5864 -2024 2184 0
-744 904 -4584 0
744 4584 0
-904 4584 0
744 -904 -5864 0
-744 5864 0
904 5864 0
-3464 4744 0
-3464 6024 0
-3464 2184 0
-3464 -2344 0
3464 -4744 -6024 -2184 2344 0
-904 1064 -4744 0
904 4744 0
-1064 4744 0
904 -1064 -6024 0
-904 6024 0
1064 6024 0
-3624 4904 0
-3624 6184 0
-3624 2344 0
-3624 -2504 0
3624 -4904 -6184 -2344 2504 0
-1064 1224 -4904 0
1064 4904 0
-1224 4904 0
1064 -1224 -6184 0
-1064 6184 0
1224 6184 0
6664 7944 0
6664 9224 0
-6664 -7944 -9224 0
-264 104 -7944 0
264 7944 0
-104 7944 0
264 -104 -9224 0
-264 9224 0
104 9224 0
6824 8104 0
6824 9384 0
-6824 -8104 -9384 0
-424 264 -8104 0
424 8104 0
-264 8104 0
424 -264 -9384 0
-424 9384 0
264 9384 0
6984 8264 0
6984 9544 0
-6984 -8264 -9544 0
-584 424 -8264 0
584 8264 0
-424 8264 0
584 -424 -9544 0
-584 9544 0
424 9544 0
7144 8424 0
7144 9704 0
-7144 -8424 -9704 0
-744 584 -8424 0
744 8424 0
-584 8424 0
744 -584 -9704 0
-744 9704 0
584 9704 0
7304 8584 0
7304 9864 0
-7304 -8584 -9864 0
-904 744 -8584 0
904 8584 0
-744 8584 0
904 -744 -9864 0
-904 9864 0
744 9864 0
7464 8744 0
7464 10024 0
-7464 -8744 -10024 0
-1064 904 -8744 0
1064 8744 0
-904 8744 0
1064 -904 -10024 0
-1064 10024 0
904 10024 0
7624 8904 0
7624 10184 0
-7624 -8904 -10184 0
-1224 1064 -8904 0
1224 8904 0
-1064 8904 0
1224 -1064 -10184 0
-1224 10184 0
1064 10184 0
1385 0
-2505 0
-2665 3945 0
-2665 5225 0
-2665 1385 0
-2665 -1545 0
2665 -3945 -5225 -1385 1545 0
-105 265 -3945 0
105 3945 0
-265 3945 0
105 -265 -5225 0
-105 5225 0
265 5225 0
-2825 4105 0
-2825 5385 0
-2825 1545 0
-2825 -1705 0
2825 -4105 -5385 -1545 1705 0
-265 425 -4105 0
265 4105 0
-425 4105 0
265 -425 -5385 0
-265 5385 0
425 5385 0
-2985 4265 0
-2985 5545 0
-2985 1705 0
-2985 -1865 0
2985 -4265 -5545 -1705 1865 0
-425 585 -4265 0
425 4265 0
-585 4265 0
425 -585 -5545 0
-425 5545 0
585 5545 0
-3145 4425 0
-3145 5705 0
-3145 1865 0
-3145 -2025 0
3145 -4425 -5705 -1865 2025 0
-585 745 -4425 0
585 4425 0
-745 4425 0
585 -745 -5705 0
-585 5705 0
745 5705 0
-3305 4585 0
-3305 5865 0
-3305 2025 0
-3305 -2185 0
3305 -4585 -5865 -2025 2185 0
-745 905 -4585 0
745 4585 0
-905 4585 0
745 -905 -5865 0
-745 5865 0
905 5865 0
-3465 4745 0
-3465 6025 0
-3465 2185 0
-3465 -2345 0
3465 -4745 -6025 -2185 2345 0
-905 1065 -4745 0
905 4745 0
-1065 4745 0
905 -1065 -6025 0
-905 6025 0
1065 6025 0
-3625 4905 0
-3625 6185 0
-3625 2345 0
-3625 -2505 0
3625 -4905 -6185 -2345 2505 0
-1065 1225 -4905 0
1065 4905 0
-1225 4905 0
1065 -1225 -6185 0
-1065 6185 0
1225 6185 0
6665 7945 0
6665 9225 0
-6665 -7945 -9225 0
-265 105 -7945 0
265 7945 0
-105 7945 0
265 -105 -9225 0
-265 9225 0
105 9225 0
6825 8105 0
6825 9385 0
-6825 -8105 -9385 0
-425 265 -8105 0
425 8105 0
-265 8105 0
425 -265 -9385 0
-425 9385 0
265 9385 0
6985 8265 0
6985 9545 0
-6985 -8265 -9545 0
-585 425 -8265 0
585 8265 0
-425 8265 0
585 -425 -9545 0
-585 9545 0
425 9545 0
7145 8425 0
7145 9705 0
-7145 -8425 -9705 0
-745 585 -8425 0
745 8425 0
-585 8425 0
745 -585 -9705 0
-745 9705 0
585 9705 0
7305 8585 0
7305 9865 0
-7305 -8585 -9865 0
-905 745 -8585 0
905 8585 0
-745 8585 0
905 -745 -9865 0
-905 9865 0
745 9865 0
7465 8745 0
7465 10025 0
-7465 -8745 -10025 0
-1065 905 -8745 0
1065 8745 0
-905 8745 0
1065 -905 -10025 0
-1065 10025 0
905 10025 0
7625 8905 0
7625 10185 0
-7625 -8905 -10185 0
-1225 1065 -8905 0
1225 8905 0
-1065 8905 0
1225 -1065 -10185 0
-1225 10185 0
1065 10185 0
1386 0
-2506 0
-2666 3946 0
-2666 5226 0
-2666 1386 0
-2666 -1546 0
2666 -3946 -5226 -1386 1546 0
-106 266 -3946 0
106 3946 0
-266 3946 0
106 -266 -5226 0
-106 5226 0
266 5226 0
-2826 4106 0
-2826 5386 0
-2826 1546 0
-2826 -1706 0
2826 -4106 -5386 -1546 1706 0
-266 426 -4106 0
266 4106 0
-426 4106 0
266 -426 -5386 0
-266 5386 0
426 5386 0
-2986 4266 0
-2986 5546 0
-2986 1706 0
-2986 -1866 0
2986 -4266 -5546 -1706 1866 0
-426 586 -4266 0
426 4266 0
-586 4266 0
426 -586 -5546 0
-426 5546 0
586 5546 0
-3146 4426 0
-3146 5706 0
-3146 1866 0
-3146 -2026 0
3146 -4426 -5706 -1866 2026 0
-586 746 -4426 0
586 4426 0
-746 4426 0
586 -746 -5706 0
-586 5706 0
746 5706 0
-3306 4586 0
-3306 5866 0
-3306 2026 0
-3306 -2186 0
3306 -4586 -5866 -2026 2186 0
-746 906 -4586 0
746 4586 0
-906 4586 0
746 -906 -5866 0
-746 5866 0
906 5866 0
-3466 4746 0
-3466 6026 0
-3466 2186 0
-3466 -2346 0
3466 -4746 -6026 -2186 2346 0
-906 1066 -4746 0
906 4746 0
-1066 4746 0
906 -1066 -6026 0
-906 6026 0
1066 6026 0
-3626 4906 0
-3626 6186 0
-3626 2346 0
-3626 -2506 0
3626 -4906 -6186 -2346 2506 0
-1066 1226 -4906 0
1066 4906 0
-1226 4906 0
1066 -1226 -6186 0
-1066 6186 0
1226 6186 0
6666 7946 0
6666 9226 0
-6666 -7946 -9226 0
-266 106 -7946 0
266 7946 0
-106 7946 0
266 -106 -9226 0
-266 9226 0
106 9226 0
6826 8106 0
6826 9386 0
-6826 -8106 -9386 0
-426 266 -8106 0
426 8106 0
-266 8106 0
426 -266 -9386 0
-426 9386 0
266 9386 0
6986 8266 0
6986 9546 0
-6986 -8266 -9546 0
-586 426 -8266 0
586 8266 0
-426 8266 0
586 -426 -9546 0
-586 9546 0
426 9546 0
7146 8426 0
7146 9706 0
-7146 -8426 -9706 0
-746 586 -8426 0
746 8426 0
-586 8426 0
746 -586 -9706 0
-746 9706 0
586 9706 0
7306 8586 0
7306 9866 0
-7306 -8586 -9866 0
-906 746 -8586 0
906 8586 0
-746 8586 0
906 -746 -9866 0
-906 9866 0
746 9866 0
7466 8746 0
7466 10026 0
-7466 -8746 -10026 0
-1066 906 -8746 0
1066 8746 0
-906 8746 0
1066 -906 -10026 0
-1066 10026 0
906 10026 0
7626 8906 0
7626 10186 0
-7626 -8906 -10186 0
-1226 1066 -8906 0
1226 8906 0
-1066 8906 0
1226 -1066 -10186 0
-1226 10186 0
1066 10186 0
1387 0
-2507 0
-2667 3947 0
-2667 5227 0
-2667 1387 0
-2667 -1547 0
2667 -3947 -5227 -1387 1547 0
-107 267 -3947 0
107 3947 0
-267 3947 0
107 -267 -5227 0
-107 5227 0
267 5227 0
-2827 4107 0
-2827 5387 0
-2827 1547 0
-2827 -1707 0
2827 -4107 -5387 -1547 1707 0
-267 427 -4107 0
267 4107 0
-427 4107 0
267 -427 -5387 0
-267 5387 0
427 5387 0
-2987 4267 0
-2987 5547 0
-2987 1707 0
-2987 -1867 0
2987 -4267 -5547 -1707 1867 0
-427 587 -4267 0
427 4267 0
-587 4267 0
427 -587 -5547 0
-427 5547 0
587 5547 0
-3147 4427 0
-3147 5707 0
-3147 1867 0
-3147 -2027 0
3147 -4427 -5707 -1867 2027 0
-587 747 -4427 0
587 4427 0
-747 4427 0
587 -747 -5707 0
-587 5707 0
747 5707 0
-3307 4587 0
-3307 5867 0
-3307 2027 0
-3307 -2187 0
3307 -4587 -5867 -2027 2187 0
-747 907 -4587 0
747 4587 0
-907 4587 0
747 -907 -5867 0
-747 5867 0
907 5867 0
-3467 4747 0
-3467 6027 0
-3467 2187 0
-3467 -2347 0
3467 -4747 -6027 -2187 2347 0
-907 1067 -4747 0
907 4747 0
-1067 4747 0
907 -1067 -6027 0
-907 6027 0
1067 6027 0
-3627 4907 0
-3627 6187 0
-3627 2347 0
-3627 -2507 0
3627 -4907 -6187 -2347 2507 0
-1067 1227 -4907 0
1067 4907 0
-1227 4907 0
1067 -1227 -6187 0
-1067 6187 0
1227 6187 0
6667 7947 0
6667 9227 0
-6667 -7947 -9227 0
-267 107 -7947 0
267 7947 0
-107 7947 0
267 -107 -9227 0
-267 9227 0
107 9227 0
6827 8107 0
6827 9387 0
-6827 -8107 -9387 0
-427 267 -8107 0
427 8107 0
-267 8107 0
427 -267 -9387 0
-427 9387 0
267 9387 0
6987 8267 0
6987 9547 0
-6987 -8267 -9547 0
-587 427 -8267 0
587 8267 0
-427 8267 0
587 -427 -9547 0
-587 9547 0
427 9547 0
7147 8427 0
7147 9707 0
-7147 -8427 -9707 0
-747 587 -8427 0
747 8427 0
-587 8427 0
747 -587 -9707 0
-747 9707 0
587 9707 0
7307 8587 0
7307 9867 0
-7307 -8587 -9867 0
-907 747 -8587 0
907 8587 0
-747 8587 0
907 -747 -9867 0
-907 9867 0
747 9867 0
7467 8747 0
7467 10027 0
-7467 -8747 -10027 0
-1067 907 -8747 0
1067 8747 0
-907 8747 0
1067 -907 -10027 0
-1067 10027 0
907 10027 0
7627 8907 0
7627 10187 0
-7627 -8907 -10187 0
-1227 1067 -8907 0
1227 8907 0
-1067 8907 0
1227 -1067 -10187 0
-1227 10187 0
1067 10187 0
1388 0
-2508 0
-2668 3948 0
-2668 5228 0
-2668 1388 0
-2668 -1548 0
2668 -3948 -5228 -1388 1548 0
-108 268 -3948 0
108 3948 0
-268 3948 0
108 -268 -5228 0
-108 5228 0
268 5228 0
-2828 4108 0
-2828 5388 0
-2828 1548 0
-2828 -1708 0
2828 -4108 -5388 -1548 1708 0
-268 428 -4108 0
268 4108 0
-428 4108 0
268 -428 -5388 0
-268 5388 0
428 5388 0
-2988 4268 0
-2988 5548 0
-2988 1708 0
-2988 -1868 0
2988 -4268 -5548 -1708 1868 0
-428 588 -4268 0
428 4268 0
-588 4268 0
428 -588 -5548 0
-428 5548 0
588 5548 0
-3148 4428 0
-3148 5708 0
-3148 1868 0
-3148 -2028 0
3148 -4428 -5708 -1868 2028 0
-588 748 -4428 0
588 4428 0
-748 4428 0
588 -748 -5708 0
-588 5708 0
748 5708 0
-3308 4588 0
-3308 5868 0
-3308 2028 0
-3308 -2188 0
3308 -4588 -5868 -2028 2188 0
-748 908 -4588 0
748 4588 0
-908 4588 0
748 -908 -5868 0
-748 5868 0
908 5868 0
-3468 4748 0
-3468 6028 0
-3468 2188 0
-3468 -2348 0
3468 -4748 -6028 -2188 2348 0
-908 1068 -4748 0
908 4748 0
-1068 4748 0
908 -1068 -6028 0
-908 6028 0
1068 6028 0
-3628 4908 0
-3628 6188 0
-3628 2348 0
-3628 -2508 0
3628 -4908 -6188 -2348 2508 0
-1068 1228 -4908 0
1068 4908 0
-1228 4908 0
1068 -1228 -6188 0
-1068 6188 0
1228 6188 0
6668 7948 0
6668 9228 0
-6668 -7948 -9228 0
-268 108 -7948 0
268 7948 0
-108 7948 0
268 -108 -9228 0
-268 9228 0
108 9228 0
6828 8108 0
6828 9388 0
-6828 -8108 -9388 0
-428 268 -8108 0
428 8108 0
-268 8108 0
428 -268 -9388 0
-428 9388 0
268 9388 0
6988 8268 0
6988 9548 0
-6988 -8268 -9548 0
-588 428 -8268 0
588 8268 0
-428 8268 0
588 -428 -9548 0
-588 9548 0
428 9548 0
7148 8428 0
7148 9708 0
-7148 -8428 -9708 0
-748 588 -8428 0
748 8428 0
-588 8428 0
748 -588 -9708 0
-748 9708 0
588 9708 0
7308 8588 0
7308 9868 0
-7308 -8588 -9868 0
-908 748 -8588 0
908 8588 0
-748 8588 0
908 -748 -9868 0
-908 9868 0
748 9868 0
7468 8748 0
7468 10028 0
-7468 -8748 -10028 0
-1068 908 -8748 0
1068 8748 0
-908 8748 0
1068 -908 -10028 0
-1068 10028 0
908 10028 0
7628 8908 0
7628 10188 0
-7628 -8908 -10188 0
-1228 1068 -8908 0
1228 8908 0
-1068 8908 0
1228 -1068 -10188 0
-1228 10188 0
1068 10188 0
1389 0
-2509 0
-2669 3949 0
-2669 5229 0
-2669 1389 0
-2669 -1549 0
2669 -3949 -5229 -1389 1549 0
-109 269 -3949 0
109 3949 0
-269 3949 0
109 -269 -5229 0
-109 5229 0
269 5229 0
-2829 4109 0
-2829 5389 0
-2829 1549 0
-2829 -1709 0
2829 -4109 -5389 -1549 1709 0
-269 429 -4109 0
269 4109 0
-429 4109 0
269 -429 -5389 0
-269 5389 0
429 5389 0
-2989 4269 0
-2989 5549 0
-2989 1709 0
-2989 -1869 0
2989 -4269 -5549 -1709 1869 0
-429 589 -4269 0
429 4269 0
-589 4269 0
429 -589 -5549 0
-429 5549 0
589 5549 0
-3149 4429 0
-3149 5709 0
-3149 1869 0
-3149 -2029 0
3149 -4429 -5709 -1869 2029 0
-589 749 -4429 0
589 4429 0
-749 4429 0
589 -749 -5709 0
-589 5709 0
749 5709 0
-3309 4589 0
-3309 5869 0
-3309 2029 0
-3309 -2189 0
3309 -4589 -5869 -2029 2189 0
-749 909 -4589 0
749 4589 0
-909 4589 0
749 -909 -5869 0
-749 5869 0
909 5869 0
-3469 4749 0
-3469 6029 0
-3469 2189 0
-3469 -2349 0
3469 -4749 -6029 -2189 2349 0
-909 1069 -4749 0
909 4749 0
-1069 4749 0
909 -1069 -6029 0
-909 6029 0
1069 6029 0
-3629 4909 0
-3629 6189 0
-3629 2349 0
-3629 -2509 0
3629 -4909 -6189 -2349 2509 0
-1069 1229 -4909 0
1069 4909 0
-1229 4909 0
1069 -1229 -6189 0
-1069 6189 0
1229 6189 0
6669 7949 0
6669 9229 0
-6669 -7949 -9229 0
-269 109 -7949 0
269 7949 0
-109 7949 0
269 -109 -9229 0
-269 9229 0
109 9229 0
6829 8109 0
6829 9389 0
-6829 -8109 -9389 0
-429 269 -8109 0
429 8109 0
-269 8109 0
429 -269 -9389 0
-429 9389 0
269 9389 0
6989 8269 0
6989 9549 0
-6989 -8269 -9549 0
-589 429 -8269 0
589 8269 0
-429 8269 0
589 -429 -9549 0
-589 9549 0
429 9549 0
7149 8429 0
7149 9709 0
-7149 -8429 -9709 0
-749 589 -8429 0
749 8429 0
-589 8429 0
749 -589 -9709 0
-749 9709 0
589 9709 0
7309 8589 0
7309 9869 0
-7309 -8589 -9869 0
-909 749 -8589 0
909 8589 0
-749 8589 0
909 -749 -9869 0
-909 9869 0
749 9869 0
7469 8749 0
7469 10029 0
-7469 -8749 -10029 0
-1069 909 -8749 0
1069 8749 0
-909 8749 0
1069 -909 -10029 0
-1069 10029 0
909 10029 0
7629 8909 0
7629 10189 0
-7629 -8909 -10189 0
-1229 1069 -8909 0
1229 8909 0
-1069 8909 0
1229 -1069 -10189 0
-1229 10189 0
1069 10189 0
1390 0
-2510 0
-2670 3950 0
-2670 5230 0
-2670 1390 0
-2670 -1550 0
2670 -3950 -5230 -1390 1550 0
-110 270 -3950 0
110 3950 0
-270 3950 0
110 -270 -5230 0
-110 5230 0
270 5230 0
-2830 4110 0
-2830 5390 0
-2830 1550 0
-2830 -1710 0
2830 -4110 -5390 -1550 1710 0
-270 430 -4110 0
270 4110 0
-430 4110 0
270 -430 -5390 0
-270 5390 0
430 5390 0
-2990 4270 0
-2990 5550 0
-2990 1710 0
-2990 -1870 0
2990 -4270 -5550 -1710 1870 0
-430 590 -4270 0
430 4270 0
-590 4270 0
430 -590 -5550 0
-430 5550 0
590 5550 0
-3150 4430 0
-3150 5710 0
-3150 1870 0
-3150 -2030 0
3150 -4430 -5710 -1870 2030 0
-590 750 -4430 0
590 4430 0
-750 4430 0
590 -750 -5710 0
-590 5710 0
750 5710 0
-3310 4590 0
-3310 5870 0
-3310 2030 0
-3310 -2190 0
3310 -4590 -5870 -2030 2190 0
-750 910 -4590 0
750 4590 0
-910 4590 0
750 -910 -5870 0
-750 5870 0
910 5870 0
-3470 4750 0
-3470 6030 0
-3470 2190 0
-3470 -2350 0
3470 -4750 -6030 -2190 2350 0
-910 1070 -4750 0
910 4750 0
-1070 4750 0
910 -1070 -6030 0
-910 6030 0
1070 6030 0
-3630 4910 0
-3630 6190 0
-3630 2350 0
-3630 -2510 0
3630 -4910 -6190 -2350 2510 0
-1070 1230 -4910 0
1070 4910 0
-1230 4910 0
1070 -1230 -6190 0
-1070 6190 0
1230 6190 0
6670 7950 0
6670 9230 0
-6670 -7950 -9230 0
-270 110 -7950 0
270 7950 0
-110 7950 0
270 -110 -9230 0
-270 9230 0
110 9230 0
6830 8110 0
6830 9390 0
-6830 -8110 -9390 0
-430 270 -8110 0
430 8110 0
-270 8110 0
430 -270 -9390 0
-430 9390 0
270 9390 0
6990 8270 0
6990 9550 0
-6990 -8270 -9550 0
-590 430 -8270 0
590 8270 0
-430 8270 0
590 -430 -9550 0
-590 9550 0
430 9550 0
7150 8430 0
7150 9710 0
-7150 -8430 -9710 0
-750 590 -8430 0
750 8430 0
-590 8430 0
750 -590 -9710 0
-750 9710 0
590 9710 0
7310 8590 0
7310 9870 0
-7310 -8590 -9870 0
-910 750 -8590 0
910 8590 0
-750 8590 0
910 -750 -9870 0
-910 9870 0
750 9870 0
7470 8750 0
7470 10030 0
-7470 -8750 -10030 0
-1070 910 -8750 0
1070 8750 0
-910 8750 0
1070 -910 -10030 0
-1070 10030 0
910 10030 0
7630 8910 0
7630 10190 0
-7630 -8910 -10190 0
-1230 1070 -8910 0
1230 8910 0
-1070 8910 0
1230 -1070 -10190 0
-1230 10190 0
1070 10190 0
1391 0
-2511 0
-2671 3951 0
-2671 5231 0
-2671 1391 0
-2671 -1551 0
2671 -3951 -5231 -1391 1551 0
-111 271 -3951 0
111 3951 0
-271 3951 0
111 -271 -5231 0
-111 5231 0
271 5231 0
-2831 4111 0
-2831 5391 0
-2831 1551 0
-2831 -1711 0
2831 -4111 -5391 -1551 1711 0
-271 431 -4111 0
271 4111 0
-431 4111 0
271 -431 -5391 0
-271 5391 0
431 5391 0
-2991 4271 0
-2991 5551 0
-2991 1711 0
-2991 -1871 0
2991 -4271 -5551 -1711 1871 0
-431 591 -4271 0
431 4271 0
-591 4271 0
431 -591 -5551 0
-431 5551 0
591 5551 0
-3151 4431 0
-3151 5711 0
-3151 1871 0
-3151 -2031 0
3151 -4431 -5711 -1871 2031 0
-591 751 -4431 0
591 4431 0
-751 4431 0
591 -751 -5711 0
-591 5711 0
751 5711 0
-3311 4591 0
-3311 5871 0
-3311 2031 0
-3311 -2191 0
3311 -4591 -5871 -2031 2191 0
-751 911 -4591 0
751 4591 0
-911 4591 0
751 -911 -5871 0
-751 5871 0
911 5871 0
-3471 4751 0
-3471 6031 0
-3471 2191 0
-3471 -2351 0
3471 -4751 -6031 -2191 2351 0
-911 1071 -4751 0
911 4751 0
-1071 4751 0
911 -1071 -6031 0
-911 6031 0
1071 6031 0
-3631 4911 0
-3631 6191 0
-3631 2351 0
-3631 -2511 0
3631 -4911 -6191 -2351 2511 0
-1071 1231 -4911 0
1071 4911 0
-1231 4911 0
1071 -1231 -6191 0
-1071 6191 0
1231 6191 0
6671 7951 0
6671 9231 0
-6671 -7951 -9231 0
-271 111 -7951 0
271 7951 0
-111 7951 0
271 -111 -9231 0
-271 9231 0
111 9231 0
6831 8111 0
6831 9391 0
-6831 -8111 -9391 0
-431 271 -8111 0
431 8111 0
-271 8111 0
431 -271 -9391 0
-431 9391 0
271 9391 0
6991 8271 0
6991 9551 0
-6991 -8271 -9551 0
-591 431 -8271 0
591 8271 0
-431 8271 0
591 -431 -9551 0
-591 9551 0
431 9551 0
7151 8431 0
7151 9711 0
-7151 -8431 -9711 0
-751 591 -8431 0
751 8431 0
-591 8431 0
751 -591 -9711 0
-751 9711 0
591 9711 0
7311 8591 0
7311 9871 0
-7311 -8591 -9871 0
-911 751 -8591 0
911 8591 0
-751 8591 0
911 -751 -9871 0
-911 9871 0
751 9871 0
7471 8751 0
7471 10031 0
-7471 -8751 -10031 0
-1071 911 -8751 0
1071 8751 0
-911 8751 0
1071 -911 -10031 0
-1071 10031 0
911 10031 0
7631 8911 0
7631 10191 0
-7631 -8911 -10191 0
-1231 1071 -8911 0
1231 8911 0
-1071 8911 0
1231 -1071 -10191 0
-1231 10191 0
1071 10191 0
1392 0
-2512 0
-2672 3952 0
-2672 5232 0
-2672 1392 0
-2672 -1552 0
2672 -3952 -5232 -1392 1552 0
-112 272 -3952 0
112 3952 0
-272 3952 0
112 -272 -5232 0
-112 5232 0
272 5232 0
-2832 4112 0
-2832 5392 0
-2832 1552 0
-2832 -1712 0
2832 -4112 -5392 -1552 1712 0
-272 432 -4112 0
272 4112 0
-432 4112 0
272 -432 -5392 0
-272 5392 0
432 5392 0
-2992 4272 0
-2992 5552 0
-2992 1712 0
-2992 -1872 0
2992 -4272 -5552 -1712 1872 0
-432 592 -4272 0
432 4272 0
-592 4272 0
432 -592 -5552 0
-432 5552 0
592 5552 0
-3152 4432 0
-3152 5712 0
-3152 1872 0
-3152 -2032 0
3152 -4432 -5712 -1872 2032 0
-592 752 -4432 0
592 4432 0
-752 4432 0
592 -752 -5712 0
-592 5712 0
752 5712 0
-3312 4592 0
-3312 5872 0
-3312 2032 0
-3312 -2192 0
3312 -4592 -5872 -2032 2192 0
-752 912 -4592 0
752 4592 0
-912 4592 0
752 -912 -5872 0
-752 5872 0
912 5872 0
-3472 4752 0
-3472 6032 0
-3472 2192 0
-3472 -2352 0
3472 -4752 -6032 -2192 2352 0
-912 1072 -4752 0
912 4752 0
-1072 4752 0
912 -1072 -6032 0
-912 6032 0
1072 6032 0
-3632 4912 0
-3632 6192 0
-3632 2352 0
-3632 -2512 0
3632 -4912 -6192 -2352 2512 0
-1072 1232 -4912 0
1072 4912 0
-1232 4912 0
1072 -1232 -6192 0
-1072 6192 0
1232 6192 0
6672 7952 0
6672 9232 0
-6672 -7952 -9232 0
-272 112 -7952 0
272 7952 0
-112 7952 0
272 -112 -9232 0
-272 9232 0
112 9232 0
6832 8112 0
6832 9392 0
-6832 -8112 -9392 0
-432 272 -8112 0
432 8112 0
-272 8112 0
432 -272 -9392 0
-432 9392 0
272 9392 0
6992 8272 0
6992 9552 0
-6992 -8272 -9552 0
-592 432 -8272 0
592 8272 0
-432 8272 0
592 -432 -9552 0
-592 9552 0
432 9552 0
7152 8432 0
7152 9712 0
-7152 -8432 -9712 0
-752 592 -8432 0
752 8432 0
-592 8432 0
752 -592 -9712 0
-752 9712 0
592 9712 0
7312 8592 0
7312 9872 0
-7312 -8592 -9872 0
-912 752 -8592 0
912 8592 0
-752 8592 0
912 -752 -9872 0
-912 9872 0
752 9872 0
7472 8752 0
7472 10032 0
-7472 -8752 -10032 0
-1072 912 -8752 0
1072 8752 0
-912 8752 0
1072 -912 -10032 0
-1072 10032 0
912 10032 0
7632 8912 0
7632 10192 0
-7632 -8912 -10192 0
-1232 1072 -8912 0
1232 8912 0
-1072 8912 0
1232 -1072 -10192 0
-1232 10192 0
1072 10192 0
1393 0
-2513 0
-2673 3953 0
-2673 5233 0
-2673 1393 0
-2673 -1553 0
2673 -3953 -5233 -1393 1553 0
-113 273 -3953 0
113 3953 0
-273 3953 0
113 -273 -5233 0
-113 5233 0
273 5233 0
-2833 4113 0
-2833 5393 0
-2833 1553 0
-2833 -1713 0
2833 -4113 -5393 -1553 1713 0
-273 433 -4113 0
273 4113 0
-433 4113 0
273 -433 -5393 0
-273 5393 0
433 5393 0
-2993 4273 0
-2993 5553 0
-2993 1713 0
-2993 -1873 0
2993 -4273 -5553 -1713 1873 0
-433 593 -4273 0
433 4273 0
-593 4273 0
433 -593 -5553 0
-433 5553 0
593 5553 0
-3153 4433 0
-3153 5713 0
-3153 1873 0
-3153 -2033 0
3153 -4433 -5713 -1873 2033 0
-593 753 -4433 0
593 4433 0
-753 4433 0
593 -753 -5713 0
-593 5713 0
753 5713 0
-3313 4593 0
-3313 5873 0
-3313 2033 0
-3313 -2193 0
3313 -4593 -5873 -2033 2193 0
-753 913 -4593 0
753 4593 0
-913 4593 0
753 -913 -5873 0
-753 5873 0
913 5873 0
-3473 4753 0
-3473 6033 0
-3473 2193 0
-3473 -2353 0
3473 -4753 -6033 -2193 2353 0
-913 1073 -4753 0
913 4753 0
-1073 4753 0
913 -1073 -6033 0
-913 6033 0
1073 6033 0
-3633 4913 0
-3633 6193 0
-3633 2353 0
-3633 -2513 0
3633 -4913 -6193 -2353 2513 0
-1073 1233 -4913 0
1073 4913 0
-1233 4913 0
1073 -1233 -6193 0
-1073 6193 0
1233 6193 0
6673 7953 0
6673 9233 0
-6673 -7953 -9233 0
-273 113 -7953 0
273 7953 0
-113 7953 0
273 -113 -9233 0
-273 9233 0
113 9233 0
6833 8113 0
6833 9393 0
-6833 -8113 -9393 0
-433 273 -8113 0
433 8113 0
-273 8113 0
433 -273 -9393 0
-433 9393 0
273 9393 0
6993 8273 0
6993 9553 0
-6993 -8273 -9553 0
-593 433 -8273 0
593 8273 0
-433 8273 0
593 -433 -9553 0
-593 9553 0
433 9553 0
7153 8433 0
7153 9713 0
-7153 -8433 -9713 0
-753 593 -8433 0
753 8433 0
-593 8433 0
753 -593 -9713 0
-753 9713 0
593 9713 0
7313 8593 0
7313 9873 0
-7313 -8593 -9873 0
-913 753 -8593 0
913 8593 0
-753 8593 0
913 -753 -9873 0
-913 9873 0
753 9873 0
7473 8753 0
7473 10033 0
-7473 -8753 -10033 0
-1073 913 -8753 0
1073 8753 0
-913 8753 0
1073 -913 -10033 0
-1073 10033 0
913 10033 0
7633 8913 0
7633 10193 0
-7633 -8913 -10193 0
-1233 1073 -8913 0
1233 8913 0
-1073 8913 0
1233 -1073 -10193 0
-1233 10193 0
1073 10193 0
1394 0
-2514 0
-2674 3954 0
-2674 5234 0
-2674 1394 0
-2674 -1554 0
2674 -3954 -5234 -1394 1554 0
-114 274 -3954 0
114 3954 0
-274 3954 0
114 -274 -5234 0
-114 5234 0
274 5234 0
-2834 4114 0
-2834 5394 0
-2834 1554 0
-2834 -1714 0
2834 -4114 -5394 -1554 1714 0
-274 434 -4114 0
274 4114 0
-434 4114 0
274 -434 -5394 0
-274 5394 0
434 5394 0
-2994 4274 0
-2994 5554 0
-2994 1714 0
-2994 -1874 0
2994 -4274 -5554 -1714 1874 0
-434 594 -4274 0
434 4274 0
-594 4274 0
434 -594 -5554 0
-434 5554 0
594 5554 0
-3154 4434 0
-3154 5714 0
-3154 1874 0
-3154 -2034 0
3154 -4434 -5714 -1874 2034 0
-594 754 -4434 0
594 4434 0
-754 4434 0
594 -754 -5714 0
-594 5714 0
754 5714 0
-3314 4594 0
-3314 5874 0
-3314 2034 0
-3314 -2194 0
3314 -4594 -5874 -2034 2194 0
-754 914 -4594 0
754 4594 0
-914 4594 0
754 -914 -5874 0
-754 5874 0
914 5874 0
-3474 4754 0
-3474 6034 0
-3474 2194 0
-3474 -2354 0
3474 -4754 -6034 -2194 2354 0
-914 1074 -4754 0
914 4754 0
-1074 4754 0
914 -1074 -6034 0
-914 6034 0
1074 6034 0
-3634 4914 0
-3634 6194 0
-3634 2354 0
-3634 -2514 0
3634 -4914 -6194 -2354 2514 0
-1074 1234 -4914 0
1074 4914 0
-1234 4914 0
1074 -1234 -6194 0
-1074 6194 0
1234 6194 0
6674 7954 0
6674 9234 0
-6674 -7954 -9234 0
-274 114 -7954 0
274 7954 0
-114 7954 0
274 -114 -9234 0
-274 9234 0
114 9234 0
6834 8114 0
6834 9394 0
-6834 -8114 -9394 0
-434 274 -8114 0
434 8114 0
-274 8114 0
434 -274 -9394 0
-434 9394 0
274 9394 0
6994 8274 0
6994 9554 0
-6994 -8274 -9554 0
-594 434 -8274 0
594 8274 0
-434 8274 0
594 -434 -9554 0
-594 9554 0
434 9554 0
7154 8434 0
7154 9714 0
-7154 -8434 -9714 0
-754 594 -8434 0
754 8434 0
-594 8434 0
754 -594 -9714 0
-754 9714 0
594 9714 0
7314 8594 0
7314 9874 0
-7314 -8594 -9874 0
-914 754 -8594 0
914 8594 0
-754 8594 0
914 -754 -9874 0
-914 9874 0
754 9874 0
7474 8754 0
7474 10034 0
-7474 -8754 -10034 0
-1074 914 -8754 0
1074 8754 0
-914 8754 0
1074 -914 -10034 0
-1074 10034 0
914 10034 0
7634 8914 0
7634 10194 0
-7634 -8914 -10194 0
-1234 1074 -8914 0
1234 8914 0
-1074 8914 0
1234 -1074 -10194 0
-1234 10194 0
1074 10194 0
1395 0
-2515 0
-2675 3955 0
-2675 5235 0
-2675 1395 0
-2675 -1555 0
2675 -3955 -5235 -1395 1555 0
-115 275 -3955 0
115 3955 0
-275 3955 0
115 -275 -5235 0
-115 5235 0
275 5235 0
-2835 4115 0
-2835 5395 0
-2835 1555 0
-2835 -1715 0
2835 -4115 -5395 -1555 1715 0
-275 435 -4115 0
275 4115 0
-435 4115 0
275 -435 -5395 0
-275 5395 0
435 5395 0
-2995 4275 0
-2995 5555 0
-2995 1715 0
-2995 -1875 0
2995 -4275 -5555 -1715 1875 0
-435 595 -4275 0
435 4275 0
-595 4275 0
435 -595 -5555 0
-435 5555 0
595 5555 0
-3155 4435 0
-3155 5715 0
-3155 1875 0
-3155 -2035 0
3155 -4435 -5715 -1875 2035 0
-595 755 -4435 0
595 4435 0
-755 4435 0
595 -755 -5715 0
-595 5715 0
755 5715 0
-3315 4595 0
-3315 5875 0
-3315 2035 0
-3315 -2195 0
3315 -4595 -5875 -2035 2195 0
-755 915 -4595 0
755 4595 0
-915 4595 0
755 -915 -5875 0
-755 5875 0
915 5875 0
-3475 4755 0
-3475 6035 0
-3475 2195 0
-3475 -2355 0
3475 -4755 -6035 -2195 2355 0
-915 1075 -4755 0
915 4755 0
-1075 4755 0
915 -1075 -6035 0
-915 6035 0
1075 6035 0
-3635 4915 0
-3635 6195 0
-3635 2355 0
-3635 -2515 0
3635 -4915 -6195 -2355 2515 0
-1075 1235 -4915 0
1075 4915 0
-1235 4915 0
1075 -1235 -6195 0
-1075 6195 0
1235 6195 0
6675 7955 0
6675 9235 0
-6675 -7955 -9235 0
-275 115 -7955 0
275 7955 0
-115 7955 0
275 -115 -9235 0
-275 9235 0
115 9235 0
6835 8115 0
6835 9395 0
-6835 -8115 -9395 0
-435 275 -8115 0
435 8115 0
-275 8115 0
435 -275 -9395 0
-435 9395 0
275 9395 0
6995 8275 0
6995 9555 0
-6995 -8275 -9555 0
-595 435 -8275 0
595 8275 0
-435 8275 0
595 -435 -9555 0
-595 9555 0
435 9555 0
7155 8435 0
7155 9715 0
-7155 -8435 -9715 0
-755 595 -8435 0
755 8435 0
-595 8435 0
755 -595 -9715 0
-755 9715 0
595 9715 0
7315 8595 0
7315 9875 0
-7315 -8595 -9875 0
-915 755 -8595 0
915 8595 0
-755 8595 0
915 -755 -9875 0
-915 9875 0
755 9875 0
7475 8755 0
7475 10035 0
-7475 -8755 -10035 0
-1075 915 -8755 0
1075 8755 0
-915 8755 0
1075 -915 -10035 0
-1075 10035 0
915 10035 0
7635 8915 0
7635 10195 0
-7635 -8915 -10195 0
-1235 1075 -8915 0
1235 8915 0
-1075 8915 0
1235 -1075 -10195 0
-1235 10195 0
1075 10195 0
1396 0
-2516 0
-2676 3956 0
-2676 5236 0
-2676 1396 0
-2676 -1556 0
2676 -3956 -5236 -1396 1556 0
-116 276 -3956 0
116 3956 0
-276 3956 0
116 -276 -5236 0
-116 5236 0
276 5236 0
-2836 4116 0
-2836 5396 0
-2836 1556 0
-2836 -1716 0
2836 -4116 -5396 -1556 1716 0
-276 436 -4116 0
276 4116 0
-436 4116 0
276 -436 -5396 0
-276 5396 0
436 5396 0
-2996 4276 0
-2996 5556 0
-2996 1716 0
-2996 -1876 0
2996 -4276 -5556 -1716 1876 0
-436 596 -4276 0
436 4276 0
-596 4276 0
436 -596 -5556 0
-436 5556 0
596 5556 0
-3156 4436 0
-3156 5716 0
-3156 1876 0
-3156 -2036 0
3156 -4436 -5716 -1876 2036 0
-596 756 -4436 0
596 4436 0
-756 4436 0
596 -756 -5716 0
-596 5716 0
756 5716 0
-3316 4596 0
-3316 5876 0
-3316 2036 0
-3316 -2196 0
3316 -4596 -5876 -2036 2196 0
-756 916 -4596 0
756 4596 0
-916 4596 0
756 -916 -5876 0
-756 5876 0
916 5876 0
-3476 4756 0
-3476 6036 0
-3476 2196 0
-3476 -2356 0
3476 -4756 -6036 -2196 2356 0
-916 1076 -4756 0
916 4756 0
-1076 4756 0
916 -1076 -6036 0
-916 6036 0
1076 6036 0
-3636 4916 0
-3636 6196 0
-3636 2356 0
-3636 -2516 0
3636 -4916 -6196 -2356 2516 0
-1076 1236 -4916 0
1076 4916 0
-1236 4916 0
1076 -1236 -6196 0
-1076 6196 0
1236 6196 0
6676 7956 0
6676 9236 0
-6676 -7956 -9236 0
-276 116 -7956 0
276 7956 0
-116 7956 0
276 -116 -9236 0
-276 9236 0
116 9236 0
6836 8116 0
6836 9396 0
-6836 -8116 -9396 0
-436 276 -8116 0
436 8116 0
-276 8116 0
436 -276 -9396 0
-436 9396 0
276 9396 0
6996 8276 0
6996 9556 0
-6996 -8276 -9556 0
-596 436 -8276 0
596 8276 0
-436 8276 0
596 -436 -9556 0
-596 9556 0
436 9556 0
7156 8436 0
7156 9716 0
-7156 -8436 -9716 0
-756 596 -8436 0
756 8436 0
-596 8436 0
756 -596 -9716 0
-756 9716 0
596 9716 0
7316 8596 0
7316 9876 0
-7316 -8596 -9876 0
-916 756 -8596 0
916 8596 0
-756 8596 0
916 -756 -9876 0
-916 9876 0
756 9876 0
7476 8756 0
7476 10036 0
-7476 -8756 -10036 0
-1076 916 -8756 0
1076 8756 0
-916 8756 0
1076 -916 -10036 0
-1076 10036 0
916 10036 0
7636 8916 0
7636 10196 0
-7636 -8916 -10196 0
-1236 1076 -8916 0
1236 8916 0
-1076 8916 0
1236 -1076 -10196 0
-1236 10196 0
1076 10196 0
1397 0
-2517 0
-2677 3957 0
-2677 5237 0
-2677 1397 0
-2677 -1557 0
2677 -3957 -5237 -1397 1557 0
-117 277 -3957 0
117 3957 0
-277 3957 0
117 -277 -5237 0
-117 5237 0
277 5237 0
-2837 4117 0
-2837 5397 0
-2837 1557 0
-2837 -1717 0
2837 -4117 -5397 -1557 1717 0
-277 437 -4117 0
277 4117 0
-437 4117 0
277 -437 -5397 0
-277 5397 0
437 5397 0
-2997 4277 0
-2997 5557 0
-2997 1717 0
-2997 -1877 0
2997 -4277 -5557 -1717 1877 0
-437 597 -4277 0
437 4277 0
-597 4277 0
437 -597 -5557 0
-437 5557 0
597 5557 0
-3157 4437 0
-3157 5717 0
-3157 1877 0
-3157 -2037 0
3157 -4437 -5717 -1877 2037 0
-597 757 -4437 0
597 4437 0
-757 4437 0
597 -757 -5717 0
-597 5717 0
757 5717 0
-3317 4597 0
-3317 5877 0
-3317 2037 0
-3317 -2197 0
3317 -4597 -5877 -2037 2197 0
-757 917 -4597 0
757 4597 0
-917 4597 0
757 -917 -5877 0
-757 5877 0
917 5877 0
-3477 4757 0
-3477 6037 0
-3477 2197 0
-3477 -2357 0
3477 -4757 -6037 -2197 2357 0
-917 1077 -4757 0
917 4757 0
-1077 4757 0
917 -1077 -6037 0
-917 6037 0
1077 6037 0
-3637 4917 0
-3637 6197 0
-3637 2357 0
-3637 -2517 0
3637 -4917 -6197 -2357 2517 0
-1077 1237 -4917 0
1077 4917 0
-1237 4917 0
1077 -1237 -6197 0
-1077 6197 0
1237 6197 0
6677 7957 0
6677 9237 0
-6677 -7957 -9237 0
-277 117 -7957 0
277 7957 0
-117 7957 0
277 -117 -9237 0
-277 9237 0
117 9237 0
6837 8117 0
6837 9397 0
-6837 -8117 -9397 0
-437 277 -8117 0
437 8117 0
-277 8117 0
437 -277 -9397 0
-437 9397 0
277 9397 0
6997 8277 0
6997 9557 0
-6997 -8277 -9557 0
-597 437 -8277 0
597 8277 0
-437 8277 0
597 -437 -9557 0
-597 9557 0
437 9557 0
7157 8437 0
7157 9717 0
-7157 -8437 -9717 0
-757 597 -8437 0
757 8437 0
-597 8437 0
757 -597 -9717 0
-757 9717 0
597 9717 0
7317 8597 0
7317 9877 0
-7317 -8597 -9877 0
-917 757 -8597 0
917 8597 0
-757 8597 0
917 -757 -9877 0
-917 9877 0
757 9877 0
7477 8757 0
7477 10037 0
-7477 -8757 -10037 0
-1077 917 -8757 0
1077 8757 0
-917 8757 0
1077 -917 -10037 0
-1077 10037 0
917 10037 0
7637 8917 0
7637 10197 0
-7637 -8917 -10197 0
-1237 1077 -8917 0
1237 8917 0
-1077 8917 0
1237 -1077 -10197 0
-1237 10197 0
1077 10197 0
1398 0
-2518 0
-2678 3958 0
-2678 5238 0
-2678 1398 0
-2678 -1558 0
2678 -3958 -5238 -1398 1558 0
-118 278 -3958 0
118 3958 0
-278 3958 0
118 -278 -5238 0
-118 5238 0
278 5238 0
-2838 4118 0
-2838 5398 0
-2838 1558 0
-2838 -1718 0
2838 -4118 -5398 -1558 1718 0
-278 438 -4118 0
278 4118 0
-438 4118 0
278 -438 -5398 0
-278 5398 0
438 5398 0
-2998 4278 0
-2998 5558 0
-2998 1718 0
-2998 -1878 0
2998 -4278 -5558 -1718 1878 0
-438 598 -4278 0
438 4278 0
-598 4278 0
438 -598 -5558 0
-438 5558 0
598 5558 0
-3158 4438 0
-3158 5718 0
-3158 1878 0
-3158 -2038 0
3158 -4438 -5718 -1878 2038 0
-598 758 -4438 0
598 4438 0
-758 4438 0
598 -758 -5718 0
-598 5718 0
758 5718 0
-3318 4598 0
-3318 5878 0
-3318 2038 0
-3318 -2198 0
3318 -4598 -5878 -2038 2198 0
-758 918 -4598 0
758 4598 0
-918 4598 0
758 -918 -5878 0
-758 5878 0
918 5878 0
-3478 4758 0
-3478 6038 0
-3478 2198 0
-3478 -2358 0
3478 -4758 -6038 -2198 2358 0
-918 1078 -4758 0
918 4758 0
-1078 4758 0
918 -1078 -6038 0
-918 6038 0
1078 6038 0
-3638 4918 0
-3638 6198 0
-3638 2358 0
-3638 -2518 0
3638 -4918 -6198 -2358 2518 0
-1078 1238 -4918 0
1078 4918 0
-1238 4918 0
1078 -1238 -6198 0
-1078 6198 0
1238 6198 0
6678 7958 0
6678 9238 0
-6678 -7958 -9238 0
-278 118 -7958 0
278 7958 0
-118 7958 0
278 -118 -9238 0
-278 9238 0
118 9238 0
6838 8118 0
6838 9398 0
-6838 -8118 -9398 0
-438 278 -8118 0
438 8118 0
-278 8118 0
438 -278 -9398 0
-438 9398 0
278 9398 0
6998 8278 0
6998 9558 0
-6998 -8278 -9558 0
-598 438 -8278 0
598 8278 0
-438 8278 0
598 -438 -9558 0
-598 9558 0
438 9558 0
7158 8438 0
7158 9718 0
-7158 -8438 -9718 0
-758 598 -8438 0
758 8438 0
-598 8438 0
758 -598 -9718 0
-758 9718 0
598 9718 0
7318 8598 0
7318 9878 0
-7318 -8598 -9878 0
-918 758 -8598 0
918 8598 0
-758 8598 0
918 -758 -9878 0
-918 9878 0
758 9878 0
7478 8758 0
7478 10038 0
-7478 -8758 -10038 0
-1078 918 -8758 0
1078 8758 0
-918 8758 0
1078 -918 -10038 0
-1078 10038 0
918 10038 0
7638 8918 0
7638 10198 0
-7638 -8918 -10198 0
-1238 1078 -8918 0
1238 8918 0
-1078 8918 0
1238 -1078 -10198 0
-1238 10198 0
1078 10198 0
1399 0
-2519 0
-2679 3959 0
-2679 5239 0
-2679 1399 0
-2679 -1559 0
2679 -3959 -5239 -1399 1559 0
-119 279 -3959 0
119 3959 0
-279 3959 0
119 -279 -5239 0
-119 5239 0
279 5239 0
-2839 4119 0
-2839 5399 0
-2839 1559 0
-2839 -1719 0
2839 -4119 -5399 -1559 1719 0
-279 439 -4119 0
279 4119 0
-439 4119 0
279 -439 -5399 0
-279 5399 0
439 5399 0
-2999 4279 0
-2999 5559 0
-2999 1719 0
-2999 -1879 0
2999 -4279 -5559 -1719 1879 0
-439 599 -4279 0
439 4279 0
-599 4279 0
439 -599 -5559 0
-439 5559 0
599 5559 0
-3159 4439 0
-3159 5719 0
-3159 1879 0
-3159 -2039 0
3159 -4439 -5719 -1879 2039 0
-599 759 -4439 0
599 4439 0
-759 4439 0
599 -759 -5719 0
-599 5719 0
759 5719 0
-3319 4599 0
-3319 5879 0
-3319 2039 0
-3319 -2199 0
3319 -4599 -5879 -2039 2199 0
-759 919 -4599 0
759 4599 0
-919 4599 0
759 -919 -5879 0
-759 5879 0
919 5879 0
-3479 4759 0
-3479 6039 0
-3479 2199 0
-3479 -2359 0
3479 -4759 -6039 -2199 2359 0
-919 1079 -4759 0
919 4759 0
-1079 4759 0
919 -1079 -6039 0
-919 6039 0
1079 6039 0
-3639 4919 0
-3639 6199 0
-3639 2359 0
-3639 -2519 0
3639 -4919 -6199 -2359 2519 0
-1079 1239 -4919 0
1079 4919 0
-1239 4919 0
1079 -1239 -6199 0
-1079 6199 0
1239 6199 0
6679 7959 0
6679 9239 0
-6679 -7959 -9239 0
-279 119 -7959 0
279 7959 0
-119 7959 0
279 -119 -9239 0
-279 9239 0
119 9239 0
6839 8119 0
6839 9399 0
-6839 -8119 -9399 0
-439 279 -8119 0
439 8119 0
-279 8119 0
439 -279 -9399 0
-439 9399 0
279 9399 0
6999 8279 0
6999 9559 0
-6999 -8279 -9559 0
-599 439 -8279 0
599 8279 0
-439 8279 0
599 -439 -9559 0
-599 9559 0
439 9559 0
7159 8439 0
7159 9719 0
-7159 -8439 -9719 0
-759 599 -8439 0
759 8439 0
-599 8439 0
759 -599 -9719 0
-759 9719 0
599 9719 0
7319 8599 0
7319 9879 0
-7319 -8599 -9879 0
-919 759 -8599 0
919 8599 0
-759 8599 0
919 -759 -9879 0
-919 9879 0
759 9879 0
7479 8759 0
7479 10039 0
-7479 -8759 -10039 0
-1079 919 -8759 0
1079 8759 0
-919 8759 0
1079 -919 -10039 0
-1079 10039 0
919 10039 0
7639 8919 0
7639 10199 0
-7639 -8919 -10199 0
-1239 1079 -8919 0
1239 8919 0
-1079 8919 0
1239 -1079 -10199 0
-1239 10199 0
1079 10199 0
1400 0
-2520 0
-2680 3960 0
-2680 5240 0
-2680 1400 0
-2680 -1560 0
2680 -3960 -5240 -1400 1560 0
-120 280 -3960 0
120 3960 0
-280 3960 0
120 -280 -5240 0
-120 5240 0
280 5240 0
-2840 4120 0
-2840 5400 0
-2840 1560 0
-2840 -1720 0
2840 -4120 -5400 -1560 1720 0
-280 440 -4120 0
280 4120 0
-440 4120 0
280 -440 -5400 0
-280 5400 0
440 5400 0
-3000 4280 0
-3000 5560 0
-3000 1720 0
-3000 -1880 0
3000 -4280 -5560 -1720 1880 0
-440 600 -4280 0
440 4280 0
-600 4280 0
440 -600 -5560 0
-440 5560 0
600 5560 0
-3160 4440 0
-3160 5720 0
-3160 1880 0
-3160 -2040 0
3160 -4440 -5720 -1880 2040 0
-600 760 -4440 0
600 4440 0
-760 4440 0
600 -760 -5720 0
-600 5720 0
760 5720 0
-3320 4600 0
-3320 5880 0
-3320 2040 0
-3320 -2200 0
3320 -4600 -5880 -2040 2200 0
-760 920 -4600 0
760 4600 0
-920 4600 0
760 -920 -5880 0
-760 5880 0
920 5880 0
-3480 4760 0
-3480 6040 0
-3480 2200 0
-3480 -2360 0
3480 -4760 -6040 -2200 2360 0
-920 1080 -4760 0
920 4760 0
-1080 4760 0
920 -1080 -6040 0
-920 6040 0
1080 6040 0
-3640 4920 0
-3640 6200 0
-3640 2360 0
-3640 -2520 0
3640 -4920 -6200 -2360 2520 0
-1080 1240 -4920 0
1080 4920 0
-1240 4920 0
1080 -1240 -6200 0
-1080 6200 0
1240 6200 0
6680 7960 0
6680 9240 0
-6680 -7960 -9240 0
-280 120 -7960 0
280 7960 0
-120 7960 0
280 -120 -9240 0
-280 9240 0
120 9240 0
6840 8120 0
6840 9400 0
-6840 -8120 -9400 0
-440 280 -8120 0
440 8120 0
-280 8120 0
440 -280 -9400 0
-440 9400 0
280 9400 0
7000 8280 0
7000 9560 0
-7000 -8280 -9560 0
-600 440 -8280 0
600 8280 0
-440 8280 0
600 -440 -9560 0
-600 9560 0
440 9560 0
7160 8440 0
7160 9720 0
-7160 -8440 -9720 0
-760 600 -8440 0
760 8440 0
-600 8440 0
760 -600 -9720 0
-760 9720 0
600 9720 0
7320 8600 0
7320 9880 0
-7320 -8600 -9880 0
-920 760 -8600 0
920 8600 0
-760 8600 0
920 -760 -9880 0
-920 9880 0
760 9880 0
7480 8760 0
7480 10040 0
-7480 -8760 -10040 0
-1080 920 -8760 0
1080 8760 0
-920 8760 0
1080 -920 -10040 0
-1080 10040 0
920 10040 0
7640 8920 0
7640 10200 0
-7640 -8920 -10200 0
-1240 1080 -8920 0
1240 8920 0
-1080 8920 0
1240 -1080 -10200 0
-1240 10200 0
1080 10200 0
1401 0
-2521 0
-2681 3961 0
-2681 5241 0
-2681 1401 0
-2681 -1561 0
2681 -3961 -5241 -1401 1561 0
-121 281 -3961 0
121 3961 0
-281 3961 0
121 -281 -5241 0
-121 5241 0
281 5241 0
-2841 4121 0
-2841 5401 0
-2841 1561 0
-2841 -1721 0
2841 -4121 -5401 -1561 1721 0
-281 441 -4121 0
281 4121 0
-441 4121 0
281 -441 -5401 0
-281 5401 0
441 5401 0
-3001 4281 0
-3001 5561 0
-3001 1721 0
-3001 -1881 0
3001 -4281 -5561 -1721 1881 0
-441 601 -4281 0
441 4281 0
-601 4281 0
441 -601 -5561 0
-441 5561 0
601 5561 0
-3161 4441 0
-3161 5721 0
-3161 1881 0
-3161 -2041 0
3161 -4441 -5721 -1881 2041 0
-601 761 -4441 0
601 4441 0
-761 4441 0
601 -761 -5721 0
-601 5721 0
761 5721 0
-3321 4601 0
-3321 5881 0
-3321 2041 0
-3321 -2201 0
3321 -4601 -5881 -2041 2201 0
-761 921 -4601 0
761 4601 0
-921 4601 0
761 -921 -5881 0
-761 5881 0
921 5881 0
-3481 4761 0
-3481 6041 0
-3481 2201 0
-3481 -2361 0
3481 -4761 -6041 -2201 2361 0
-921 1081 -4761 0
921 4761 0
-1081 4761 0
921 -1081 -6041 0
-921 6041 0
1081 6041 0
-3641 4921 0
-3641 6201 0
-3641 2361 0
-3641 -2521 0
3641 -4921 -6201 -2361 2521 0
-1081 1241 -4921 0
1081 4921 0
-1241 4921 0
1081 -1241 -6201 0
-1081 6201 0
1241 6201 0
6681 7961 0
6681 9241 0
-6681 -7961 -9241 0
-281 121 -7961 0
281 7961 0
-121 7961 0
281 -121 -9241 0
-281 9241 0
121 9241 0
6841 8121 0
6841 9401 0
-6841 -8121 -9401 0
-441 281 -8121 0
441 8121 0
-281 8121 0
441 -281 -9401 0
-441 9401 0
281 9401 0
7001 8281 0
7001 9561 0
-7001 -8281 -9561 0
-601 441 -8281 0
601 8281 0
-441 8281 0
601 -441 -9561 0
-601 9561 0
441 9561 0
7161 8441 0
7161 9721 0
-7161 -8441 -9721 0
-761 601 -8441 0
761 8441 0
-601 8441 0
761 -601 -9721 0
-761 9721 0
601 9721 0
7321 8601 0
7321 9881 0
-7321 -8601 -9881 0
-921 761 -8601 0
921 8601 0
-761 8601 0
921 -761 -9881 0
-921 9881 0
761 9881 0
7481 8761 0
7481 10041 0
-7481 -8761 -10041 0
-1081 921 -8761 0
1081 8761 0
-921 8761 0
1081 -921 -10041 0
-1081 10041 0
921 10041 0
7641 8921 0
7641 10201 0
-7641 -8921 -10201 0
-1241 1081 -8921 0
1241 8921 0
-1081 8921 0
1241 -1081 -10201 0
-1241 10201 0
1081 10201 0
1402 0
-2522 0
-2682 3962 0
-2682 5242 0
-2682 1402 0
-2682 -1562 0
2682 -3962 -5242 -1402 1562 0
-122 282 -3962 0
122 3962 0
-282 3962 0
122 -282 -5242 0
-122 5242 0
282 5242 0
-2842 4122 0
-2842 5402 0
-2842 1562 0
-2842 -1722 0
2842 -4122 -5402 -1562 1722 0
-282 442 -4122 0
282 4122 0
-442 4122 0
282 -442 -5402 0
-282 5402 0
442 5402 0
-3002 4282 0
-3002 5562 0
-3002 1722 0
-3002 -1882 0
3002 -4282 -5562 -1722 1882 0
-442 602 -4282 0
442 4282 0
-602 4282 0
442 -602 -5562 0
-442 5562 0
602 5562 0
-3162 4442 0
-3162 5722 0
-3162 1882 0
-3162 -2042 0
3162 -4442 -5722 -1882 2042 0
-602 762 -4442 0
602 4442 0
-762 4442 0
602 -762 -5722 0
-602 5722 0
762 5722 0
-3322 4602 0
-3322 5882 0
-3322 2042 0
-3322 -2202 0
3322 -4602 -5882 -2042 2202 0
-762 922 -4602 0
762 4602 0
-922 4602 0
762 -922 -5882 0
-762 5882 0
922 5882 0
-3482 4762 0
-3482 6042 0
-3482 2202 0
-3482 -2362 0
3482 -4762 -6042 -2202 2362 0
-922 1082 -4762 0
922 4762 0
-1082 4762 0
922 -1082 -6042 0
-922 6042 0
1082 6042 0
-3642 4922 0
-3642 6202 0
-3642 2362 0
-3642 -2522 0
3642 -4922 -6202 -2362 2522 0
-1082 1242 -4922 0
1082 4922 0
-1242 4922 0
1082 -1242 -6202 0
-1082 6202 0
1242 6202 0
6682 7962 0
6682 9242 0
-6682 -7962 -9242 0
-282 122 -7962 0
282 7962 0
-122 7962 0
282 -122 -9242 0
-282 9242 0
122 9242 0
6842 8122 0
6842 9402 0
-6842 -8122 -9402 0
-442 282 -8122 0
442 8122 0
-282 8122 0
442 -282 -9402 0
-442 9402 0
282 9402 0
7002 8282 0
7002 9562 0
-7002 -8282 -9562 0
-602 442 -8282 0
602 8282 0
-442 8282 0
602 -442 -9562 0
-602 9562 0
442 9562 0
7162 8442 0
7162 9722 0
-7162 -8442 -9722 0
-762 602 -8442 0
762 8442 0
-602 8442 0
762 -602 -9722 0
-762 9722 0
602 9722 0
7322 8602 0
7322 9882 0
-7322 -8602 -9882 0
-922 762 -8602 0
922 8602 0
-762 8602 0
922 -762 -9882 0
-922 9882 0
762 9882 0
7482 8762 0
7482 10042 0
-7482 -8762 -10042 0
-1082 922 -8762 0
1082 8762 0
-922 8762 0
1082 -922 -10042 0
-1082 10042 0
922 10042 0
7642 8922 0
7642 10202 0
-7642 -8922 -10202 0
-1242 1082 -8922 0
1242 8922 0
-1082 8922 0
1242 -1082 -10202 0
-1242 10202 0
1082 10202 0
1403 0
-2523 0
-2683 3963 0
-2683 5243 0
-2683 1403 0
-2683 -1563 0
2683 -3963 -5243 -1403 1563 0
-123 283 -3963 0
123 3963 0
-283 3963 0
123 -283 -5243 0
-123 5243 0
283 5243 0
-2843 4123 0
-2843 5403 0
-2843 1563 0
-2843 -1723 0
2843 -4123 -5403 -1563 1723 0
-283 443 -4123 0
283 4123 0
-443 4123 0
283 -443 -5403 0
-283 5403 0
443 5403 0
-3003 4283 0
-3003 5563 0
-3003 1723 0
-3003 -1883 0
3003 -4283 -5563 -1723 1883 0
-443 603 -4283 0
443 4283 0
-603 4283 0
443 -603 -5563 0
-443 5563 0
603 5563 0
-3163 4443 0
-3163 5723 0
-3163 1883 0
-3163 -2043 0
3163 -4443 -5723 -1883 2043 0
-603 763 -4443 0
603 4443 0
-763 4443 0
603 -763 -5723 0
-603 5723 0
763 5723 0
-3323 4603 0
-3323 5883 0
-3323 2043 0
-3323 -2203 0
3323 -4603 -5883 -2043 2203 0
-763 923 -4603 0
763 4603 0
-923 4603 0
763 -923 -5883 0
-763 5883 0
923 5883 0
-3483 4763 0
-3483 6043 0
-3483 2203 0
-3483 -2363 0
3483 -4763 -6043 -2203 2363 0
-923 1083 -4763 0
923 4763 0
-1083 4763 0
923 -1083 -6043 0
-923 6043 0
1083 6043 0
-3643 4923 0
-3643 6203 0
-3643 2363 0
-3643 -2523 0
3643 -4923 -6203 -2363 2523 0
-1083 1243 -4923 0
1083 4923 0
-1243 4923 0
1083 -1243 -6203 0
-1083 6203 0
1243 6203 0
6683 7963 0
6683 9243 0
-6683 -7963 -9243 0
-283 123 -7963 0
283 7963 0
-123 7963 0
283 -123 -9243 0
-283 9243 0
123 9243 0
6843 8123 0
6843 9403 0
-6843 -8123 -9403 0
-443 283 -8123 0
443 8123 0
-283 8123 0
443 -283 -9403 0
-443 9403 0
283 9403 0
7003 8283 0
7003 9563 0
-7003 -8283 -9563 0
-603 443 -8283 0
603 8283 0
-443 8283 0
603 -443 -9563 0
-603 9563 0
443 9563 0
7163 8443 0
7163 9723 0
-7163 -8443 -9723 0
-763 603 -8443 0
763 8443 0
-603 8443 0
763 -603 -9723 0
-763 9723 0
603 9723 0
7323 8603 0
7323 9883 0
-7323 -8603 -9883 0
-923 763 -8603 0
923 8603 0
-763 8603 0
923 -763 -9883 0
-923 9883 0
763 9883 0
7483 8763 0
7483 10043 0
-7483 -8763 -10043 0
-1083 923 -8763 0
1083 8763 0
-923 8763 0
1083 -923 -10043 0
-1083 10043 0
923 10043 0
7643 8923 0
7643 10203 0
-7643 -8923 -10203 0
-1243 1083 -8923 0
1243 8923 0
-1083 8923 0
1243 -1083 -10203 0
-1243 10203 0
1083 10203 0
1404 0
-2524 0
-2684 3964 0
-2684 5244 0
-2684 1404 0
-2684 -1564 0
2684 -3964 -5244 -1404 1564 0
-124 284 -3964 0
124 3964 0
-284 3964 0
124 -284 -5244 0
-124 5244 0
284 5244 0
-2844 4124 0
-2844 5404 0
-2844 1564 0
-2844 -1724 0
2844 -4124 -5404 -1564 1724 0
-284 444 -4124 0
284 4124 0
-444 4124 0
284 -444 -5404 0
-284 5404 0
444 5404 0
-3004 4284 0
-3004 5564 0
-3004 1724 0
-3004 -1884 0
3004 -4284 -5564 -1724 1884 0
-444 604 -4284 0
444 4284 0
-604 4284 0
444 -604 -5564 0
-444 5564 0
604 5564 0
-3164 4444 0
-3164 5724 0
-3164 1884 0
-3164 -2044 0
3164 -4444 -5724 -1884 2044 0
-604 764 -4444 0
604 4444 0
-764 4444 0
604 -764 -5724 0
-604 5724 0
764 5724 0
-3324 4604 0
-3324 5884 0
-3324 2044 0
-3324 -2204 0
3324 -4604 -5884 -2044 2204 0
-764 924 -4604 0
764 4604 0
-924 4604 0
764 -924 -5884 0
-764 5884 0
924 5884 0
-3484 4764 0
-3484 6044 0
-3484 2204 0
-3484 -2364 0
3484 -4764 -6044 -2204 2364 0
-924 1084 -4764 0
924 4764 0
-1084 4764 0
924 -1084 -6044 0
-924 6044 0
1084 6044 0
-3644 4924 0
-3644 6204 0
-3644 2364 0
-3644 -2524 0
3644 -4924 -6204 -2364 2524 0
-1084 1244 -4924 0
1084 4924 0
-1244 4924 0
1084 -1244 -6204 0
-1084 6204 0
1244 6204 0
6684 7964 0
6684 9244 0
-6684 -7964 -9244 0
-284 124 -7964 0
284 7964 0
-124 7964 0
284 -124 -9244 0
-284 9244 0
124 9244 0
6844 8124 0
6844 9404 0
-6844 -8124 -9404 0
-444 284 -8124 0
444 8124 0
-284 8124 0
444 -284 -9404 0
-444 9404 0
284 9404 0
7004 8284 0
7004 9564 0
-7004 -8284 -9564 0
-604 444 -8284 0
604 8284 0
-444 8284 0
604 -444 -9564 0
-604 9564 0
444 9564 0
7164 8444 0
7164 9724 0
-7164 -8444 -9724 0
-764 604 -8444 0
764 8444 0
-604 8444 0
764 -604 -9724 0
-764 9724 0
604 9724 0
7324 8604 0
7324 9884 0
-7324 -8604 -9884 0
-924 764 -8604 0
924 8604 0
-764 8604 0
924 -764 -9884 0
-924 9884 0
764 9884 0
7484 8764 0
7484 10044 0
-7484 -8764 -10044 0
-1084 924 -8764 0
1084 8764 0
-924 8764 0
1084 -924 -10044 0
-1084 10044 0
924 10044 0
7644 8924 0
7644 10204 0
-7644 -8924 -10204 0
-1244 1084 -8924 0
1244 8924 0
-1084 8924 0
1244 -1084 -10204 0
-1244 10204 0
1084 10204 0
1405 0
-2525 0
-2685 3965 0
-2685 5245 0
-2685 1405 0
-2685 -1565 0
2685 -3965 -5245 -1405 1565 0
-125 285 -3965 0
125 3965 0
-285 3965 0
125 -285 -5245 0
-125 5245 0
285 5245 0
-2845 4125 0
-2845 5405 0
-2845 1565 0
-2845 -1725 0
2845 -4125 -5405 -1565 1725 0
-285 445 -4125 0
285 4125 0
-445 4125 0
285 -445 -5405 0
-285 5405 0
445 5405 0
-3005 4285 0
-3005 5565 0
-3005 1725 0
-3005 -1885 0
3005 -4285 -5565 -1725 1885 0
-445 605 -4285 0
445 4285 0
-605 4285 0
445 -605 -5565 0
-445 5565 0
605 5565 0
-3165 4445 0
-3165 5725 0
-3165 1885 0
-3165 -2045 0
3165 -4445 -5725 -1885 2045 0
-605 765 -4445 0
605 4445 0
-765 4445 0
605 -765 -5725 0
-605 5725 0
765 5725 0
-3325 4605 0
-3325 5885 0
-3325 2045 0
-3325 -2205 0
3325 -4605 -5885 -2045 2205 0
-765 925 -4605 0
765 4605 0
-925 4605 0
765 -925 -5885 0
-765 5885 0
925 5885 0
-3485 4765 0
-3485 6045 0
-3485 2205 0
-3485 -2365 0
3485 -4765 -6045 -2205 2365 0
-925 1085 -4765 0
925 4765 0
-1085 4765 0
925 -1085 -6045 0
-925 6045 0
1085 6045 0
-3645 4925 0
-3645 6205 0
-3645 2365 0
-3645 -2525 0
3645 -4925 -6205 -2365 2525 0
-1085 1245 -4925 0
1085 4925 0
-1245 4925 0
1085 -1245 -6205 0
-1085 6205 0
1245 6205 0
6685 7965 0
6685 9245 0
-6685 -7965 -9245 0
-285 125 -7965 0
285 7965 0
-125 7965 0
285 -125 -9245 0
-285 9245 0
125 9245 0
6845 8125 0
6845 9405 0
-6845 -8125 -9405 0
-445 285 -8125 0
445 8125 0
-285 8125 0
445 -285 -9405 0
-445 9405 0
285 9405 0
7005 8285 0
7005 9565 0
-7005 -8285 -9565 0
-605 445 -8285 0
605 8285 0
-445 8285 0
605 -445 -9565 0
-605 9565 0
445 9565 0
7165 8445 0
7165 9725 0
-7165 -8445 -9725 0
-765 605 -8445 0
765 8445 0
-605 8445 0
765 -605 -9725 0
-765 9725 0
605 9725 0
7325 8605 0
7325 9885 0
-7325 -8605 -9885 0
-925 765 -8605 0
925 8605 0
-765 8605 0
925 -765 -9885 0
-925 9885 0
765 9885 0
7485 8765 0
7485 10045 0
-7485 -8765 -10045 0
-1085 925 -8765 0
1085 8765 0
-925 8765 0
1085 -925 -10045 0
-1085 10045 0
925 10045 0
7645 8925 0
7645 10205 0
-7645 -8925 -10205 0
-1245 1085 -8925 0
1245 8925 0
-1085 8925 0
1245 -1085 -10205 0
-1245 10205 0
1085 10205 0
1406 0
-2526 0
-2686 3966 0
-2686 5246 0
-2686 1406 0
-2686 -1566 0
2686 -3966 -5246 -1406 1566 0
-126 286 -3966 0
126 3966 0
-286 3966 0
126 -286 -5246 0
-126 5246 0
286 5246 0
-2846 4126 0
-2846 5406 0
-2846 1566 0
-2846 -1726 0
2846 -4126 -5406 -1566 1726 0
-286 446 -4126 0
286 4126 0
-446 4126 0
286 -446 -5406 0
-286 5406 0
446 5406 0
-3006 4286 0
-3006 5566 0
-3006 1726 0
-3006 -1886 0
3006 -4286 -5566 -1726 1886 0
-446 606 -4286 0
446 4286 0
-606 4286 0
446 -606 -5566 0
-446 5566 0
606 5566 0
-3166 4446 0
-3166 5726 0
-3166 1886 0
-3166 -2046 0
3166 -4446 -5726 -1886 2046 0
-606 766 -4446 0
606 4446 0
-766 4446 0
606 -766 -5726 0
-606 5726 0
766 5726 0
-3326 4606 0
-3326 5886 0
-3326 2046 0
-3326 -2206 0
3326 -4606 -5886 -2046 2206 0
-766 926 -4606 0
766 4606 0
-926 4606 0
766 -926 -5886 0
-766 5886 0
926 5886 0
-3486 4766 0
-3486 6046 0
-3486 2206 0
-3486 -2366 0
3486 -4766 -6046 -2206 2366 0
-926 1086 -4766 0
926 4766 0
-1086 4766 0
926 -1086 -6046 0
-926 6046 0
1086 6046 0
-3646 4926 0
-3646 6206 0
-3646 2366 0
-3646 -2526 0
3646 -4926 -6206 -2366 2526 0
-1086 1246 -4926 0
1086 4926 0
-1246 4926 0
1086 -1246 -6206 0
-1086 6206 0
1246 6206 0
6686 7966 0
6686 9246 0
-6686 -7966 -9246 0
-286 126 -7966 0
286 7966 0
-126 7966 0
286 -126 -9246 0
-286 9246 0
126 9246 0
6846 8126 0
6846 9406 0
-6846 -8126 -9406 0
-446 286 -8126 0
446 8126 0
-286 8126 0
446 -286 -9406 0
-446 9406 0
286 9406 0
7006 8286 0
7006 9566 0
-7006 -8286 -9566 0
-606 446 -8286 0
606 8286 0
-446 8286 0
606 -446 -9566 0
-606 9566 0
446 9566 0
7166 8446 0
7166 9726 0
-7166 -8446 -9726 0
-766 606 -8446 0
766 8446 0
-606 8446 0
766 -606 -9726 0
-766 9726 0
606 9726 0
7326 8606 0
7326 9886 0
-7326 -8606 -9886 0
-926 766 -8606 0
926 8606 0
-766 8606 0
926 -766 -9886 0
-926 9886 0
766 9886 0
7486 8766 0
7486 10046 0
-7486 -8766 -10046 0
-1086 926 -8766 0
1086 8766 0
-926 8766 0
1086 -926 -10046 0
-1086 10046 0
926 10046 0
7646 8926 0
7646 10206 0
-7646 -8926 -10206 0
-1246 1086 -8926 0
1246 8926 0
-1086 8926 0
1246 -1086 -10206 0
-1246 10206 0
1086 10206 0
1407 0
-2527 0
-2687 3967 0
-2687 5247 0
-2687 1407 0
-2687 -1567 0
2687 -3967 -5247 -1407 1567 0
-127 287 -3967 0
127 3967 0
-287 3967 0
127 -287 -5247 0
-127 5247 0
287 5247 0
-2847 4127 0
-2847 5407 0
-2847 1567 0
-2847 -1727 0
2847 -4127 -5407 -1567 1727 0
-287 447 -4127 0
287 4127 0
-447 4127 0
287 -447 -5407 0
-287 5407 0
447 5407 0
-3007 4287 0
-3007 5567 0
-3007 1727 0
-3007 -1887 0
3007 -4287 -5567 -1727 1887 0
-447 607 -4287 0
447 4287 0
-607 4287 0
447 -607 -5567 0
-447 5567 0
607 5567 0
-3167 4447 0
-3167 5727 0
-3167 1887 0
-3167 -2047 0
3167 -4447 -5727 -1887 2047 0
-607 767 -4447 0
607 4447 0
-767 4447 0
607 -767 -5727 0
-607 5727 0
767 5727 0
-3327 4607 0
-3327 5887 0
-3327 2047 0
-3327 -2207 0
3327 -4607 -5887 -2047 2207 0
-767 927 -4607 0
767 4607 0
-927 4607 0
767 -927 -5887 0
-767 5887 0
927 5887 0
-3487 4767 0
-3487 6047 0
-3487 2207 0
-3487 -2367 0
3487 -4767 -6047 -2207 2367 0
-927 1087 -4767 0
927 4767 0
-1087 4767 0
927 -1087 -6047 0
-927 6047 0
1087 6047 0
-3647 4927 0
-3647 6207 0
-3647 2367 0
-3647 -2527 0
3647 -4927 -6207 -2367 2527 0
-1087 1247 -4927 0
1087 4927 0
-1247 4927 0
1087 -1247 -6207 0
-1087 6207 0
1247 6207 0
6687 7967 0
6687 9247 0
-6687 -7967 -9247 0
-287 127 -7967 0
287 7967 0
-127 7967 0
287 -127 -9247 0
-287 9247 0
127 9247 0
6847 8127 0
6847 9407 0
-6847 -8127 -9407 0
-447 287 -8127 0
447 8127 0
-287 8127 0
447 -287 -9407 0
-447 9407 0
287 9407 0
7007 8287 0
7007 9567 0
-7007 -8287 -9567 0
-607 447 -8287 0
607 8287 0
-447 8287 0
607 -447 -9567 0
-607 9567 0
447 9567 0
7167 8447 0
7167 9727 0
-7167 -8447 -9727 0
-767 607 -8447 0
767 8447 0
-607 8447 0
767 -607 -9727 0
-767 9727 0
607 9727 0
7327 8607 0
7327 9887 0
-7327 -8607 -9887 0
-927 767 -8607 0
927 8607 0
-767 8607 0
927 -767 -9887 0
-927 9887 0
767 9887 0
7487 8767 0
7487 10047 0
-7487 -8767 -10047 0
-1087 927 -8767 0
1087 8767 0
-927 8767 0
1087 -927 -10047 0
-1087 10047 0
927 10047 0
7647 8927 0
7647 10207 0
-7647 -8927 -10207 0
-1247 1087 -8927 0
1247 8927 0
-1087 8927 0
1247 -1087 -10207 0
-1247 10207 0
1087 10207 0
1408 0
-2528 0
-2688 3968 0
-2688 5248 0
-2688 1408 0
-2688 -1568 0
2688 -3968 -5248 -1408 1568 0
-128 288 -3968 0
128 3968 0
-288 3968 0
128 -288 -5248 0
-128 5248 0
288 5248 0
-2848 4128 0
-2848 5408 0
-2848 1568 0
-2848 -1728 0
2848 -4128 -5408 -1568 1728 0
-288 448 -4128 0
288 4128 0
-448 4128 0
288 -448 -5408 0
-288 5408 0
448 5408 0
-3008 4288 0
-3008 5568 0
-3008 1728 0
-3008 -1888 0
3008 -4288 -5568 -1728 1888 0
-448 608 -4288 0
448 4288 0
-608 4288 0
448 -608 -5568 0
-448 5568 0
608 5568 0
-3168 4448 0
-3168 5728 0
-3168 1888 0
-3168 -2048 0
3168 -4448 -5728 -1888 2048 0
-608 768 -4448 0
608 4448 0
-768 4448 0
608 -768 -5728 0
-608 5728 0
768 5728 0
-3328 4608 0
-3328 5888 0
-3328 2048 0
-3328 -2208 0
3328 -4608 -5888 -2048 2208 0
-768 928 -4608 0
768 4608 0
-928 4608 0
768 -928 -5888 0
-768 5888 0
928 5888 0
-3488 4768 0
-3488 6048 0
-3488 2208 0
-3488 -2368 0
3488 -4768 -6048 -2208 2368 0
-928 1088 -4768 0
928 4768 0
-1088 4768 0
928 -1088 -6048 0
-928 6048 0
1088 6048 0
-3648 4928 0
-3648 6208 0
-3648 2368 0
-3648 -2528 0
3648 -4928 -6208 -2368 2528 0
-1088 1248 -4928 0
1088 4928 0
-1248 4928 0
1088 -1248 -6208 0
-1088 6208 0
1248 6208 0
6688 7968 0
6688 9248 0
-6688 -7968 -9248 0
-288 128 -7968 0
288 7968 0
-128 7968 0
288 -128 -9248 0
-288 9248 0
128 9248 0
6848 8128 0
6848 9408 0
-6848 -8128 -9408 0
-448 288 -8128 0
448 8128 0
-288 8128 0
448 -288 -9408 0
-448 9408 0
288 9408 0
7008 8288 0
7008 9568 0
-7008 -8288 -9568 0
-608 448 -8288 0
608 8288 0
-448 8288 0
608 -448 -9568 0
-608 9568 0
448 9568 0
7168 8448 0
7168 9728 0
-7168 -8448 -9728 0
-768 608 -8448 0
768 8448 0
-608 8448 0
768 -608 -9728 0
-768 9728 0
608 9728 0
7328 8608 0
7328 9888 0
-7328 -8608 -9888 0
-928 768 -8608 0
928 8608 0
-768 8608 0
928 -768 -9888 0
-928 9888 0
768 9888 0
7488 8768 0
7488 10048 0
-7488 -8768 -10048 0
-1088 928 -8768 0
1088 8768 0
-928 8768 0
1088 -928 -10048 0
-1088 10048 0
928 10048 0
7648 8928 0
7648 10208 0
-7648 -8928 -10208 0
-1248 1088 -8928 0
1248 8928 0
-1088 8928 0
1248 -1088 -10208 0
-1248 10208 0
1088 10208 0
1409 0
-2529 0
-2689 3969 0
-2689 5249 0
-2689 1409 0
-2689 -1569 0
2689 -3969 -5249 -1409 1569 0
-129 289 -3969 0
129 3969 0
-289 3969 0
129 -289 -5249 0
-129 5249 0
289 5249 0
-2849 4129 0
-2849 5409 0
-2849 1569 0
-2849 -1729 0
2849 -4129 -5409 -1569 1729 0
-289 449 -4129 0
289 4129 0
-449 4129 0
289 -449 -5409 0
-289 5409 0
449 5409 0
-3009 4289 0
-3009 5569 0
-3009 1729 0
-3009 -1889 0
3009 -4289 -5569 -1729 1889 0
-449 609 -4289 0
449 4289 0
-609 4289 0
449 -609 -5569 0
-449 5569 0
609 5569 0
-3169 4449 0
-3169 5729 0
-3169 1889 0
-3169 -2049 0
3169 -4449 -5729 -1889 2049 0
-609 769 -4449 0
609 4449 0
-769 4449 0
609 -769 -5729 0
-609 5729 0
769 5729 0
-3329 4609 0
-3329 5889 0
-3329 2049 0
-3329 -2209 0
3329 -4609 -5889 -2049 2209 0
-769 929 -4609 0
769 4609 0
-929 4609 0
769 -929 -5889 0
-769 5889 0
929 5889 0
-3489 4769 0
-3489 6049 0
-3489 2209 0
-3489 -2369 0
3489 -4769 -6049 -2209 2369 0
-929 1089 -4769 0
929 4769 0
-1089 4769 0
929 -1089 -6049 0
-929 6049 0
1089 6049 0
-3649 4929 0
-3649 6209 0
-3649 2369 0
-3649 -2529 0
3649 -4929 -6209 -2369 2529 0
-1089 1249 -4929 0
1089 4929 0
-1249 4929 0
1089 -1249 -6209 0
-1089 6209 0
1249 6209 0
6689 7969 0
6689 9249 0
-6689 -7969 -9249 0
-289 129 -7969 0
289 7969 0
-129 7969 0
289 -129 -9249 0
-289 9249 0
129 9249 0
6849 8129 0
6849 9409 0
-6849 -8129 -9409 0
-449 289 -8129 0
449 8129 0
-289 8129 0
449 -289 -9409 0
-449 9409 0
289 9409 0
7009 8289 0
7009 9569 0
-7009 -8289 -9569 0
-609 449 -8289 0
609 8289 0
-449 8289 0
609 -449 -9569 0
-609 9569 0
449 9569 0
7169 8449 0
7169 9729 0
-7169 -8449 -9729 0
-769 609 -8449 0
769 8449 0
-609 8449 0
769 -609 -9729 0
-769 9729 0
609 9729 0
7329 8609 0
7329 9889 0
-7329 -8609 -9889 0
-929 769 -8609 0
929 8609 0
-769 8609 0
929 -769 -9889 0
-929 9889 0
769 9889 0
7489 8769 0
7489 10049 0
-7489 -8769 -10049 0
-1089 929 -8769 0
1089 8769 0
-929 8769 0
1089 -929 -10049 0
-1089 10049 0
929 10049 0
7649 8929 0
7649 10209 0
-7649 -8929 -10209 0
-1249 1089 -8929 0
1249 8929 0
-1089 8929 0
1249 -1089 -10209 0
-1249 10209 0
1089 10209 0
1410 0
-2530 0
-2690 3970 0
-2690 5250 0
-2690 1410 0
-2690 -1570 0
2690 -3970 -5250 -1410 1570 0
-130 290 -3970 0
130 3970 0
-290 3970 0
130 -290 -5250 0
-130 5250 0
290 5250 0
-2850 4130 0
-2850 5410 0
-2850 1570 0
-2850 -1730 0
2850 -4130 -5410 -1570 1730 0
-290 450 -4130 0
290 4130 0
-450 4130 0
290 -450 -5410 0
-290 5410 0
450 5410 0
-3010 4290 0
-3010 5570 0
-3010 1730 0
-3010 -1890 0
3010 -4290 -5570 -1730 1890 0
-450 610 -4290 0
450 4290 0
-610 4290 0
450 -610 -5570 0
-450 5570 0
610 5570 0
-3170 4450 0
-3170 5730 0
-3170 1890 0
-3170 -2050 0
3170 -4450 -5730 -1890 2050 0
-610 770 -4450 0
610 4450 0
-770 4450 0
610 -770 -5730 0
-610 5730 0
770 5730 0
-3330 4610 0
-3330 5890 0
-3330 2050 0
-3330 -2210 0
3330 -4610 -5890 -2050 2210 0
-770 930 -4610 0
770 4610 0
-930 4610 0
770 -930 -5890 0
-770 5890 0
930 5890 0
-3490 4770 0
-3490 6050 0
-3490 2210 0
-3490 -2370 0
3490 -4770 -6050 -2210 2370 0
-930 1090 -4770 0
930 4770 0
-1090 4770 0
930 -1090 -6050 0
-930 6050 0
1090 6050 0
-3650 4930 0
-3650 6210 0
-3650 2370 0
-3650 -2530 0
3650 -4930 -6210 -2370 2530 0
-1090 1250 -4930 0
1090 4930 0
-1250 4930 0
1090 -1250 -6210 0
-1090 6210 0
1250 6210 0
6690 7970 0
6690 9250 0
-6690 -7970 -9250 0
-290 130 -7970 0
290 7970 0
-130 7970 0
290 -130 -9250 0
-290 9250 0
130 9250 0
6850 8130 0
6850 9410 0
-6850 -8130 -9410 0
-450 290 -8130 0
450 8130 0
-290 8130 0
450 -290 -9410 0
-450 9410 0
290 9410 0
7010 8290 0
7010 9570 0
-7010 -8290 -9570 0
-610 450 -8290 0
610 8290 0
-450 8290 0
610 -450 -9570 0
-610 9570 0
450 9570 0
7170 8450 0
7170 9730 0
-7170 -8450 -9730 0
-770 610 -8450 0
770 8450 0
-610 8450 0
770 -610 -9730 0
-770 9730 0
610 9730 0
7330 8610 0
7330 9890 0
-7330 -8610 -9890 0
-930 770 -8610 0
930 8610 0
-770 8610 0
930 -770 -9890 0
-930 9890 0
770 9890 0
7490 8770 0
7490 10050 0
-7490 -8770 -10050 0
-1090 930 -8770 0
1090 8770 0
-930 8770 0
1090 -930 -10050 0
-1090 10050 0
930 10050 0
7650 8930 0
7650 10210 0
-7650 -8930 -10210 0
-1250 1090 -8930 0
1250 8930 0
-1090 8930 0
1250 -1090 -10210 0
-1250 10210 0
1090 10210 0
1411 0
-2531 0
-2691 3971 0
-2691 5251 0
-2691 1411 0
-2691 -1571 0
2691 -3971 -5251 -1411 1571 0
-131 291 -3971 0
131 3971 0
-291 3971 0
131 -291 -5251 0
-131 5251 0
291 5251 0
-2851 4131 0
-2851 5411 0
-2851 1571 0
-2851 -1731 0
2851 -4131 -5411 -1571 1731 0
-291 451 -4131 0
291 4131 0
-451 4131 0
291 -451 -5411 0
-291 5411 0
451 5411 0
-3011 4291 0
-3011 5571 0
-3011 1731 0
-3011 -1891 0
3011 -4291 -5571 -1731 1891 0
-451 611 -4291 0
451 4291 0
-611 4291 0
451 -611 -5571 0
-451 5571 0
611 5571 0
-3171 4451 0
-3171 5731 0
-3171 1891 0
-3171 -2051 0
3171 -4451 -5731 -1891 2051 0
-611 771 -4451 0
611 4451 0
-771 4451 0
611 -771 -5731 0
-611 5731 0
771 5731 0
-3331 4611 0
-3331 5891 0
-3331 2051 0
-3331 -2211 0
3331 -4611 -5891 -2051 2211 0
-771 931 -4611 0
771 4611 0
-931 4611 0
771 -931 -5891 0
-771 5891 0
931 5891 0
-3491 4771 0
-3491 6051 0
-3491 2211 0
-3491 -2371 0
3491 -4771 -6051 -2211 2371 0
-931 1091 -4771 0
931 4771 0
-1091 4771 0
931 -1091 -6051 0
-931 6051 0
1091 6051 0
-3651 4931 0
-3651 6211 0
-3651 2371 0
-3651 -2531 0
3651 -4931 -6211 -2371 2531 0
-1091 1251 -4931 0
1091 4931 0
-1251 4931 0
1091 -1251 -6211 0
-1091 6211 0
1251 6211 0
6691 7971 0
6691 9251 0
-6691 -7971 -9251 0
-291 131 -7971 0
291 7971 0
-131 7971 0
291 -131 -9251 0
-291 9251 0
131 9251 0
6851 8131 0
6851 9411 0
-6851 -8131 -9411 0
-451 291 -8131 0
451 8131 0
-291 8131 0
451 -291 -9411 0
-451 9411 0
291 9411 0
7011 8291 0
7011 9571 0
-7011 -8291 -9571 0
-611 451 -8291 0
611 8291 0
-451 8291 0
611 -451 -9571 0
-611 9571 0
451 9571 0
7171 8451 0
7171 9731 0
-7171 -8451 -9731 0
-771 611 -8451 0
771 8451 0
-611 8451 0
771 -611 -9731 0
-771 9731 0
611 9731 0
7331 8611 0
7331 9891 0
-7331 -8611 -9891 0
-931 771 -8611 0
931 8611 0
-771 8611 0
931 -771 -9891 0
-931 9891 0
771 9891 0
7491 8771 0
7491 10051 0
-7491 -8771 -10051 0
-1091 931 -8771 0
1091 8771 0
-931 8771 0
1091 -931 -10051 0
-1091 10051 0
931 10051 0
7651 8931 0
7651 10211 0
-7651 -8931 -10211 0
-1251 1091 -8931 0
1251 8931 0
-1091 8931 0
1251 -1091 -10211 0
-1251 10211 0
1091 10211 0
1412 0
-2532 0
-2692 3972 0
-2692 5252 0
-2692 1412 0
-2692 -1572 0
2692 -3972 -5252 -1412 1572 0
-132 292 -3972 0
132 3972 0
-292 3972 0
132 -292 -5252 0
-132 5252 0
292 5252 0
-2852 4132 0
-2852 5412 0
-2852 1572 0
-2852 -1732 0
2852 -4132 -5412 -1572 1732 0
-292 452 -4132 0
292 4132 0
-452 4132 0
292 -452 -5412 0
-292 5412 0
452 5412 0
-3012 4292 0
-3012 5572 0
-3012 1732 0
-3012 -1892 0
3012 -4292 -5572 -1732 1892 0
-452 612 -4292 0
452 4292 0
-612 4292 0
452 -612 -5572 0
-452 5572 0
612 5572 0
-3172 4452 0
-3172 5732 0
-3172 1892 0
-3172 -2052 0
3172 -4452 -5732 -1892 2052 0
-612 772 -4452 0
612 4452 0
-772 4452 0
612 -772 -5732 0
-612 5732 0
772 5732 0
-3332 4612 0
-3332 5892 0
-3332 2052 0
-3332 -2212 0
3332 -4612 -5892 -2052 2212 0
-772 932 -4612 0
772 4612 0
-932 4612 0
772 -932 -5892 0
-772 5892 0
932 5892 0
-3492 4772 0
-3492 6052 0
-3492 2212 0
-3492 -2372 0
3492 -4772 -6052 -2212 2372 0
-932 1092 -4772 0
932 4772 0
-1092 4772 0
932 -1092 -6052 0
-932 6052 0
1092 6052 0
-3652 4932 0
-3652 6212 0
-3652 2372 0
-3652 -2532 0
3652 -4932 -6212 -2372 2532 0
-1092 1252 -4932 0
1092 4932 0
-1252 4932 0
1092 -1252 -6212 0
-1092 6212 0
1252 6212 0
6692 7972 0
6692 9252 0
-6692 -7972 -9252 0
-292 132 -7972 0
292 7972 0
-132 7972 0
292 -132 -9252 0
-292 9252 0
132 9252 0
6852 8132 0
6852 9412 0
-6852 -8132 -9412 0
-452 292 -8132 0
452 8132 0
-292 8132 0
452 -292 -9412 0
-452 9412 0
292 9412 0
7012 8292 0
7012 9572 0
-7012 -8292 -9572 0
-612 452 -8292 0
612 8292 0
-452 8292 0
612 -452 -9572 0
-612 9572 0
452 9572 0
7172 8452 0
7172 9732 0
-7172 -8452 -9732 0
-772 612 -8452 0
772 8452 0
-612 8452 0
772 -612 -9732 0
-772 9732 0
612 9732 0
7332 8612 0
7332 9892 0
-7332 -8612 -9892 0
-932 772 -8612 0
932 8612 0
-772 8612 0
932 -772 -9892 0
-932 9892 0
772 9892 0
7492 8772 0
7492 10052 0
-7492 -8772 -10052 0
-1092 932 -8772 0
1092 8772 0
-932 8772 0
1092 -932 -10052 0
-1092 10052 0
932 10052 0
7652 8932 0
7652 10212 0
-7652 -8932 -10212 0
-1252 1092 -8932 0
1252 8932 0
-1092 8932 0
1252 -1092 -10212 0
-1252 10212 0
1092 10212 0
1413 0
-2533 0
-2693 3973 0
-2693 5253 0
-2693 1413 0
-2693 -1573 0
2693 -3973 -5253 -1413 1573 0
-133 293 -3973 0
133 3973 0
-293 3973 0
133 -293 -5253 0
-133 5253 0
293 5253 0
-2853 4133 0
-2853 5413 0
-2853 1573 0
-2853 -1733 0
2853 -4133 -5413 -1573 1733 0
-293 453 -4133 0
293 4133 0
-453 4133 0
293 -453 -5413 0
-293 5413 0
453 5413 0
-3013 4293 0
-3013 5573 0
-3013 1733 0
-3013 -1893 0
3013 -4293 -5573 -1733 1893 0
-453 613 -4293 0
453 4293 0
-613 4293 0
453 -613 -5573 0
-453 5573 0
613 5573 0
-3173 4453 0
-3173 5733 0
-3173 1893 0
-3173 -2053 0
3173 -4453 -5733 -1893 2053 0
-613 773 -4453 0
613 4453 0
-773 4453 0
613 -773 -5733 0
-613 5733 0
773 5733 0
-3333 4613 0
-3333 5893 0
-3333 2053 0
-3333 -2213 0
3333 -4613 -5893 -2053 2213 0
-773 933 -4613 0
773 4613 0
-933 4613 0
773 -933 -5893 0
-773 5893 0
933 5893 0
-3493 4773 0
-3493 6053 0
-3493 2213 0
-3493 -2373 0
3493 -4773 -6053 -2213 2373 0
-933 1093 -4773 0
933 4773 0
-1093 4773 0
933 -1093 -6053 0
-933 6053 0
1093 6053 0
-3653 4933 0
-3653 6213 0
-3653 2373 0
-3653 -2533 0
3653 -4933 -6213 -2373 2533 0
-1093 1253 -4933 0
1093 4933 0
-1253 4933 0
1093 -1253 -6213 0
-1093 6213 0
1253 6213 0
6693 7973 0
6693 9253 0
-6693 -7973 -9253 0
-293 133 -7973 0
293 7973 0
-133 7973 0
293 -133 -9253 0
-293 9253 0
133 9253 0
6853 8133 0
6853 9413 0
-6853 -8133 -9413 0
-453 293 -8133 0
453 8133 0
-293 8133 0
453 -293 -9413 0
-453 9413 0
293 9413 0
7013 8293 0
7013 9573 0
-7013 -8293 -9573 0
-613 453 -8293 0
613 8293 0
-453 8293 0
613 -453 -9573 0
-613 9573 0
453 9573 0
7173 8453 0
7173 9733 0
-7173 -8453 -9733 0
-773 613 -8453 0
773 8453 0
-613 8453 0
773 -613 -9733 0
-773 9733 0
613 9733 0
7333 8613 0
7333 9893 0
-7333 -8613 -9893 0
-933 773 -8613 0
933 8613 0
-773 8613 0
933 -773 -9893 0
-933 9893 0
773 9893 0
7493 8773 0
7493 10053 0
-7493 -8773 -10053 0
-1093 933 -8773 0
1093 8773 0
-933 8773 0
1093 -933 -10053 0
-1093 10053 0
933 10053 0
7653 8933 0
7653 10213 0
-7653 -8933 -10213 0
-1253 1093 -8933 0
1253 8933 0
-1093 8933 0
1253 -1093 -10213 0
-1253 10213 0
1093 10213 0
1414 0
-2534 0
-2694 3974 0
-2694 5254 0
-2694 1414 0
-2694 -1574 0
2694 -3974 -5254 -1414 1574 0
-134 294 -3974 0
134 3974 0
-294 3974 0
134 -294 -5254 0
-134 5254 0
294 5254 0
-2854 4134 0
-2854 5414 0
-2854 1574 0
-2854 -1734 0
2854 -4134 -5414 -1574 1734 0
-294 454 -4134 0
294 4134 0
-454 4134 0
294 -454 -5414 0
-294 5414 0
454 5414 0
-3014 4294 0
-3014 5574 0
-3014 1734 0
-3014 -1894 0
3014 -4294 -5574 -1734 1894 0
-454 614 -4294 0
454 4294 0
-614 4294 0
454 -614 -5574 0
-454 5574 0
614 5574 0
-3174 4454 0
-3174 5734 0
-3174 1894 0
-3174 -2054 0
3174 -4454 -5734 -1894 2054 0
-614 774 -4454 0
614 4454 0
-774 4454 0
614 -774 -5734 0
-614 5734 0
774 5734 0
-3334 4614 0
-3334 5894 0
-3334 2054 0
-3334 -2214 0
3334 -4614 -5894 -2054 2214 0
-774 934 -4614 0
774 4614 0
-934 4614 0
774 -934 -5894 0
-774 5894 0
934 5894 0
-3494 4774 0
-3494 6054 0
-3494 2214 0
-3494 -2374 0
3494 -4774 -6054 -2214 2374 0
-934 1094 -4774 0
934 4774 0
-1094 4774 0
934 -1094 -6054 0
-934 6054 0
1094 6054 0
-3654 4934 0
-3654 6214 0
-3654 2374 0
-3654 -2534 0
3654 -4934 -6214 -2374 2534 0
-1094 1254 -4934 0
1094 4934 0
-1254 4934 0
1094 -1254 -6214 0
-1094 6214 0
1254 6214 0
6694 7974 0
6694 9254 0
-6694 -7974 -9254 0
-294 134 -7974 0
294 7974 0
-134 7974 0
294 -134 -9254 0
-294 9254 0
134 9254 0
6854 8134 0
6854 9414 0
-6854 -8134 -9414 0
-454 294 -8134 0
454 8134 0
-294 8134 0
454 -294 -9414 0
-454 9414 0
294 9414 0
7014 8294 0
7014 9574 0
-7014 -8294 -9574 0
-614 454 -8294 0
614 8294 0
-454 8294 0
614 -454 -9574 0
-614 9574 0
454 9574 0
7174 8454 0
7174 9734 0
-7174 -8454 -9734 0
-774 614 -8454 0
774 8454 0
-614 8454 0
774 -614 -9734 0
-774 9734 0
614 9734 0
7334 8614 0
7334 9894 0
-7334 -8614 -9894 0
-934 774 -8614 0
934 8614 0
-774 8614 0
934 -774 -9894 0
-934 9894 0
774 9894 0
7494 8774 0
7494 10054 0
-7494 -8774 -10054 0
-1094 934 -8774 0
1094 8774 0
-934 8774 0
1094 -934 -10054 0
-1094 10054 0
934 10054 0
7654 8934 0
7654 10214 0
-7654 -8934 -10214 0
-1254 1094 -8934 0
1254 8934 0
-1094 8934 0
1254 -1094 -10214 0
-1254 10214 0
1094 10214 0
1415 0
-2535 0
-2695 3975 0
-2695 5255 0
-2695 1415 0
-2695 -1575 0
2695 -3975 -5255 -1415 1575 0
-135 295 -3975 0
135 3975 0
-295 3975 0
135 -295 -5255 0
-135 5255 0
295 5255 0
-2855 4135 0
-2855 5415 0
-2855 1575 0
-2855 -1735 0
2855 -4135 -5415 -1575 1735 0
-295 455 -4135 0
295 4135 0
-455 4135 0
295 -455 -5415 0
-295 5415 0
455 5415 0
-3015 4295 0
-3015 5575 0
-3015 1735 0
-3015 -1895 0
3015 -4295 -5575 -1735 1895 0
-455 615 -4295 0
455 4295 0
-615 4295 0
455 -615 -5575 0
-455 5575 0
615 5575 0
-3175 4455 0
-3175 5735 0
-3175 1895 0
-3175 -2055 0
3175 -4455 -5735 -1895 2055 0
-615 775 -4455 0
615 4455 0
-775 4455 0
615 -775 -5735 0
-615 5735 0
775 5735 0
-3335 4615 0
-3335 5895 0
-3335 2055 0
-3335 -2215 0
3335 -4615 -5895 -2055 2215 0
-775 935 -4615 0
775 4615 0
-935 4615 0
775 -935 -5895 0
-775 5895 0
935 5895 0
-3495 4775 0
-3495 6055 0
-3495 2215 0
-3495 -2375 0
3495 -4775 -6055 -2215 2375 0
-935 1095 -4775 0
935 4775 0
-1095 4775 0
935 -1095 -6055 0
-935 6055 0
1095 6055 0
-3655 4935 0
-3655 6215 0
-3655 2375 0
-3655 -2535 0
3655 -4935 -6215 -2375 2535 0
-1095 1255 -4935 0
1095 4935 0
-1255 4935 0
1095 -1255 -6215 0
-1095 6215 0
1255 6215 0
6695 7975 0
6695 9255 0
-6695 -7975 -9255 0
-295 135 -7975 0
295 7975 0
-135 7975 0
295 -135 -9255 0
-295 9255 0
135 9255 0
6855 8135 0
6855 9415 0
-6855 -8135 -9415 0
-455 295 -8135 0
455 8135 0
-295 8135 0
455 -295 -9415 0
-455 9415 0
295 9415 0
7015 8295 0
7015 9575 0
-7015 -8295 -9575 0
-615 455 -8295 0
615 8295 0
-455 8295 0
615 -455 -9575 0
-615 9575 0
455 9575 0
7175 8455 0
7175 9735 0
-7175 -8455 -9735 0
-775 615 -8455 0
775 8455 0
-615 8455 0
775 -615 -9735 0
-775 9735 0
615 9735 0
7335 8615 0
7335 9895 0
-7335 -8615 -9895 0
-935 775 -8615 0
935 8615 0
-775 8615 0
935 -775 -9895 0
-935 9895 0
775 9895 0
7495 8775 0
7495 10055 0
-7495 -8775 -10055 0
-1095 935 -8775 0
1095 8775 0
-935 8775 0
1095 -935 -10055 0
-1095 10055 0
935 10055 0
7655 8935 0
7655 10215 0
-7655 -8935 -10215 0
-1255 1095 -8935 0
1255 8935 0
-1095 8935 0
1255 -1095 -10215 0
-1255 10215 0
1095 10215 0
1416 0
-2536 0
-2696 3976 0
-2696 5256 0
-2696 1416 0
-2696 -1576 0
2696 -3976 -5256 -1416 1576 0
-136 296 -3976 0
136 3976 0
-296 3976 0
136 -296 -5256 0
-136 5256 0
296 5256 0
-2856 4136 0
-2856 5416 0
-2856 1576 0
-2856 -1736 0
2856 -4136 -5416 -1576 1736 0
-296 456 -4136 0
296 4136 0
-456 4136 0
296 -456 -5416 0
-296 5416 0
456 5416 0
-3016 4296 0
-3016 5576 0
-3016 1736 0
-3016 -1896 0
3016 -4296 -5576 -1736 1896 0
-456 616 -4296 0
456 4296 0
-616 4296 0
456 -616 -5576 0
-456 5576 0
616 5576 0
-3176 4456 0
-3176 5736 0
-3176 1896 0
-3176 -2056 0
3176 -4456 -5736 -1896 2056 0
-616 776 -4456 0
616 4456 0
-776 4456 0
616 -776 -5736 0
-616 5736 0
776 5736 0
-3336 4616 0
-3336 5896 0
-3336 2056 0
-3336 -2216 0
3336 -4616 -5896 -2056 2216 0
-776 936 -4616 0
776 4616 0
-936 4616 0
776 -936 -5896 0
-776 5896 0
936 5896 0
-3496 4776 0
-3496 6056 0
-3496 2216 0
-3496 -2376 0
3496 -4776 -6056 -2216 2376 0
-936 1096 -4776 0
936 4776 0
-1096 4776 0
936 -1096 -6056 0
-936 6056 0
1096 6056 0
-3656 4936 0
-3656 6216 0
-3656 2376 0
-3656 -2536 0
3656 -4936 -6216 -2376 2536 0
-1096 1256 -4936 0
1096 4936 0
-1256 4936 0
1096 -1256 -6216 0
-1096 6216 0
1256 6216 0
6696 7976 0
6696 9256 0
-6696 -7976 -9256 0
-296 136 -7976 0
296 7976 0
-136 7976 0
296 -136 -9256 0
-296 9256 0
136 9256 0
6856 8136 0
6856 9416 0
-6856 -8136 -9416 0
-456 296 -8136 0
456 8136 0
-296 8136 0
456 -296 -9416 0
-456 9416 0
296 9416 0
7016 8296 0
7016 9576 0
-7016 -8296 -9576 0
-616 456 -8296 0
616 8296 0
-456 8296 0
616 -456 -9576 0
-616 9576 0
456 9576 0
7176 8456 0
7176 9736 0
-7176 -8456 -9736 0
-776 616 -8456 0
776 8456 0
-616 8456 0
776 -616 -9736 0
-776 9736 0
616 9736 0
7336 8616 0
7336 9896 0
-7336 -8616 -9896 0
-936 776 -8616 0
936 8616 0
-776 8616 0
936 -776 -9896 0
-936 9896 0
776 9896 0
7496 8776 0
7496 10056 0
-7496 -8776 -10056 0
-1096 936 -8776 0
1096 8776 0
-936 8776 0
1096 -936 -10056 0
-1096 10056 0
936 10056 0
7656 8936 0
7656 10216 0
-7656 -8936 -10216 0
-1256 1096 -8936 0
1256 8936 0
-1096 8936 0
1256 -1096 -10216 0
-1256 10216 0
1096 10216 0
1417 0
-2537 0
-2697 3977 0
-2697 5257 0
-2697 1417 0
-2697 -1577 0
2697 -3977 -5257 -1417 1577 0
-137 297 -3977 0
137 3977 0
-297 3977 0
137 -297 -5257 0
-137 5257 0
297 5257 0
-2857 4137 0
-2857 5417 0
-2857 1577 0
-2857 -1737 0
2857 -4137 -5417 -1577 1737 0
-297 457 -4137 0
297 4137 0
-457 4137 0
297 -457 -5417 0
-297 5417 0
457 5417 0
-3017 4297 0
-3017 5577 0
-3017 1737 0
-3017 -1897 0
3017 -4297 -5577 -1737 1897 0
-457 617 -4297 0
457 4297 0
-617 4297 0
457 -617 -5577 0
-457 5577 0
617 5577 0
-3177 4457 0
-3177 5737 0
-3177 1897 0
-3177 -2057 0
3177 -4457 -5737 -1897 2057 0
-617 777 -4457 0
617 4457 0
-777 4457 0
617 -777 -5737 0
-617 5737 0
777 5737 0
-3337 4617 0
-3337 5897 0
-3337 2057 0
-3337 -2217 0
3337 -4617 -5897 -2057 2217 0
-777 937 -4617 0
777 4617 0
-937 4617 0
777 -937 -5897 0
-777 5897 0
937 5897 0
-3497 4777 0
-3497 6057 0
-3497 2217 0
-3497 -2377 0
3497 -4777 -6057 -2217 2377 0
-937 1097 -4777 0
937 4777 0
-1097 4777 0
937 -1097 -6057 0
-937 6057 0
1097 6057 0
-3657 4937 0
-3657 6217 0
-3657 2377 0
-3657 -2537 0
3657 -4937 -6217 -2377 2537 0
-1097 1257 -4937 0
1097 4937 0
-1257 4937 0
1097 -1257 -6217 0
-1097 6217 0
1257 6217 0
6697 7977 0
6697 9257 0
-6697 -7977 -9257 0
-297 137 -7977 0
297 7977 0
-137 7977 0
297 -137 -9257 0
-297 9257 0
137 9257 0
6857 8137 0
6857 9417 0
-6857 -8137 -9417 0
-457 297 -8137 0
457 8137 0
-297 8137 0
457 -297 -9417 0
-457 9417 0
297 9417 0
7017 8297 0
7017 9577 0
-7017 -8297 -9577 0
-617 457 -8297 0
617 8297 0
-457 8297 0
617 -457 -9577 0
-617 9577 0
457 9577 0
7177 8457 0
7177 9737 0
-7177 -8457 -9737 0
-777 617 -8457 0
777 8457 0
-617 8457 0
777 -617 -9737 0
-777 9737 0
617 9737 0
7337 8617 0
7337 9897 0
-7337 -8617 -9897 0
-937 777 -8617 0
937 8617 0
-777 8617 0
937 -777 -9897 0
-937 9897 0
777 9897 0
7497 8777 0
7497 10057 0
-7497 -8777 -10057 0
-1097 937 -8777 0
1097 8777 0
-937 8777 0
1097 -937 -10057 0
-1097 10057 0
937 10057 0
7657 8937 0
7657 10217 0
-7657 -8937 -10217 0
-1257 1097 -8937 0
1257 8937 0
-1097 8937 0
1257 -1097 -10217 0
-1257 10217 0
1097 10217 0
1418 0
-2538 0
-2698 3978 0
-2698 5258 0
-2698 1418 0
-2698 -1578 0
2698 -3978 -5258 -1418 1578 0
-138 298 -3978 0
138 3978 0
-298 3978 0
138 -298 -5258 0
-138 5258 0
298 5258 0
-2858 4138 0
-2858 5418 0
-2858 1578 0
-2858 -1738 0
2858 -4138 -5418 -1578 1738 0
-298 458 -4138 0
298 4138 0
-458 4138 0
298 -458 -5418 0
-298 5418 0
458 5418 0
-3018 4298 0
-3018 5578 0
-3018 1738 0
-3018 -1898 0
3018 -4298 -5578 -1738 1898 0
-458 618 -4298 0
458 4298 0
-618 4298 0
458 -618 -5578 0
-458 5578 0
618 5578 0
-3178 4458 0
-3178 5738 0
-3178 1898 0
-3178 -2058 0
3178 -4458 -5738 -1898 2058 0
-618 778 -4458 0
618 4458 0
-778 4458 0
618 -778 -5738 0
-618 5738 0
778 5738 0
-3338 4618 0
-3338 5898 0
-3338 2058 0
-3338 -2218 0
3338 -4618 -5898 -2058 2218 0
-778 938 -4618 0
778 4618 0
-938 4618 0
778 -938 -5898 0
-778 5898 0
938 5898 0
-3498 4778 0
-3498 6058 0
-3498 2218 0
-3498 -2378 0
3498 -4778 -6058 -2218 2378 0
-938 1098 -4778 0
938 4778 0
-1098 4778 0
938 -1098 -6058 0
-938 6058 0
1098 6058 0
-3658 4938 0
-3658 6218 0
-3658 2378 0
-3658 -2538 0
3658 -4938 -6218 -2378 2538 0
-1098 1258 -4938 0
1098 4938 0
-1258 4938 0
1098 -1258 -6218 0
-1098 6218 0
1258 6218 0
6698 7978 0
6698 9258 0
-6698 -7978 -9258 0
-298 138 -7978 0
298 7978 0
-138 7978 0
298 -138 -9258 0
-298 9258 0
138 9258 0
6858 8138 0
6858 9418 0
-6858 -8138 -9418 0
-458 298 -8138 0
458 8138 0
-298 8138 0
458 -298 -9418 0
-458 9418 0
298 9418 0
7018 8298 0
7018 9578 0
-7018 -8298 -9578 0
-618 458 -8298 0
618 8298 0
-458 8298 0
618 -458 -9578 0
-618 9578 0
458 9578 0
7178 8458 0
7178 9738 0
-7178 -8458 -9738 0
-778 618 -8458 0
778 8458 0
-618 8458 0
778 -618 -9738 0
-778 9738 0
618 9738 0
7338 8618 0
7338 9898 0
-7338 -8618 -9898 0
-938 778 -8618 0
938 8618 0
-778 8618 0
938 -778 -9898 0
-938 9898 0
778 9898 0
7498 8778 0
7498 10058 0
-7498 -8778 -10058 0
-1098 938 -8778 0
1098 8778 0
-938 8778 0
1098 -938 -10058 0
-1098 10058 0
938 10058 0
7658 8938 0
7658 10218 0
-7658 -8938 -10218 0
-1258 1098 -8938 0
1258 8938 0
-1098 8938 0
1258 -1098 -10218 0
-1258 10218 0
1098 10218 0
1419 0
-2539 0
-2699 3979 0
-2699 5259 0
-2699 1419 0
-2699 -1579 0
2699 -3979 -5259 -1419 1579 0
-139 299 -3979 0
139 3979 0
-299 3979 0
139 -299 -5259 0
-139 5259 0
299 5259 0
-2859 4139 0
-2859 5419 0
-2859 1579 0
-2859 -1739 0
2859 -4139 -5419 -1579 1739 0
-299 459 -4139 0
299 4139 0
-459 4139 0
299 -459 -5419 0
-299 5419 0
459 5419 0
-3019 4299 0
-3019 5579 0
-3019 1739 0
-3019 -1899 0
3019 -4299 -5579 -1739 1899 0
-459 619 -4299 0
459 4299 0
-619 4299 0
459 -619 -5579 0
-459 5579 0
619 5579 0
-3179 4459 0
-3179 5739 0
-3179 1899 0
-3179 -2059 0
3179 -4459 -5739 -1899 2059 0
-619 779 -4459 0
619 4459 0
-779 4459 0
619 -779 -5739 0
-619 5739 0
779 5739 0
-3339 4619 0
-3339 5899 0
-3339 2059 0
-3339 -2219 0
3339 -4619 -5899 -2059 2219 0
-779 939 -4619 0
779 4619 0
-939 4619 0
779 -939 -5899 0
-779 5899 0
939 5899 0
-3499 4779 0
-3499 6059 0
-3499 2219 0
-3499 -2379 0
3499 -4779 -6059 -2219 2379 0
-939 1099 -4779 0
939 4779 0
-1099 4779 0
939 -1099 -6059 0
-939 6059 0
1099 6059 0
-3659 4939 0
-3659 6219 0
-3659 2379 0
-3659 -2539 0
3659 -4939 -6219 -2379 2539 0
-1099 1259 -4939 0
1099 4939 0
-1259 4939 0
1099 -1259 -6219 0
-1099 6219 0
1259 6219 0
6699 7979 0
6699 9259 0
-6699 -7979 -9259 0
-299 139 -7979 0
299 7979 0
-139 7979 0
299 -139 -9259 0
-299 9259 0
139 9259 0
6859 8139 0
6859 9419 0
-6859 -8139 -9419 0
-459 299 -8139 0
459 8139 0
-299 8139 0
459 -299 -9419 0
-459 9419 0
299 9419 0
7019 8299 0
7019 9579 0
-7019 -8299 -9579 0
-619 459 -8299 0
619 8299 0
-459 8299 0
619 -459 -9579 0
-619 9579 0
459 9579 0
7179 8459 0
7179 9739 0
-7179 -8459 -9739 0
-779 619 -8459 0
779 8459 0
-619 8459 0
779 -619 -9739 0
-779 9739 0
619 9739 0
7339 8619 0
7339 9899 0
-7339 -8619 -9899 0
-939 779 -8619 0
939 8619 0
-779 8619 0
939 -779 -9899 0
-939 9899 0
779 9899 0
7499 8779 0
7499 10059 0
-7499 -8779 -10059 0
-1099 939 -8779 0
1099 8779 0
-939 8779 0
1099 -939 -10059 0
-1099 10059 0
939 10059 0
7659 8939 0
7659 10219 0
-7659 -8939 -10219 0
-1259 1099 -8939 0
1259 8939 0
-1099 8939 0
1259 -1099 -10219 0
-1259 10219 0
1099 10219 0
1420 0
-2540 0
-2700 3980 0
-2700 5260 0
-2700 1420 0
-2700 -1580 0
2700 -3980 -5260 -1420 1580 0
-140 300 -3980 0
140 3980 0
-300 3980 0
140 -300 -5260 0
-140 5260 0
300 5260 0
-2860 4140 0
-2860 5420 0
-2860 1580 0
-2860 -1740 0
2860 -4140 -5420 -1580 1740 0
-300 460 -4140 0
300 4140 0
-460 4140 0
300 -460 -5420 0
-300 5420 0
460 5420 0
-3020 4300 0
-3020 5580 0
-3020 1740 0
-3020 -1900 0
3020 -4300 -5580 -1740 1900 0
-460 620 -4300 0
460 4300 0
-620 4300 0
460 -620 -5580 0
-460 5580 0
620 5580 0
-3180 4460 0
-3180 5740 0
-3180 1900 0
-3180 -2060 0
3180 -4460 -5740 -1900 2060 0
-620 780 -4460 0
620 4460 0
-780 4460 0
620 -780 -5740 0
-620 5740 0
780 5740 0
-3340 4620 0
-3340 5900 0
-3340 2060 0
-3340 -2220 0
3340 -4620 -5900 -2060 2220 0
-780 940 -4620 0
780 4620 0
-940 4620 0
780 -940 -5900 0
-780 5900 0
940 5900 0
-3500 4780 0
-3500 6060 0
-3500 2220 0
-3500 -2380 0
3500 -4780 -6060 -2220 2380 0
-940 1100 -4780 0
940 4780 0
-1100 4780 0
940 -1100 -6060 0
-940 6060 0
1100 6060 0
-3660 4940 0
-3660 6220 0
-3660 2380 0
-3660 -2540 0
3660 -4940 -6220 -2380 2540 0
-1100 1260 -4940 0
1100 4940 0
-1260 4940 0
1100 -1260 -6220 0
-1100 6220 0
1260 6220 0
6700 7980 0
6700 9260 0
-6700 -7980 -9260 0
-300 140 -7980 0
300 7980 0
-140 7980 0
300 -140 -9260 0
-300 9260 0
140 9260 0
6860 8140 0
6860 9420 0
-6860 -8140 -9420 0
-460 300 -8140 0
460 8140 0
-300 8140 0
460 -300 -9420 0
-460 9420 0
300 9420 0
7020 8300 0
7020 9580 0
-7020 -8300 -9580 0
-620 460 -8300 0
620 8300 0
-460 8300 0
620 -460 -9580 0
-620 9580 0
460 9580 0
7180 8460 0
7180 9740 0
-7180 -8460 -9740 0
-780 620 -8460 0
780 8460 0
-620 8460 0
780 -620 -9740 0
-780 9740 0
620 9740 0
7340 8620 0
7340 9900 0
-7340 -8620 -9900 0
-940 780 -8620 0
940 8620 0
-780 8620 0
940 -780 -9900 0
-940 9900 0
780 9900 0
7500 8780 0
7500 10060 0
-7500 -8780 -10060 0
-1100 940 -8780 0
1100 8780 0
-940 8780 0
1100 -940 -10060 0
-1100 10060 0
940 10060 0
7660 8940 0
7660 10220 0
-7660 -8940 -10220 0
-1260 1100 -8940 0
1260 8940 0
-1100 8940 0
1260 -1100 -10220 0
-1260 10220 0
1100 10220 0
1421 0
-2541 0
-2701 3981 0
-2701 5261 0
-2701 1421 0
-2701 -1581 0
2701 -3981 -5261 -1421 1581 0
-141 301 -3981 0
141 3981 0
-301 3981 0
141 -301 -5261 0
-141 5261 0
301 5261 0
-2861 4141 0
-2861 5421 0
-2861 1581 0
-2861 -1741 0
2861 -4141 -5421 -1581 1741 0
-301 461 -4141 0
301 4141 0
-461 4141 0
301 -461 -5421 0
-301 5421 0
461 5421 0
-3021 4301 0
-3021 5581 0
-3021 1741 0
-3021 -1901 0
3021 -4301 -5581 -1741 1901 0
-461 621 -4301 0
461 4301 0
-621 4301 0
461 -621 -5581 0
-461 5581 0
621 5581 0
-3181 4461 0
-3181 5741 0
-3181 1901 0
-3181 -2061 0
3181 -4461 -5741 -1901 2061 0
-621 781 -4461 0
621 4461 0
-781 4461 0
621 -781 -5741 0
-621 5741 0
781 5741 0
-3341 4621 0
-3341 5901 0
-3341 2061 0
-3341 -2221 0
3341 -4621 -5901 -2061 2221 0
-781 941 -4621 0
781 4621 0
-941 4621 0
781 -941 -5901 0
-781 5901 0
941 5901 0
-3501 4781 0
-3501 6061 0
-3501 2221 0
-3501 -2381 0
3501 -4781 -6061 -2221 2381 0
-941 1101 -4781 0
941 4781 0
-1101 4781 0
941 -1101 -6061 0
-941 6061 0
1101 6061 0
-3661 4941 0
-3661 6221 0
-3661 2381 0
-3661 -2541 0
3661 -4941 -6221 -2381 2541 0
-1101 1261 -4941 0
1101 4941 0
-1261 4941 0
1101 -1261 -6221 0
-1101 6221 0
1261 6221 0
6701 7981 0
6701 9261 0
-6701 -7981 -9261 0
-301 141 -7981 0
301 7981 0
-141 7981 0
301 -141 -9261 0
-301 9261 0
141 9261 0
6861 8141 0
6861 9421 0
-6861 -8141 -9421 0
-461 301 -8141 0
461 8141 0
-301 8141 0
461 -301 -9421 0
-461 9421 0
301 9421 0
7021 8301 0
7021 9581 0
-7021 -8301 -9581 0
-621 461 -8301 0
621 8301 0
-461 8301 0
621 -461 -9581 0
-621 9581 0
461 9581 0
7181 8461 0
7181 9741 0
-7181 -8461 -9741 0
-781 621 -8461 0
781 8461 0
-621 8461 0
781 -621 -9741 0
-781 9741 0
621 9741 0
7341 8621 0
7341 9901 0
-7341 -8621 -9901 0
-941 781 -8621 0
941 8621 0
-781 8621 0
941 -781 -9901 0
-941 9901 0
781 9901 0
7501 8781 0
7501 10061 0
-7501 -8781 -10061 0
-1101 941 -8781 0
1101 8781 0
-941 8781 0
1101 -941 -10061 0
-1101 10061 0
941 10061 0
7661 8941 0
7661 10221 0
-7661 -8941 -10221 0
-1261 1101 -8941 0
1261 8941 0
-1101 8941 0
1261 -1101 -10221 0
-1261 10221 0
1101 10221 0
1422 0
-2542 0
-2702 3982 0
-2702 5262 0
-2702 1422 0
-2702 -1582 0
2702 -3982 -5262 -1422 1582 0
-142 302 -3982 0
142 3982 0
-302 3982 0
142 -302 -5262 0
-142 5262 0
302 5262 0
-2862 4142 0
-2862 5422 0
-2862 1582 0
-2862 -1742 0
2862 -4142 -5422 -1582 1742 0
-302 462 -4142 0
302 4142 0
-462 4142 0
302 -462 -5422 0
-302 5422 0
462 5422 0
-3022 4302 0
-3022 5582 0
-3022 1742 0
-3022 -1902 0
3022 -4302 -5582 -1742 1902 0
-462 622 -4302 0
462 4302 0
-622 4302 0
462 -622 -5582 0
-462 5582 0
622 5582 0
-3182 4462 0
-3182 5742 0
-3182 1902 0
-3182 -2062 0
3182 -4462 -5742 -1902 2062 0
-622 782 -4462 0
622 4462 0
-782 4462 0
622 -782 -5742 0
-622 5742 0
782 5742 0
-3342 4622 0
-3342 5902 0
-3342 2062 0
-3342 -2222 0
3342 -4622 -5902 -2062 2222 0
-782 942 -4622 0
782 4622 0
-942 4622 0
782 -942 -5902 0
-782 5902 0
942 5902 0
-3502 4782 0
-3502 6062 0
-3502 2222 0
-3502 -2382 0
3502 -4782 -6062 -2222 2382 0
-942 1102 -4782 0
942 4782 0
-1102 4782 0
942 -1102 -6062 0
-942 6062 0
1102 6062 0
-3662 4942 0
-3662 6222 0
-3662 2382 0
-3662 -2542 0
3662 -4942 -6222 -2382 2542 0
-1102 1262 -4942 0
1102 4942 0
-1262 4942 0
1102 -1262 -6222 0
-1102 6222 0
1262 6222 0
6702 7982 0
6702 9262 0
-6702 -7982 -9262 0
-302 142 -7982 0
302 7982 0
-142 7982 0
302 -142 -9262 0
-302 9262 0
142 9262 0
6862 8142 0
6862 9422 0
-6862 -8142 -9422 0
-462 302 -8142 0
462 8142 0
-302 8142 0
462 -302 -9422 0
-462 9422 0
302 9422 0
7022 8302 0
7022 9582 0
-7022 -8302 -9582 0
-622 462 -8302 0
622 8302 0
-462 8302 0
622 -462 -9582 0
-622 9582 0
462 9582 0
7182 8462 0
7182 9742 0
-7182 -8462 -9742 0
-782 622 -8462 0
782 8462 0
-622 8462 0
782 -622 -9742 0
-782 9742 0
622 9742 0
7342 8622 0
7342 9902 0
-7342 -8622 -9902 0
-942 782 -8622 0
942 8622 0
-782 8622 0
942 -782 -9902 0
-942 9902 0
782 9902 0
7502 8782 0
7502 10062 0
-7502 -8782 -10062 0
-1102 942 -8782 0
1102 8782 0
-942 8782 0
1102 -942 -10062 0
-1102 10062 0
942 10062 0
7662 8942 0
7662 10222 0
-7662 -8942 -10222 0
-1262 1102 -8942 0
1262 8942 0
-1102 8942 0
1262 -1102 -10222 0
-1262 10222 0
1102 10222 0
1423 0
-2543 0
-2703 3983 0
-2703 5263 0
-2703 1423 0
-2703 -1583 0
2703 -3983 -5263 -1423 1583 0
-143 303 -3983 0
143 3983 0
-303 3983 0
143 -303 -5263 0
-143 5263 0
303 5263 0
-2863 4143 0
-2863 5423 0
-2863 1583 0
-2863 -1743 0
2863 -4143 -5423 -1583 1743 0
-303 463 -4143 0
303 4143 0
-463 4143 0
303 -463 -5423 0
-303 5423 0
463 5423 0
-3023 4303 0
-3023 5583 0
-3023 1743 0
-3023 -1903 0
3023 -4303 -5583 -1743 1903 0
-463 623 -4303 0
463 4303 0
-623 4303 0
463 -623 -5583 0
-463 5583 0
623 5583 0
-3183 4463 0
-3183 5743 0
-3183 1903 0
-3183 -2063 0
3183 -4463 -5743 -1903 2063 0
-623 783 -4463 0
623 4463 0
-783 4463 0
623 -783 -5743 0
-623 5743 0
783 5743 0
-3343 4623 0
-3343 5903 0
-3343 2063 0
-3343 -2223 0
3343 -4623 -5903 -2063 2223 0
-783 943 -4623 0
783 4623 0
-943 4623 0
783 -943 -5903 0
-783 5903 0
943 5903 0
-3503 4783 0
-3503 6063 0
-3503 2223 0
-3503 -2383 0
3503 -4783 -6063 -2223 2383 0
-943 1103 -4783 0
943 4783 0
-1103 4783 0
943 -1103 -6063 0
-943 6063 0
1103 6063 0
-3663 4943 0
-3663 6223 0
-3663 2383 0
-3663 -2543 0
3663 -4943 -6223 -2383 2543 0
-1103 1263 -4943 0
1103 4943 0
-1263 4943 0
1103 -1263 -6223 0
-1103 6223 0
1263 6223 0
6703 7983 0
6703 9263 0
-6703 -7983 -9263 0
-303 143 -7983 0
303 7983 0
-143 7983 0
303 -143 -9263 0
-303 9263 0
143 9263 0
6863 8143 0
6863 9423 0
-6863 -8143 -9423 0
-463 303 -8143 0
463 8143 0
-303 8143 0
463 -303 -9423 0
-463 9423 0
303 9423 0
7023 8303 0
7023 9583 0
-7023 -8303 -9583 0
-623 463 -8303 0
623 8303 0
-463 8303 0
623 -463 -9583 0
-623 9583 0
463 9583 0
7183 8463 0
7183 9743 0
-7183 -8463 -9743 0
-783 623 -8463 0
783 8463 0
-623 8463 0
783 -623 -9743 0
-783 9743 0
623 9743 0
7343 8623 0
7343 9903 0
-7343 -8623 -9903 0
-943 783 -8623 0
943 8623 0
-783 8623 0
943 -783 -9903 0
-943 9903 0
783 9903 0
7503 8783 0
7503 10063 0
-7503 -8783 -10063 0
-1103 943 -8783 0
1103 8783 0
-943 8783 0
1103 -943 -10063 0
-1103 10063 0
943 10063 0
7663 8943 0
7663 10223 0
-7663 -8943 -10223 0
-1263 1103 -8943 0
1263 8943 0
-1103 8943 0
1263 -1103 -10223 0
-1263 10223 0
1103 10223 0
1424 0
-2544 0
-2704 3984 0
-2704 5264 0
-2704 1424 0
-2704 -1584 0
2704 -3984 -5264 -1424 1584 0
-144 304 -3984 0
144 3984 0
-304 3984 0
144 -304 -5264 0
-144 5264 0
304 5264 0
-2864 4144 0
-2864 5424 0
-2864 1584 0
-2864 -1744 0
2864 -4144 -5424 -1584 1744 0
-304 464 -4144 0
304 4144 0
-464 4144 0
304 -464 -5424 0
-304 5424 0
464 5424 0
-3024 4304 0
-3024 5584 0
-3024 1744 0
-3024 -1904 0
3024 -4304 -5584 -1744 1904 0
-464 624 -4304 0
464 4304 0
-624 4304 0
464 -624 -5584 0
-464 5584 0
624 5584 0
-3184 4464 0
-3184 5744 0
-3184 1904 0
-3184 -2064 0
3184 -4464 -5744 -1904 2064 0
-624 784 -4464 0
624 4464 0
-784 4464 0
624 -784 -5744 0
-624 5744 0
784 5744 0
-3344 4624 0
-3344 5904 0
-3344 2064 0
-3344 -2224 0
3344 -4624 -5904 -2064 2224 0
-784 944 -4624 0
784 4624 0
-944 4624 0
784 -944 -5904 0
-784 5904 0
944 5904 0
-3504 4784 0
-3504 6064 0
-3504 2224 0
-3504 -2384 0
3504 -4784 -6064 -2224 2384 0
-944 1104 -4784 0
944 4784 0
-1104 4784 0
944 -1104 -6064 0
-944 6064 0
1104 6064 0
-3664 4944 0
-3664 6224 0
-3664 2384 0
-3664 -2544 0
3664 -4944 -6224 -2384 2544 0
-1104 1264 -4944 0
1104 4944 0
-1264 4944 0
1104 -1264 -6224 0
-1104 6224 0
1264 6224 0
6704 7984 0
6704 9264 0
-6704 -7984 -9264 0
-304 144 -7984 0
304 7984 0
-144 7984 0
304 -144 -9264 0
-304 9264 0
144 9264 0
6864 8144 0
6864 9424 0
-6864 -8144 -9424 0
-464 304 -8144 0
464 8144 0
-304 8144 0
464 -304 -9424 0
-464 9424 0
304 9424 0
7024 8304 0
7024 9584 0
-7024 -8304 -9584 0
-624 464 -8304 0
624 8304 0
-464 8304 0
624 -464 -9584 0
-624 9584 0
464 9584 0
7184 8464 0
7184 9744 0
-7184 -8464 -9744 0
-784 624 -8464 0
784 8464 0
-624 8464 0
784 -624 -9744 0
-784 9744 0
624 9744 0
7344 8624 0
7344 9904 0
-7344 -8624 -9904 0
-944 784 -8624 0
944 8624 0
-784 8624 0
944 -784 -9904 0
-944 9904 0
784 9904 0
7504 8784 0
7504 10064 0
-7504 -8784 -10064 0
-1104 944 -8784 0
1104 8784 0
-944 8784 0
1104 -944 -10064 0
-1104 10064 0
944 10064 0
7664 8944 0
7664 10224 0
-7664 -8944 -10224 0
-1264 1104 -8944 0
1264 8944 0
-1104 8944 0
1264 -1104 -10224 0
-1264 10224 0
1104 10224 0
1425 0
-2545 0
-2705 3985 0
-2705 5265 0
-2705 1425 0
-2705 -1585 0
2705 -3985 -5265 -1425 1585 0
-145 305 -3985 0
145 3985 0
-305 3985 0
145 -305 -5265 0
-145 5265 0
305 5265 0
-2865 4145 0
-2865 5425 0
-2865 1585 0
-2865 -1745 0
2865 -4145 -5425 -1585 1745 0
-305 465 -4145 0
305 4145 0
-465 4145 0
305 -465 -5425 0
-305 5425 0
465 5425 0
-3025 4305 0
-3025 5585 0
-3025 1745 0
-3025 -1905 0
3025 -4305 -5585 -1745 1905 0
-465 625 -4305 0
465 4305 0
-625 4305 0
465 -625 -5585 0
-465 5585 0
625 5585 0
-3185 4465 0
-3185 5745 0
-3185 1905 0
-3185 -2065 0
3185 -4465 -5745 -1905 2065 0
-625 785 -4465 0
625 4465 0
-785 4465 0
625 -785 -5745 0
-625 5745 0
785 5745 0
-3345 4625 0
-3345 5905 0
-3345 2065 0
-3345 -2225 0
3345 -4625 -5905 -2065 2225 0
-785 945 -4625 0
785 4625 0
-945 4625 0
785 -945 -5905 0
-785 5905 0
945 5905 0
-3505 4785 0
-3505 6065 0
-3505 2225 0
-3505 -2385 0
3505 -4785 -6065 -2225 2385 0
-945 1105 -4785 0
945 4785 0
-1105 4785 0
945 -1105 -6065 0
-945 6065 0
1105 6065 0
-3665 4945 0
-3665 6225 0
-3665 2385 0
-3665 -2545 0
3665 -4945 -6225 -2385 2545 0
-1105 1265 -4945 0
1105 4945 0
-1265 4945 0
1105 -1265 -6225 0
-1105 6225 0
1265 6225 0
6705 7985 0
6705 9265 0
-6705 -7985 -9265 0
-305 145 -7985 0
305 7985 0
-145 7985 0
305 -145 -9265 0
-305 9265 0
145 9265 0
6865 8145 0
6865 9425 0
-6865 -8145 -9425 0
-465 305 -8145 0
465 8145 0
-305 8145 0
465 -305 -9425 0
-465 9425 0
305 9425 0
7025 8305 0
7025 9585 0
-7025 -8305 -9585 0
-625 465 -8305 0
625 8305 0
-465 8305 0
625 -465 -9585 0
-625 9585 0
465 9585 0
7185 8465 0
7185 9745 0
-7185 -8465 -9745 0
-785 625 -8465 0
785 8465 0
-625 8465 0
785 -625 -9745 0
-785 9745 0
625 9745 0
7345 8625 0
7345 9905 0
-7345 -8625 -9905 0
-945 785 -8625 0
945 8625 0
-785 8625 0
945 -785 -9905 0
-945 9905 0
785 9905 0
7505 8785 0
7505 10065 0
-7505 -8785 -10065 0
-1105 945 -8785 0
1105 8785 0
-945 8785 0
1105 -945 -10065 0
-1105 10065 0
945 10065 0
7665 8945 0
7665 10225 0
-7665 -8945 -10225 0
-1265 1105 -8945 0
1265 8945 0
-1105 8945 0
1265 -1105 -10225 0
-1265 10225 0
1105 10225 0
1426 0
-2546 0
-2706 3986 0
-2706 5266 0
-2706 1426 0
-2706 -1586 0
2706 -3986 -5266 -1426 1586 0
-146 306 -3986 0
146 3986 0
-306 3986 0
146 -306 -5266 0
-146 5266 0
306 5266 0
-2866 4146 0
-2866 5426 0
-2866 1586 0
-2866 -1746 0
2866 -4146 -5426 -1586 1746 0
-306 466 -4146 0
306 4146 0
-466 4146 0
306 -466 -5426 0
-306 5426 0
466 5426 0
-3026 4306 0
-3026 5586 0
-3026 1746 0
-3026 -1906 0
3026 -4306 -5586 -1746 1906 0
-466 626 -4306 0
466 4306 0
-626 4306 0
466 -626 -5586 0
-466 5586 0
626 5586 0
-3186 4466 0
-3186 5746 0
-3186 1906 0
-3186 -2066 0
3186 -4466 -5746 -1906 2066 0
-626 786 -4466 0
626 4466 0
-786 4466 0
626 -786 -5746 0
-626 5746 0
786 5746 0
-3346 4626 0
-3346 5906 0
-3346 2066 0
-3346 -2226 0
3346 -4626 -5906 -2066 2226 0
-786 946 -4626 0
786 4626 0
-946 4626 0
786 -946 -5906 0
-786 5906 0
946 5906 0
-3506 4786 0
-3506 6066 0
-3506 2226 0
-3506 -2386 0
3506 -4786 -6066 -2226 2386 0
-946 1106 -4786 0
946 4786 0
-1106 4786 0
946 -1106 -6066 0
-946 6066 0
1106 6066 0
-3666 4946 0
-3666 6226 0
-3666 2386 0
-3666 -2546 0
3666 -4946 -6226 -2386 2546 0
-1106 1266 -4946 0
1106 4946 0
-1266 4946 0
1106 -1266 -6226 0
-1106 6226 0
1266 6226 0
6706 7986 0
6706 9266 0
-6706 -7986 -9266 0
-306 146 -7986 0
306 7986 0
-146 7986 0
306 -146 -9266 0
-306 9266 0
146 9266 0
6866 8146 0
6866 9426 0
-6866 -8146 -9426 0
-466 306 -8146 0
466 8146 0
-306 8146 0
466 -306 -9426 0
-466 9426 0
306 9426 0
7026 8306 0
7026 9586 0
-7026 -8306 -9586 0
-626 466 -8306 0
626 8306 0
-466 8306 0
626 -466 -9586 0
-626 9586 0
466 9586 0
7186 8466 0
7186 9746 0
-7186 -8466 -9746 0
-786 626 -8466 0
786 8466 0
-626 8466 0
786 -626 -9746 0
-786 9746 0
626 9746 0
7346 8626 0
7346 9906 0
-7346 -8626 -9906 0
-946 786 -8626 0
946 8626 0
-786 8626 0
946 -786 -9906 0
-946 9906 0
786 9906 0
7506 8786 0
7506 10066 0
-7506 -8786 -10066 0
-1106 946 -8786 0
1106 8786 0
-946 8786 0
1106 -946 -10066 0
-1106 10066 0
946 10066 0
7666 8946 0
7666 10226 0
-7666 -8946 -10226 0
-1266 1106 -8946 0
1266 8946 0
-1106 8946 0
1266 -1106 -10226 0
-1266 10226 0
1106 10226 0
1427 0
-2547 0
-2707 3987 0
-2707 5267 0
-2707 1427 0
-2707 -1587 0
2707 -3987 -5267 -1427 1587 0
-147 307 -3987 0
147 3987 0
-307 3987 0
147 -307 -5267 0
-147 5267 0
307 5267 0
-2867 4147 0
-2867 5427 0
-2867 1587 0
-2867 -1747 0
2867 -4147 -5427 -1587 1747 0
-307 467 -4147 0
307 4147 0
-467 4147 0
307 -467 -5427 0
-307 5427 0
467 5427 0
-3027 4307 0
-3027 5587 0
-3027 1747 0
-3027 -1907 0
3027 -4307 -5587 -1747 1907 0
-467 627 -4307 0
467 4307 0
-627 4307 0
467 -627 -5587 0
-467 5587 0
627 5587 0
-3187 4467 0
-3187 5747 0
-3187 1907 0
-3187 -2067 0
3187 -4467 -5747 -1907 2067 0
-627 787 -4467 0
627 4467 0
-787 4467 0
627 -787 -5747 0
-627 5747 0
787 5747 0
-3347 4627 0
-3347 5907 0
-3347 2067 0
-3347 -2227 0
3347 -4627 -5907 -2067 2227 0
-787 947 -4627 0
787 4627 0
-947 4627 0
787 -947 -5907 0
-787 5907 0
947 5907 0
-3507 4787 0
-3507 6067 0
-3507 2227 0
-3507 -2387 0
3507 -4787 -6067 -2227 2387 0
-947 1107 -4787 0
947 4787 0
-1107 4787 0
947 -1107 -6067 0
-947 6067 0
1107 6067 0
-3667 4947 0
-3667 6227 0
-3667 2387 0
-3667 -2547 0
3667 -4947 -6227 -2387 2547 0
-1107 1267 -4947 0
1107 4947 0
-1267 4947 0
1107 -1267 -6227 0
-1107 6227 0
1267 6227 0
6707 7987 0
6707 9267 0
-6707 -7987 -9267 0
-307 147 -7987 0
307 7987 0
-147 7987 0
307 -147 -9267 0
-307 9267 0
147 9267 0
6867 8147 0
6867 9427 0
-6867 -8147 -9427 0
-467 307 -8147 0
467 8147 0
-307 8147 0
467 -307 -9427 0
-467 9427 0
307 9427 0
7027 8307 0
7027 9587 0
-7027 -8307 -9587 0
-627 467 -8307 0
627 8307 0
-467 8307 0
627 -467 -9587 0
-627 9587 0
467 9587 0
7187 8467 0
7187 9747 0
-7187 -8467 -9747 0
-787 627 -8467 0
787 8467 0
-627 8467 0
787 -627 -9747 0
-787 9747 0
627 9747 0
7347 8627 0
7347 9907 0
-7347 -8627 -9907 0
-947 787 -8627 0
947 8627 0
-787 8627 0
947 -787 -9907 0
-947 9907 0
787 9907 0
7507 8787 0
7507 10067 0
-7507 -8787 -10067 0
-1107 947 -8787 0
1107 8787 0
-947 8787 0
1107 -947 -10067 0
-1107 10067 0
947 10067 0
7667 8947 0
7667 10227 0
-7667 -8947 -10227 0
-1267 1107 -8947 0
1267 8947 0
-1107 8947 0
1267 -1107 -10227 0
-1267 10227 0
1107 10227 0
1428 0
-2548 0
-2708 3988 0
-2708 5268 0
-2708 1428 0
-2708 -1588 0
2708 -3988 -5268 -1428 1588 0
-148 308 -3988 0
148 3988 0
-308 3988 0
148 -308 -5268 0
-148 5268 0
308 5268 0
-2868 4148 0
-2868 5428 0
-2868 1588 0
-2868 -1748 0
2868 -4148 -5428 -1588 1748 0
-308 468 -4148 0
308 4148 0
-468 4148 0
308 -468 -5428 0
-308 5428 0
468 5428 0
-3028 4308 0
-3028 5588 0
-3028 1748 0
-3028 -1908 0
3028 -4308 -5588 -1748 1908 0
-468 628 -4308 0
468 4308 0
-628 4308 0
468 -628 -5588 0
-468 5588 0
628 5588 0
-3188 4468 0
-3188 5748 0
-3188 1908 0
-3188 -2068 0
3188 -4468 -5748 -1908 2068 0
-628 788 -4468 0
628 4468 0
-788 4468 0
628 -788 -5748 0
-628 5748 0
788 5748 0
-3348 4628 0
-3348 5908 0
-3348 2068 0
-3348 -2228 0
3348 -4628 -5908 -2068 2228 0
-788 948 -4628 0
788 4628 0
-948 4628 0
788 -948 -5908 0
-788 5908 0
948 5908 0
-3508 4788 0
-3508 6068 0
-3508 2228 0
-3508 -2388 0
3508 -4788 -6068 -2228 2388 0
-948 1108 -4788 0
948 4788 0
-1108 4788 0
948 -1108 -6068 0
-948 6068 0
1108 6068 0
-3668 4948 0
-3668 6228 0
-3668 2388 0
-3668 -2548 0
3668 -4948 -6228 -2388 2548 0
-1108 1268 -4948 0
1108 4948 0
-1268 4948 0
1108 -1268 -6228 0
-1108 6228 0
1268 6228 0
6708 7988 0
6708 9268 0
-6708 -7988 -9268 0
-308 148 -7988 0
308 7988 0
-148 7988 0
308 -148 -9268 0
-308 9268 0
148 9268 0
6868 8148 0
6868 9428 0
-6868 -8148 -9428 0
-468 308 -8148 0
468 8148 0
-308 8148 0
468 -308 -9428 0
-468 9428 0
308 9428 0
7028 8308 0
7028 9588 0
-7028 -8308 -9588 0
-628 468 -8308 0
628 8308 0
-468 8308 0
628 -468 -9588 0
-628 9588 0
468 9588 0
7188 8468 0
7188 9748 0
-7188 -8468 -9748 0
-788 628 -8468 0
788 8468 0
-628 8468 0
788 -628 -9748 0
-788 9748 0
628 9748 0
7348 8628 0
7348 9908 0
-7348 -8628 -9908 0
-948 788 -8628 0
948 8628 0
-788 8628 0
948 -788 -9908 0
-948 9908 0
788 9908 0
7508 8788 0
7508 10068 0
-7508 -8788 -10068 0
-1108 948 -8788 0
1108 8788 0
-948 8788 0
1108 -948 -10068 0
-1108 10068 0
948 10068 0
7668 8948 0
7668 10228 0
-7668 -8948 -10228 0
-1268 1108 -8948 0
1268 8948 0
-1108 8948 0
1268 -1108 -10228 0
-1268 10228 0
1108 10228 0
1429 0
-2549 0
-2709 3989 0
-2709 5269 0
-2709 1429 0
-2709 -1589 0
2709 -3989 -5269 -1429 1589 0
-149 309 -3989 0
149 3989 0
-309 3989 0
149 -309 -5269 0
-149 5269 0
309 5269 0
-2869 4149 0
-2869 5429 0
-2869 1589 0
-2869 -1749 0
2869 -4149 -5429 -1589 1749 0
-309 469 -4149 0
309 4149 0
-469 4149 0
309 -469 -5429 0
-309 5429 0
469 5429 0
-3029 4309 0
-3029 5589 0
-3029 1749 0
-3029 -1909 0
3029 -4309 -5589 -1749 1909 0
-469 629 -4309 0
469 4309 0
-629 4309 0
469 -629 -5589 0
-469 5589 0
629 5589 0
-3189 4469 0
-3189 5749 0
-3189 1909 0
-3189 -2069 0
3189 -4469 -5749 -1909 2069 0
-629 789 -4469 0
629 4469 0
-789 4469 0
629 -789 -5749 0
-629 5749 0
789 5749 0
-3349 4629 0
-3349 5909 0
-3349 2069 0
-3349 -2229 0
3349 -4629 -5909 -2069 2229 0
-789 949 -4629 0
789 4629 0
-949 4629 0
789 -949 -5909 0
-789 5909 0
949 5909 0
-3509 4789 0
-3509 6069 0
-3509 2229 0
-3509 -2389 0
3509 -4789 -6069 -2229 2389 0
-949 1109 -4789 0
949 4789 0
-1109 4789 0
949 -1109 -6069 0
-949 6069 0
1109 6069 0
-3669 4949 0
-3669 6229 0
-3669 2389 0
-3669 -2549 0
3669 -4949 -6229 -2389 2549 0
-1109 1269 -4949 0
1109 4949 0
-1269 4949 0
1109 -1269 -6229 0
-1109 6229 0
1269 6229 0
6709 7989 0
6709 9269 0
-6709 -7989 -9269 0
-309 149 -7989 0
309 7989 0
-149 7989 0
309 -149 -9269 0
-309 9269 0
149 9269 0
6869 8149 0
6869 9429 0
-6869 -8149 -9429 0
-469 309 -8149 0
469 8149 0
-309 8149 0
469 -309 -9429 0
-469 9429 0
309 9429 0
7029 8309 0
7029 9589 0
-7029 -8309 -9589 0
-629 469 -8309 0
629 8309 0
-469 8309 0
629 -469 -9589 0
-629 9589 0
469 9589 0
7189 8469 0
7189 9749 0
-7189 -8469 -9749 0
-789 629 -8469 0
789 8469 0
-629 8469 0
789 -629 -9749 0
-789 9749 0
629 9749 0
7349 8629 0
7349 9909 0
-7349 -8629 -9909 0
-949 789 -8629 0
949 8629 0
-789 8629 0
949 -789 -9909 0
-949 9909 0
789 9909 0
7509 8789 0
7509 10069 0
-7509 -8789 -10069 0
-1109 949 -8789 0
1109 8789 0
-949 8789 0
1109 -949 -10069 0
-1109 10069 0
949 10069 0
7669 8949 0
7669 10229 0
-7669 -8949 -10229 0
-1269 1109 -8949 0
1269 8949 0
-1109 8949 0
1269 -1109 -10229 0
-1269 10229 0
1109 10229 0
1430 0
-2550 0
-2710 3990 0
-2710 5270 0
-2710 1430 0
-2710 -1590 0
2710 -3990 -5270 -1430 1590 0
-150 310 -3990 0
150 3990 0
-310 3990 0
150 -310 -5270 0
-150 5270 0
310 5270 0
-2870 4150 0
-2870 5430 0
-2870 1590 0
-2870 -1750 0
2870 -4150 -5430 -1590 1750 0
-310 470 -4150 0
310 4150 0
-470 4150 0
310 -470 -5430 0
-310 5430 0
470 5430 0
-3030 4310 0
-3030 5590 0
-3030 1750 0
-3030 -1910 0
3030 -4310 -5590 -1750 1910 0
-470 630 -4310 0
470 4310 0
-630 4310 0
470 -630 -5590 0
-470 5590 0
630 5590 0
-3190 4470 0
-3190 5750 0
-3190 1910 0
-3190 -2070 0
3190 -4470 -5750 -1910 2070 0
-630 790 -4470 0
630 4470 0
-790 4470 0
630 -790 -5750 0
-630 5750 0
790 5750 0
-3350 4630 0
-3350 5910 0
-3350 2070 0
-3350 -2230 0
3350 -4630 -5910 -2070 2230 0
-790 950 -4630 0
790 4630 0
-950 4630 0
790 -950 -5910 0
-790 5910 0
950 5910 0
-3510 4790 0
-3510 6070 0
-3510 2230 0
-3510 -2390 0
3510 -4790 -6070 -2230 2390 0
-950 1110 -4790 0
950 4790 0
-1110 4790 0
950 -1110 -6070 0
-950 6070 0
1110 6070 0
-3670 4950 0
-3670 6230 0
-3670 2390 0
-3670 -2550 0
3670 -4950 -6230 -2390 2550 0
-1110 1270 -4950 0
1110 4950 0
-1270 4950 0
1110 -1270 -6230 0
-1110 6230 0
1270 6230 0
6710 7990 0
6710 9270 0
-6710 -7990 -9270 0
-310 150 -7990 0
310 7990 0
-150 7990 0
310 -150 -9270 0
-310 9270 0
150 9270 0
6870 8150 0
6870 9430 0
-6870 -8150 -9430 0
-470 310 -8150 0
470 8150 0
-310 8150 0
470 -310 -9430 0
-470 9430 0
310 9430 0
7030 8310 0
7030 9590 0
-7030 -8310 -9590 0
-630 470 -8310 0
630 8310 0
-470 8310 0
630 -470 -9590 0
-630 9590 0
470 9590 0
7190 8470 0
7190 9750 0
-7190 -8470 -9750 0
-790 630 -8470 0
790 8470 0
-630 8470 0
790 -630 -9750 0
-790 9750 0
630 9750 0
7350 8630 0
7350 9910 0
-7350 -8630 -9910 0
-950 790 -8630 0
950 8630 0
-790 8630 0
950 -790 -9910 0
-950 9910 0
790 9910 0
7510 8790 0
7510 10070 0
-7510 -8790 -10070 0
-1110 950 -8790 0
1110 8790 0
-950 8790 0
1110 -950 -10070 0
-1110 10070 0
950 10070 0
7670 8950 0
7670 10230 0
-7670 -8950 -10230 0
-1270 1110 -8950 0
1270 8950 0
-1110 8950 0
1270 -1110 -10230 0
-1270 10230 0
1110 10230 0
1431 0
-2551 0
-2711 3991 0
-2711 5271 0
-2711 1431 0
-2711 -1591 0
2711 -3991 -5271 -1431 1591 0
-151 311 -3991 0
151 3991 0
-311 3991 0
151 -311 -5271 0
-151 5271 0
311 5271 0
-2871 4151 0
-2871 5431 0
-2871 1591 0
-2871 -1751 0
2871 -4151 -5431 -1591 1751 0
-311 471 -4151 0
311 4151 0
-471 4151 0
311 -471 -5431 0
-311 5431 0
471 5431 0
-3031 4311 0
-3031 5591 0
-3031 1751 0
-3031 -1911 0
3031 -4311 -5591 -1751 1911 0
-471 631 -4311 0
471 4311 0
-631 4311 0
471 -631 -5591 0
-471 5591 0
631 5591 0
-3191 4471 0
-3191 5751 0
-3191 1911 0
-3191 -2071 0
3191 -4471 -5751 -1911 2071 0
-631 791 -4471 0
631 4471 0
-791 4471 0
631 -791 -5751 0
-631 5751 0
791 5751 0
-3351 4631 0
-3351 5911 0
-3351 2071 0
-3351 -2231 0
3351 -4631 -5911 -2071 2231 0
-791 951 -4631 0
791 4631 0
-951 4631 0
791 -951 -5911 0
-791 5911 0
951 5911 0
-3511 4791 0
-3511 6071 0
-3511 2231 0
-3511 -2391 0
3511 -4791 -6071 -2231 2391 0
-951 1111 -4791 0
951 4791 0
-1111 4791 0
951 -1111 -6071 0
-951 6071 0
1111 6071 0
-3671 4951 0
-3671 6231 0
-3671 2391 0
-3671 -2551 0
3671 -4951 -6231 -2391 2551 0
-1111 1271 -4951 0
1111 4951 0
-1271 4951 0
1111 -1271 -6231 0
-1111 6231 0
1271 6231 0
6711 7991 0
6711 9271 0
-6711 -7991 -9271 0
-311 151 -7991 0
311 7991 0
-151 7991 0
311 -151 -9271 0
-311 9271 0
151 9271 0
6871 8151 0
6871 9431 0
-6871 -8151 -9431 0
-471 311 -8151 0
471 8151 0
-311 8151 0
471 -311 -9431 0
-471 9431 0
311 9431 0
7031 8311 0
7031 9591 0
-7031 -8311 -9591 0
-631 471 -8311 0
631 8311 0
-471 8311 0
631 -471 -9591 0
-631 9591 0
471 9591 0
7191 8471 0
7191 9751 0
-7191 -8471 -9751 0
-791 631 -8471 0
791 8471 0
-631 8471 0
791 -631 -9751 0
-791 9751 0
631 9751 0
7351 8631 0
7351 9911 0
-7351 -8631 -9911 0
-951 791 -8631 0
951 8631 0
-791 8631 0
951 -791 -9911 0
-951 9911 0
791 9911 0
7511 8791 0
7511 10071 0
-7511 -8791 -10071 0
-1111 951 -8791 0
1111 8791 0
-951 8791 0
1111 -951 -10071 0
-1111 10071 0
951 10071 0
7671 8951 0
7671 10231 0
-7671 -8951 -10231 0
-1271 1111 -8951 0
1271 8951 0
-1111 8951 0
1271 -1111 -10231 0
-1271 10231 0
1111 10231 0
1432 0
-2552 0
-2712 3992 0
-2712 5272 0
-2712 1432 0
-2712 -1592 0
2712 -3992 -5272 -1432 1592 0
-152 312 -3992 0
152 3992 0
-312 3992 0
152 -312 -5272 0
-152 5272 0
312 5272 0
-2872 4152 0
-2872 5432 0
-2872 1592 0
-2872 -1752 0
2872 -4152 -5432 -1592 1752 0
-312 472 -4152 0
312 4152 0
-472 4152 0
312 -472 -5432 0
-312 5432 0
472 5432 0
-3032 4312 0
-3032 5592 0
-3032 1752 0
-3032 -1912 0
3032 -4312 -5592 -1752 1912 0
-472 632 -4312 0
472 4312 0
-632 4312 0
472 -632 -5592 0
-472 5592 0
632 5592 0
-3192 4472 0
-3192 5752 0
-3192 1912 0
-3192 -2072 0
3192 -4472 -5752 -1912 2072 0
-632 792 -4472 0
632 4472 0
-792 4472 0
632 -792 -5752 0
-632 5752 0
792 5752 0
-3352 4632 0
-3352 5912 0
-3352 2072 0
-3352 -2232 0
3352 -4632 -5912 -2072 2232 0
-792 952 -4632 0
792 4632 0
-952 4632 0
792 -952 -5912 0
-792 5912 0
952 5912 0
-3512 4792 0
-3512 6072 0
-3512 2232 0
-3512 -2392 0
3512 -4792 -6072 -2232 2392 0
-952 1112 -4792 0
952 4792 0
-1112 4792 0
952 -1112 -6072 0
-952 6072 0
1112 6072 0
-3672 4952 0
-3672 6232 0
-3672 2392 0
-3672 -2552 0
3672 -4952 -6232 -2392 2552 0
-1112 1272 -4952 0
1112 4952 0
-1272 4952 0
1112 -1272 -6232 0
-1112 6232 0
1272 6232 0
6712 7992 0
6712 9272 0
-6712 -7992 -9272 0
-312 152 -7992 0
312 7992 0
-152 7992 0
312 -152 -9272 0
-312 9272 0
152 9272 0
6872 8152 0
6872 9432 0
-6872 -8152 -9432 0
-472 312 -8152 0
472 8152 0
-312 8152 0
472 -312 -9432 0
-472 9432 0
312 9432 0
7032 8312 0
7032 9592 0
-7032 -8312 -9592 0
-632 472 -8312 0
632 8312 0
-472 8312 0
632 -472 -9592 0
-632 9592 0
472 9592 0
7192 8472 0
7192 9752 0
-7192 -8472 -9752 0
-792 632 -8472 0
792 8472 0
-632 8472 0
792 -632 -9752 0
-792 9752 0
632 9752 0
7352 8632 0
7352 9912 0
-7352 -8632 -9912 0
-952 792 -8632 0
952 8632 0
-792 8632 0
952 -792 -9912 0
-952 9912 0
792 9912 0
7512 8792 0
7512 10072 0
-7512 -8792 -10072 0
-1112 952 -8792 0
1112 8792 0
-952 8792 0
1112 -952 -10072 0
-1112 10072 0
952 10072 0
7672 8952 0
7672 10232 0
-7672 -8952 -10232 0
-1272 1112 -8952 0
1272 8952 0
-1112 8952 0
1272 -1112 -10232 0
-1272 10232 0
1112 10232 0
1433 0
-2553 0
-2713 3993 0
-2713 5273 0
-2713 1433 0
-2713 -1593 0
2713 -3993 -5273 -1433 1593 0
-153 313 -3993 0
153 3993 0
-313 3993 0
153 -313 -5273 0
-153 5273 0
313 5273 0
-2873 4153 0
-2873 5433 0
-2873 1593 0
-2873 -1753 0
2873 -4153 -5433 -1593 1753 0
-313 473 -4153 0
313 4153 0
-473 4153 0
313 -473 -5433 0
-313 5433 0
473 5433 0
-3033 4313 0
-3033 5593 0
-3033 1753 0
-3033 -1913 0
3033 -4313 -5593 -1753 1913 0
-473 633 -4313 0
473 4313 0
-633 4313 0
473 -633 -5593 0
-473 5593 0
633 5593 0
-3193 4473 0
-3193 5753 0
-3193 1913 0
-3193 -2073 0
3193 -4473 -5753 -1913 2073 0
-633 793 -4473 0
633 4473 0
-793 4473 0
633 -793 -5753 0
-633 5753 0
793 5753 0
-3353 4633 0
-3353 5913 0
-3353 2073 0
-3353 -2233 0
3353 -4633 -5913 -2073 2233 0
-793 953 -4633 0
793 4633 0
-953 4633 0
793 -953 -5913 0
-793 5913 0
953 5913 0
-3513 4793 0
-3513 6073 0
-3513 2233 0
-3513 -2393 0
3513 -4793 -6073 -2233 2393 0
-953 1113 -4793 0
953 4793 0
-1113 4793 0
953 -1113 -6073 0
-953 6073 0
1113 6073 0
-3673 4953 0
-3673 6233 0
-3673 2393 0
-3673 -2553 0
3673 -4953 -6233 -2393 2553 0
-1113 1273 -4953 0
1113 4953 0
-1273 4953 0
1113 -1273 -6233 0
-1113 6233 0
1273 6233 0
6713 7993 0
6713 9273 0
-6713 -7993 -9273 0
-313 153 -7993 0
313 7993 0
-153 7993 0
313 -153 -9273 0
-313 9273 0
153 9273 0
6873 8153 0
6873 9433 0
-6873 -8153 -9433 0
-473 313 -8153 0
473 8153 0
-313 8153 0
473 -313 -9433 0
-473 9433 0
313 9433 0
7033 8313 0
7033 9593 0
-7033 -8313 -9593 0
-633 473 -8313 0
633 8313 0
-473 8313 0
633 -473 -9593 0
-633 9593 0
473 9593 0
7193 8473 0
7193 9753 0
-7193 -8473 -9753 0
-793 633 -8473 0
793 8473 0
-633 8473 0
793 -633 -9753 0
-793 9753 0
633 9753 0
7353 8633 0
7353 9913 0
-7353 -8633 -9913 0
-953 793 -8633 0
953 8633 0
-793 8633 0
953 -793 -9913 0
-953 9913 0
793 9913 0
7513 8793 0
7513 10073 0
-7513 -8793 -10073 0
-1113 953 -8793 0
1113 8793 0
-953 8793 0
1113 -953 -10073 0
-1113 10073 0
953 10073 0
7673 8953 0
7673 10233 0
-7673 -8953 -10233 0
-1273 1113 -8953 0
1273 8953 0
-1113 8953 0
1273 -1113 -10233 0
-1273 10233 0
1113 10233 0
1434 0
-2554 0
-2714 3994 0
-2714 5274 0
-2714 1434 0
-2714 -1594 0
2714 -3994 -5274 -1434 1594 0
-154 314 -3994 0
154 3994 0
-314 3994 0
154 -314 -5274 0
-154 5274 0
314 5274 0
-2874 4154 0
-2874 5434 0
-2874 1594 0
-2874 -1754 0
2874 -4154 -5434 -1594 1754 0
-314 474 -4154 0
314 4154 0
-474 4154 0
314 -474 -5434 0
-314 5434 0
474 5434 0
-3034 4314 0
-3034 5594 0
-3034 1754 0
-3034 -1914 0
3034 -4314 -5594 -1754 1914 0
-474 634 -4314 0
474 4314 0
-634 4314 0
474 -634 -5594 0
-474 5594 0
634 5594 0
-3194 4474 0
-3194 5754 0
-3194 1914 0
-3194 -2074 0
3194 -4474 -5754 -1914 2074 0
-634 794 -4474 0
634 4474 0
-794 4474 0
634 -794 -5754 0
-634 5754 0
794 5754 0
-3354 4634 0
-3354 5914 0
-3354 2074 0
-3354 -2234 0
3354 -4634 -5914 -2074 2234 0
-794 954 -4634 0
794 4634 0
-954 4634 0
794 -954 -5914 0
-794 5914 0
954 5914 0
-3514 4794 0
-3514 6074 0
-3514 2234 0
-3514 -2394 0
3514 -4794 -6074 -2234 2394 0
-954 1114 -4794 0
954 4794 0
-1114 4794 0
954 -1114 -6074 0
-954 6074 0
1114 6074 0
-3674 4954 0
-3674 6234 0
-3674 2394 0
-3674 -2554 0
3674 -4954 -6234 -2394 2554 0
-1114 1274 -4954 0
1114 4954 0
-1274 4954 0
1114 -1274 -6234 0
-1114 6234 0
1274 6234 0
6714 7994 0
6714 9274 0
-6714 -7994 -9274 0
-314 154 -7994 0
314 7994 0
-154 7994 0
314 -154 -9274 0
-314 9274 0
154 9274 0
6874 8154 0
6874 9434 0
-6874 -8154 -9434 0
-474 314 -8154 0
474 8154 0
-314 8154 0
474 -314 -9434 0
-474 9434 0
314 9434 0
7034 8314 0
7034 9594 0
-7034 -8314 -9594 0
-634 474 -8314 0
634 8314 0
-474 8314 0
634 -474 -9594 0
-634 9594 0
474 9594 0
7194 8474 0
7194 9754 0
-7194 -8474 -9754 0
-794 634 -8474 0
794 8474 0
-634 8474 0
794 -634 -9754 0
-794 9754 0
634 9754 0
7354 8634 0
7354 9914 0
-7354 -8634 -9914 0
-954 794 -8634 0
954 8634 0
-794 8634 0
954 -794 -9914 0
-954 9914 0
794 9914 0
7514 8794 0
7514 10074 0
-7514 -8794 -10074 0
-1114 954 -8794 0
1114 8794 0
-954 8794 0
1114 -954 -10074 0
-1114 10074 0
954 10074 0
7674 8954 0
7674 10234 0
-7674 -8954 -10234 0
-1274 1114 -8954 0
1274 8954 0
-1114 8954 0
1274 -1114 -10234 0
-1274 10234 0
1114 10234 0
1435 0
-2555 0
-2715 3995 0
-2715 5275 0
-2715 1435 0
-2715 -1595 0
2715 -3995 -5275 -1435 1595 0
-155 315 -3995 0
155 3995 0
-315 3995 0
155 -315 -5275 0
-155 5275 0
315 5275 0
-2875 4155 0
-2875 5435 0
-2875 1595 0
-2875 -1755 0
2875 -4155 -5435 -1595 1755 0
-315 475 -4155 0
315 4155 0
-475 4155 0
315 -475 -5435 0
-315 5435 0
475 5435 0
-3035 4315 0
-3035 5595 0
-3035 1755 0
-3035 -1915 0
3035 -4315 -5595 -1755 1915 0
-475 635 -4315 0
475 4315 0
-635 4315 0
475 -635 -5595 0
-475 5595 0
635 5595 0
-3195 4475 0
-3195 5755 0
-3195 1915 0
-3195 -2075 0
3195 -4475 -5755 -1915 2075 0
-635 795 -4475 0
635 4475 0
-795 4475 0
635 -795 -5755 0
-635 5755 0
795 5755 0
-3355 4635 0
-3355 5915 0
-3355 2075 0
-3355 -2235 0
3355 -4635 -5915 -2075 2235 0
-795 955 -4635 0
795 4635 0
-955 4635 0
795 -955 -5915 0
-795 5915 0
955 5915 0
-3515 4795 0
-3515 6075 0
-3515 2235 0
-3515 -2395 0
3515 -4795 -6075 -2235 2395 0
-955 1115 -4795 0
955 4795 0
-1115 4795 0
955 -1115 -6075 0
-955 6075 0
1115 6075 0
-3675 4955 0
-3675 6235 0
-3675 2395 0
-3675 -2555 0
3675 -4955 -6235 -2395 2555 0
-1115 1275 -4955 0
1115 4955 0
-1275 4955 0
1115 -1275 -6235 0
-1115 6235 0
1275 6235 0
6715 7995 0
6715 9275 0
-6715 -7995 -9275 0
-315 155 -7995 0
315 7995 0
-155 7995 0
315 -155 -9275 0
-315 9275 0
155 9275 0
6875 8155 0
6875 9435 0
-6875 -8155 -9435 0
-475 315 -8155 0
475 8155 0
-315 8155 0
475 -315 -9435 0
-475 9435 0
315 9435 0
7035 8315 0
7035 9595 0
-7035 -8315 -9595 0
-635 475 -8315 0
635 8315 0
-475 8315 0
635 -475 -9595 0
-635 9595 0
475 9595 0
7195 8475 0
7195 9755 0
-7195 -8475 -9755 0
-795 635 -8475 0
795 8475 0
-635 8475 0
795 -635 -9755 0
-795 9755 0
635 9755 0
7355 8635 0
7355 9915 0
-7355 -8635 -9915 0
-955 795 -8635 0
955 8635 0
-795 8635 0
955 -795 -9915 0
-955 9915 0
795 9915 0
7515 8795 0
7515 10075 0
-7515 -8795 -10075 0
-1115 955 -8795 0
1115 8795 0
-955 8795 0
1115 -955 -10075 0
-1115 10075 0
955 10075 0
7675 8955 0
7675 10235 0
-7675 -8955 -10235 0
-1275 1115 -8955 0
1275 8955 0
-1115 8955 0
1275 -1115 -10235 0
-1275 10235 0
1115 10235 0
1436 0
-2556 0
-2716 3996 0
-2716 5276 0
-2716 1436 0
-2716 -1596 0
2716 -3996 -5276 -1436 1596 0
-156 316 -3996 0
156 3996 0
-316 3996 0
156 -316 -5276 0
-156 5276 0
316 5276 0
-2876 4156 0
-2876 5436 0
-2876 1596 0
-2876 -1756 0
2876 -4156 -5436 -1596 1756 0
-316 476 -4156 0
316 4156 0
-476 4156 0
316 -476 -5436 0
-316 5436 0
476 5436 0
-3036 4316 0
-3036 5596 0
-3036 1756 0
-3036 -1916 0
3036 -4316 -5596 -1756 1916 0
-476 636 -4316 0
476 4316 0
-636 4316 0
476 -636 -5596 0
-476 5596 0
636 5596 0
-3196 4476 0
-3196 5756 0
-3196 1916 0
-3196 -2076 0
3196 -4476 -5756 -1916 2076 0
-636 796 -4476 0
636 4476 0
-796 4476 0
636 -796 -5756 0
-636 5756 0
796 5756 0
-3356 4636 0
-3356 5916 0
-3356 2076 0
-3356 -2236 0
3356 -4636 -5916 -2076 2236 0
-796 956 -4636 0
796 4636 0
-956 4636 0
796 -956 -5916 0
-796 5916 0
956 5916 0
-3516 4796 0
-3516 6076 0
-3516 2236 0
-3516 -2396 0
3516 -4796 -6076 -2236 2396 0
-956 1116 -4796 0
956 4796 0
-1116 4796 0
956 -1116 -6076 0
-956 6076 0
1116 6076 0
-3676 4956 0
-3676 6236 0
-3676 2396 0
-3676 -2556 0
3676 -4956 -6236 -2396 2556 0
-1116 1276 -4956 0
1116 4956 0
-1276 4956 0
1116 -1276 -6236 0
-1116 6236 0
1276 6236 0
6716 7996 0
6716 9276 0
-6716 -7996 -9276 0
-316 156 -7996 0
316 7996 0
-156 7996 0
316 -156 -9276 0
-316 9276 0
156 9276 0
6876 8156 0
6876 9436 0
-6876 -8156 -9436 0
-476 316 -8156 0
476 8156 0
-316 8156 0
476 -316 -9436 0
-476 9436 0
316 9436 0
7036 8316 0
7036 9596 0
-7036 -8316 -9596 0
-636 476 -8316 0
636 8316 0
-476 8316 0
636 -476 -9596 0
-636 9596 0
476 9596 0
7196 8476 0
7196 9756 0
-7196 -8476 -9756 0
-796 636 -8476 0
796 8476 0
-636 8476 0
796 -636 -9756 0
-796 9756 0
636 9756 0
7356 8636 0
7356 9916 0
-7356 -8636 -9916 0
-956 796 -8636 0
956 8636 0
-796 8636 0
956 -796 -9916 0
-956 9916 0
796 9916 0
7516 8796 0
7516 10076 0
-7516 -8796 -10076 0
-1116 956 -8796 0
1116 8796 0
-956 8796 0
1116 -956 -10076 0
-1116 10076 0
956 10076 0
7676 8956 0
7676 10236 0
-7676 -8956 -10236 0
-1276 1116 -8956 0
1276 8956 0
-1116 8956 0
1276 -1116 -10236 0
-1276 10236 0
1116 10236 0
1437 0
-2557 0
-2717 3997 0
-2717 5277 0
-2717 1437 0
-2717 -1597 0
2717 -3997 -5277 -1437 1597 0
-157 317 -3997 0
157 3997 0
-317 3997 0
157 -317 -5277 0
-157 5277 0
317 5277 0
-2877 4157 0
-2877 5437 0
-2877 1597 0
-2877 -1757 0
2877 -4157 -5437 -1597 1757 0
-317 477 -4157 0
317 4157 0
-477 4157 0
317 -477 -5437 0
-317 5437 0
477 5437 0
-3037 4317 0
-3037 5597 0
-3037 1757 0
-3037 -1917 0
3037 -4317 -5597 -1757 1917 0
-477 637 -4317 0
477 4317 0
-637 4317 0
477 -637 -5597 0
-477 5597 0
637 5597 0
-3197 4477 0
-3197 5757 0
-3197 1917 0
-3197 -2077 0
3197 -4477 -5757 -1917 2077 0
-637 797 -4477 0
637 4477 0
-797 4477 0
637 -797 -5757 0
-637 5757 0
797 5757 0
-3357 4637 0
-3357 5917 0
-3357 2077 0
-3357 -2237 0
3357 -4637 -5917 -2077 2237 0
-797 957 -4637 0
797 4637 0
-957 4637 0
797 -957 -5917 0
-797 5917 0
957 5917 0
-3517 4797 0
-3517 6077 0
-3517 2237 0
-3517 -2397 0
3517 -4797 -6077 -2237 2397 0
-957 1117 -4797 0
957 4797 0
-1117 4797 0
957 -1117 -6077 0
-957 6077 0
1117 6077 0
-3677 4957 0
-3677 6237 0
-3677 2397 0
-3677 -2557 0
3677 -4957 -6237 -2397 2557 0
-1117 1277 -4957 0
1117 4957 0
-1277 4957 0
1117 -1277 -6237 0
-1117 6237 0
1277 6237 0
6717 7997 0
6717 9277 0
-6717 -7997 -9277 0
-317 157 -7997 0
317 7997 0
-157 7997 0
317 -157 -9277 0
-317 9277 0
157 9277 0
6877 8157 0
6877 9437 0
-6877 -8157 -9437 0
-477 317 -8157 0
477 8157 0
-317 8157 0
477 -317 -9437 0
-477 9437 0
317 9437 0
7037 8317 0
7037 9597 0
-7037 -8317 -9597 0
-637 477 -8317 0
637 8317 0
-477 8317 0
637 -477 -9597 0
-637 9597 0
477 9597 0
7197 8477 0
7197 9757 0
-7197 -8477 -9757 0
-797 637 -8477 0
797 8477 0
-637 8477 0
797 -637 -9757 0
-797 9757 0
637 9757 0
7357 8637 0
7357 9917 0
-7357 -8637 -9917 0
-957 797 -8637 0
957 8637 0
-797 8637 0
957 -797 -9917 0
-957 9917 0
797 9917 0
7517 8797 0
7517 10077 0
-7517 -8797 -10077 0
-1117 957 -8797 0
1117 8797 0
-957 8797 0
1117 -957 -10077 0
-1117 10077 0
957 10077 0
7677 8957 0
7677 10237 0
-7677 -8957 -10237 0
-1277 1117 -8957 0
1277 8957 0
-1117 8957 0
1277 -1117 -10237 0
-1277 10237 0
1117 10237 0
1438 0
-2558 0
-2718 3998 0
-2718 5278 0
-2718 1438 0
-2718 -1598 0
2718 -3998 -5278 -1438 1598 0
-158 318 -3998 0
158 3998 0
-318 3998 0
158 -318 -5278 0
-158 5278 0
318 5278 0
-2878 4158 0
-2878 5438 0
-2878 1598 0
-2878 -1758 0
2878 -4158 -5438 -1598 1758 0
-318 478 -4158 0
318 4158 0
-478 4158 0
318 -478 -5438 0
-318 5438 0
478 5438 0
-3038 4318 0
-3038 5598 0
-3038 1758 0
-3038 -1918 0
3038 -4318 -5598 -1758 1918 0
-478 638 -4318 0
478 4318 0
-638 4318 0
478 -638 -5598 0
-478 5598 0
638 5598 0
-3198 4478 0
-3198 5758 0
-3198 1918 0
-3198 -2078 0
3198 -4478 -5758 -1918 2078 0
-638 798 -4478 0
638 4478 0
-798 4478 0
638 -798 -5758 0
-638 5758 0
798 5758 0
-3358 4638 0
-3358 5918 0
-3358 2078 0
-3358 -2238 0
3358 -4638 -5918 -2078 2238 0
-798 958 -4638 0
798 4638 0
-958 4638 0
798 -958 -5918 0
-798 5918 0
958 5918 0
-3518 4798 0
-3518 6078 0
-3518 2238 0
-3518 -2398 0
3518 -4798 -6078 -2238 2398 0
-958 1118 -4798 0
958 4798 0
-1118 4798 0
958 -1118 -6078 0
-958 6078 0
1118 6078 0
-3678 4958 0
-3678 6238 0
-3678 2398 0
-3678 -2558 0
3678 -4958 -6238 -2398 2558 0
-1118 1278 -4958 0
1118 4958 0
-1278 4958 0
1118 -1278 -6238 0
-1118 6238 0
1278 6238 0
6718 7998 0
6718 9278 0
-6718 -7998 -9278 0
-318 158 -7998 0
318 7998 0
-158 7998 0
318 -158 -9278 0
-318 9278 0
158 9278 0
6878 8158 0
6878 9438 0
-6878 -8158 -9438 0
-478 318 -8158 0
478 8158 0
-318 8158 0
478 -318 -9438 0
-478 9438 0
318 9438 0
7038 8318 0
7038 9598 0
-7038 -8318 -9598 0
-638 478 -8318 0
638 8318 0
-478 8318 0
638 -478 -9598 0
-638 9598 0
478 9598 0
7198 8478 0
7198 9758 0
-7198 -8478 -9758 0
-798 638 -8478 0
798 8478 0
-638 8478 0
798 -638 -9758 0
-798 9758 0
638 9758 0
7358 8638 0
7358 9918 0
-7358 -8638 -9918 0
-958 798 -8638 0
958 8638 0
-798 8638 0
958 -798 -9918 0
-958 9918 0
798 9918 0
7518 8798 0
7518 10078 0
-7518 -8798 -10078 0
-1118 958 -8798 0
1118 8798 0
-958 8798 0
1118 -958 -10078 0
-1118 10078 0
958 10078 0
7678 8958 0
7678 10238 0
-7678 -8958 -10238 0
-1278 1118 -8958 0
1278 8958 0
-1118 8958 0
1278 -1118 -10238 0
-1278 10238 0
1118 10238 0
1439 0
-2559 0
-2719 3999 0
-2719 5279 0
-2719 1439 0
-2719 -1599 0
2719 -3999 -5279 -1439 1599 0
-159 319 -3999 0
159 3999 0
-319 3999 0
159 -319 -5279 0
-159 5279 0
319 5279 0
-2879 4159 0
-2879 5439 0
-2879 1599 0
-2879 -1759 0
2879 -4159 -5439 -1599 1759 0
-319 479 -4159 0
319 4159 0
-479 4159 0
319 -479 -5439 0
-319 5439 0
479 5439 0
-3039 4319 0
-3039 5599 0
-3039 1759 0
-3039 -1919 0
3039 -4319 -5599 -1759 1919 0
-479 639 -4319 0
479 4319 0
-639 4319 0
479 -639 -5599 0
-479 5599 0
639 5599 0
-3199 4479 0
-3199 5759 0
-3199 1919 0
-3199 -2079 0
3199 -4479 -5759 -1919 2079 0
-639 799 -4479 0
639 4479 0
-799 4479 0
639 -799 -5759 0
-639 5759 0
799 5759 0
-3359 4639 0
-3359 5919 0
-3359 2079 0
-3359 -2239 0
3359 -4639 -5919 -2079 2239 0
-799 959 -4639 0
799 4639 0
-959 4639 0
799 -959 -5919 0
-799 5919 0
959 5919 0
-3519 4799 0
-3519 6079 0
-3519 2239 0
-3519 -2399 0
3519 -4799 -6079 -2239 2399 0
-959 1119 -4799 0
959 4799 0
-1119 4799 0
959 -1119 -6079 0
-959 6079 0
1119 6079 0
-3679 4959 0
-3679 6239 0
-3679 2399 0
-3679 -2559 0
3679 -4959 -6239 -2399 2559 0
-1119 1279 -4959 0
1119 4959 0
-1279 4959 0
1119 -1279 -6239 0
-1119 6239 0
1279 6239 0
6719 7999 0
6719 9279 0
-6719 -7999 -9279 0
-319 159 -7999 0
319 7999 0
-159 7999 0
319 -159 -9279 0
-319 9279 0
159 9279 0
6879 8159 0
6879 9439 0
-6879 -8159 -9439 0
-479 319 -8159 0
479 8159 0
-319 8159 0
479 -319 -9439 0
-479 9439 0
319 9439 0
7039 8319 0
7039 9599 0
-7039 -8319 -9599 0
-639 479 -8319 0
639 8319 0
-479 8319 0
639 -479 -9599 0
-639 9599 0
479 9599 0
7199 8479 0
7199 9759 0
-7199 -8479 -9759 0
-799 639 -8479 0
799 8479 0
-639 8479 0
799 -639 -9759 0
-799 9759 0
639 9759 0
7359 8639 0
7359 9919 0
-7359 -8639 -9919 0
-959 799 -8639 0
959 8639 0
-799 8639 0
959 -799 -9919 0
-959 9919 0
799 9919 0
7519 8799 0
7519 10079 0
-7519 -8799 -10079 0
-1119 959 -8799 0
1119 8799 0
-959 8799 0
1119 -959 -10079 0
-1119 10079 0
959 10079 0
7679 8959 0
7679 10239 0
-7679 -8959 -10239 0
-1279 1119 -8959 0
1279 8959 0
-1119 8959 0
1279 -1119 -10239 0
-1279 10239 0
1119 10239 0
1440 0
-2560 0
-2720 4000 0
-2720 5280 0
-2720 1440 0
-2720 -1600 0
2720 -4000 -5280 -1440 1600 0
-160 320 -4000 0
160 4000 0
-320 4000 0
160 -320 -5280 0
-160 5280 0
320 5280 0
-2880 4160 0
-2880 5440 0
-2880 1600 0
-2880 -1760 0
2880 -4160 -5440 -1600 1760 0
-320 480 -4160 0
320 4160 0
-480 4160 0
320 -480 -5440 0
-320 5440 0
480 5440 0
-3040 4320 0
-3040 5600 0
-3040 1760 0
-3040 -1920 0
3040 -4320 -5600 -1760 1920 0
-480 640 -4320 0
480 4320 0
-640 4320 0
480 -640 -5600 0
-480 5600 0
640 5600 0
-3200 4480 0
-3200 5760 0
-3200 1920 0
-3200 -2080 0
3200 -4480 -5760 -1920 2080 0
-640 800 -4480 0
640 4480 0
-800 4480 0
640 -800 -5760 0
-640 5760 0
800 5760 0
-3360 4640 0
-3360 5920 0
-3360 2080 0
-3360 -2240 0
3360 -4640 -5920 -2080 2240 0
-800 960 -4640 0
800 4640 0
-960 4640 0
800 -960 -5920 0
-800 5920 0
960 5920 0
-3520 4800 0
-3520 6080 0
-3520 2240 0
-3520 -2400 0
3520 -4800 -6080 -2240 2400 0
-960 1120 -4800 0
960 4800 0
-1120 4800 0
960 -1120 -6080 0
-960 6080 0
1120 6080 0
-3680 4960 0
-3680 6240 0
-3680 2400 0
-3680 -2560 0
3680 -4960 -6240 -2400 2560 0
-1120 1280 -4960 0
1120 4960 0
-1280 4960 0
1120 -1280 -6240 0
-1120 6240 0
1280 6240 0
6720 8000 0
6720 9280 0
-6720 -8000 -9280 0
-320 160 -8000 0
320 8000 0
-160 8000 0
320 -160 -9280 0
-320 9280 0
160 9280 0
6880 8160 0
6880 9440 0
-6880 -8160 -9440 0
-480 320 -8160 0
480 8160 0
-320 8160 0
480 -320 -9440 0
-480 9440 0
320 9440 0
7040 8320 0
7040 9600 0
-7040 -8320 -9600 0
-640 480 -8320 0
640 8320 0
-480 8320 0
640 -480 -9600 0
-640 9600 0
480 9600 0
7200 8480 0
7200 9760 0
-7200 -8480 -9760 0
-800 640 -8480 0
800 8480 0
-640 8480 0
800 -640 -9760 0
-800 9760 0
640 9760 0
7360 8640 0
7360 9920 0
-7360 -8640 -9920 0
-960 800 -8640 0
960 8640 0
-800 8640 0
960 -800 -9920 0
-960 9920 0
800 9920 0
7520 8800 0
7520 10080 0
-7520 -8800 -10080 0
-1120 960 -8800 0
1120 8800 0
-960 8800 0
1120 -960 -10080 0
-1120 10080 0
960 10080 0
7680 8960 0
7680 10240 0
-7680 -8960 -10240 0
-1280 1120 -8960 0
1280 8960 0
-1120 8960 0
1280 -1120 -10240 0
-1280 10240 0
1120 10240 0
-13921 7521 0
13921 -7521 0
-12801 2561 0
12801 -2561 0
-13922 7522 0
13922 -7522 0
-12802 2562 0
12802 -2562 0
-13923 7523 0
13923 -7523 0
-12803 2563 0
12803 -2563 0
-13924 7524 0
13924 -7524 0
-12804 2564 0
12804 -2564 0
-13925 7525 0
13925 -7525 0
-12805 2565 0
12805 -2565 0
-13926 7526 0
13926 -7526 0
-12806 2566 0
12806 -2566 0
-13927 7527 0
13927 -7527 0
-12807 2567 0
12807 -2567 0
-13928 7528 0
13928 -7528 0
-12808 2568 0
12808 -2568 0
-13929 7529 0
13929 -7529 0
-12809 2569 0
12809 -2569 0
-13930 7530 0
13930 -7530 0
-12810 2570 0
12810 -2570 0
-13931 7531 0
13931 -7531 0
-12811 2571 0
12811 -2571 0
-13932 7532 0
13932 -7532 0
-12812 2572 0
12812 -2572 0
-13933 7533 0
13933 -7533 0
-12813 2573 0
12813 -2573 0
-13934 7534 0
13934 -7534 0
-12814 2574 0
12814 -2574 0
-13935 7535 0
13935 -7535 0
-12815 2575 0
12815 -2575 0
-13936 7536 0
13936 -7536 0
-12816 2576 0
12816 -2576 0
-13937 7537 0
13937 -7537 0
-12817 2577 0
12817 -2577 0
-13938 7538 0
13938 -7538 0
-12818 2578 0
12818 -2578 0
-13939 7539 0
13939 -7539 0
-12819 2579 0
12819 -2579 0
-13940 7540 0
13940 -7540 0
-12820 2580 0
12820 -2580 0
-13941 7541 0
13941 -7541 0
-12821 2581 0
12821 -2581 0
-13942 7542 0
13942 -7542 0
-12822 2582 0
12822 -2582 0
-13943 7543 0
13943 -7543 0
-12823 2583 0
12823 -2583 0
-13944 7544 0
13944 -7544 0
-12824 2584 0
12824 -2584 0
-13945 7545 0
13945 -7545 0
-12825 2585 0
12825 -2585 0
-13946 7546 0
13946 -7546 0
-12826 2586 0
12826 -2586 0
-13947 7547 0
13947 -7547 0
-12827 2587 0
12827 -2587 0
-13948 7548 0
13948 -7548 0
-12828 2588 0
12828 -2588 0
-13949 7549 0
13949 -7549 0
-12829 2589 0
12829 -2589 0
-13950 7550 0
13950 -7550 0
-12830 2590 0
12830 -2590 0
-13951 7551 0
13951 -7551 0
-12831 2591 0
12831 -2591 0
-13952 7552 0
13952 -7552 0
-12832 2592 0
12832 -2592 0
-13953 7553 0
13953 -7553 0
-12833 2593 0
12833 -2593 0
-13954 7554 0
13954 -7554 0
-12834 2594 0
12834 -2594 0
-13955 7555 0
13955 -7555 0
-12835 2595 0
12835 -2595 0
-13956 7556 0
13956 -7556 0
-12836 2596 0
12836 -2596 0
-13957 7557 0
13957 -7557 0
-12837 2597 0
12837 -2597 0
-13958 7558 0
13958 -7558 0
-12838 2598 0
12838 -2598 0
-13959 7559 0
13959 -7559 0
-12839 2599 0
12839 -2599 0
-13960 7560 0
13960 -7560 0
-12840 2600 0
12840 -2600 0
-13961 7561 0
13961 -7561 0
-12841 2601 0
12841 -2601 0
-13962 7562 0
13962 -7562 0
-12842 2602 0
12842 -2602 0
-13963 7563 0
13963 -7563 0
-12843 2603 0
12843 -2603 0
-13964 7564 0
13964 -7564 0
-12844 2604 0
12844 -2604 0
-13965 7565 0
13965 -7565 0
-12845 2605 0
12845 -2605 0
-13966 7566 0
13966 -7566 0
-12846 2606 0
12846 -2606 0
-13967 7567 0
13967 -7567 0
-12847 2607 0
12847 -2607 0
-13968 7568 0
13968 -7568 0
-12848 2608 0
12848 -2608 0
-13969 7569 0
13969 -7569 0
-12849 2609 0
12849 -2609 0
-13970 7570 0
13970 -7570 0
-12850 2610 0
12850 -2610 0
-13971 7571 0
13971 -7571 0
-12851 2611 0
12851 -2611 0
-13972 7572 0
13972 -7572 0
-12852 2612 0
12852 -2612 0
-13973 7573 0
13973 -7573 0
-12853 2613 0
12853 -2613 0
-13974 7574 0
13974 -7574 0
-12854 2614 0
12854 -2614 0
-13975 7575 0
13975 -7575 0
-12855 2615 0
12855 -2615 0
-13976 7576 0
13976 -7576 0
-12856 2616 0
12856 -2616 0
-13977 7577 0
13977 -7577 0
-12857 2617 0
12857 -2617 0
-13978 7578 0
13978 -7578 0
-12858 2618 0
12858 -2618 0
-13979 7579 0
13979 -7579 0
-12859 2619 0
12859 -2619 0
-13980 7580 0
13980 -7580 0
-12860 2620 0
12860 -2620 0
-13981 7581 0
13981 -7581 0
-12861 2621 0
12861 -2621 0
-13982 7582 0
13982 -7582 0
-12862 2622 0
12862 -2622 0
-13983 7583 0
13983 -7583 0
-12863 2623 0
12863 -2623 0
-13984 7584 0
13984 -7584 0
-12864 2624 0
12864 -2624 0
-13985 7585 0
13985 -7585 0
-12865 2625 0
12865 -2625 0
-13986 7586 0
13986 -7586 0
-12866 2626 0
12866 -2626 0
-13987 7587 0
13987 -7587 0
-12867 2627 0
12867 -2627 0
-13988 7588 0
13988 -7588 0
-12868 2628 0
12868 -2628 0
-13989 7589 0
13989 -7589 0
-12869 2629 0
12869 -2629 0
-13990 7590 0
13990 -7590 0
-12870 2630 0
12870 -2630 0
-13991 7591 0
13991 -7591 0
-12871 2631 0
12871 -2631 0
-13992 7592 0
13992 -7592 0
-12872 2632 0
12872 -2632 0
-13993 7593 0
13993 -7593 0
-12873 2633 0
12873 -2633 0
-13994 7594 0
13994 -7594 0
-12874 2634 0
12874 -2634 0
-13995 7595 0
13995 -7595 0
-12875 2635 0
12875 -2635 0
-13996 7596 0
13996 -7596 0
-12876 2636 0
12876 -2636 0
-13997 7597 0
13997 -7597 0
-12877 2637 0
12877 -2637 0
-13998 7598 0
13998 -7598 0
-12878 2638 0
12878 -2638 0
-13999 7599 0
13999 -7599 0
-12879 2639 0
12879 -2639 0
-14000 7600 0
14000 -7600 0
-12880 2640 0
12880 -2640 0
-14001 7601 0
14001 -7601 0
-12881 2641 0
12881 -2641 0
-14002 7602 0
14002 -7602 0
-12882 2642 0
12882 -2642 0
-14003 7603 0
14003 -7603 0
-12883 2643 0
12883 -2643 0
-14004 7604 0
14004 -7604 0
-12884 2644 0
12884 -2644 0
-14005 7605 0
14005 -7605 0
-12885 2645 0
12885 -2645 0
-14006 7606 0
14006 -7606 0
-12886 2646 0
12886 -2646 0
-14007 7607 0
14007 -7607 0
-12887 2647 0
12887 -2647 0
-14008 7608 0
14008 -7608 0
-12888 2648 0
12888 -2648 0
-14009 7609 0
14009 -7609 0
-12889 2649 0
12889 -2649 0
-14010 7610 0
14010 -7610 0
-12890 2650 0
12890 -2650 0
-14011 7611 0
14011 -7611 0
-12891 2651 0
12891 -2651 0
-14012 7612 0
14012 -7612 0
-12892 2652 0
12892 -2652 0
-14013 7613 0
14013 -7613 0
-12893 2653 0
12893 -2653 0
-14014 7614 0
14014 -7614 0
-12894 2654 0
12894 -2654 0
-14015 7615 0
14015 -7615 0
-12895 2655 0
12895 -2655 0
-14016 7616 0
14016 -7616 0
-12896 2656 0
12896 -2656 0
-14017 7617 0
14017 -7617 0
-12897 2657 0
12897 -2657 0
-14018 7618 0
14018 -7618 0
-12898 2658 0
12898 -2658 0
-14019 7619 0
14019 -7619 0
-12899 2659 0
12899 -2659 0
-14020 7620 0
14020 -7620 0
-12900 2660 0
12900 -2660 0
-14021 7621 0
14021 -7621 0
-12901 2661 0
12901 -2661 0
-14022 7622 0
14022 -7622 0
-12902 2662 0
12902 -2662 0
-14023 7623 0
14023 -7623 0
-12903 2663 0
12903 -2663 0
-14024 7624 0
14024 -7624 0
-12904 2664 0
12904 -2664 0
-14025 7625 0
14025 -7625 0
-12905 2665 0
12905 -2665 0
-14026 7626 0
14026 -7626 0
-12906 2666 0
12906 -2666 0
-14027 7627 0
14027 -7627 0
-12907 2667 0
12907 -2667 0
-14028 7628 0
14028 -7628 0
-12908 2668 0
12908 -2668 0
-14029 7629 0
14029 -7629 0
-12909 2669 0
12909 -2669 0
-14030 7630 0
14030 -7630 0
-12910 2670 0
12910 -2670 0
-14031 7631 0
14031 -7631 0
-12911 2671 0
12911 -2671 0
-14032 7632 0
14032 -7632 0
-12912 2672 0
12912 -2672 0
-14033 7633 0
14033 -7633 0
-12913 2673 0
12913 -2673 0
-14034 7634 0
14034 -7634 0
-12914 2674 0
12914 -2674 0
-14035 7635 0
14035 -7635 0
-12915 2675 0
12915 -2675 0
-14036 7636 0
14036 -7636 0
-12916 2676 0
12916 -2676 0
-14037 7637 0
14037 -7637 0
-12917 2677 0
12917 -2677 0
-14038 7638 0
14038 -7638 0
-12918 2678 0
12918 -2678 0
-14039 7639 0
14039 -7639 0
-12919 2679 0
12919 -2679 0
-14040 7640 0
14040 -7640 0
-12920 2680 0
12920 -2680 0
-14041 7641 0
14041 -7641 0
-12921 2681 0
12921 -2681 0
-14042 7642 0
14042 -7642 0
-12922 2682 0
12922 -2682 0
-14043 7643 0
14043 -7643 0
-12923 2683 0
12923 -2683 0
-14044 7644 0
14044 -7644 0
-12924 2684 0
12924 -2684 0
-14045 7645 0
14045 -7645 0
-12925 2685 0
12925 -2685 0
-14046 7646 0
14046 -7646 0
-12926 2686 0
12926 -2686 0
-14047 7647 0
14047 -7647 0
-12927 2687 0
12927 -2687 0
-14048 7648 0
14048 -7648 0
-12928 2688 0
12928 -2688 0
-14049 7649 0
14049 -7649 0
-12929 2689 0
12929 -2689 0
-14050 7650 0
14050 -7650 0
-12930 2690 0
12930 -2690 0
-14051 7651 0
14051 -7651 0
-12931 2691 0
12931 -2691 0
-14052 7652 0
14052 -7652 0
-12932 2692 0
12932 -2692 0
-14053 7653 0
14053 -7653 0
-12933 2693 0
12933 -2693 0
-14054 7654 0
14054 -7654 0
-12934 2694 0
12934 -2694 0
-14055 7655 0
14055 -7655 0
-12935 2695 0
12935 -2695 0
-14056 7656 0
14056 -7656 0
-12936 2696 0
12936 -2696 0
-14057 7657 0
14057 -7657 0
-12937 2697 0
12937 -2697 0
-14058 7658 0
14058 -7658 0
-12938 2698 0
12938 -2698 0
-14059 7659 0
14059 -7659 0
-12939 2699 0
12939 -2699 0
-14060 7660 0
14060 -7660 0
-12940 2700 0
12940 -2700 0
-14061 7661 0
14061 -7661 0
-12941 2701 0
12941 -2701 0
-14062 7662 0
14062 -7662 0
-12942 2702 0
12942 -2702 0
-14063 7663 0
14063 -7663 0
-12943 2703 0
12943 -2703 0
-14064 7664 0
14064 -7664 0
-12944 2704 0
12944 -2704 0
-14065 7665 0
14065 -7665 0
-12945 2705 0
12945 -2705 0
-14066 7666 0
14066 -7666 0
-12946 2706 0
12946 -2706 0
-14067 7667 0
14067 -7667 0
-12947 2707 0
12947 -2707 0
-14068 7668 0
14068 -7668 0
-12948 2708 0
12948 -2708 0
-14069 7669 0
14069 -7669 0
-12949 2709 0
12949 -2709 0
-14070 7670 0
14070 -7670 0
-12950 2710 0
12950 -2710 0
-14071 7671 0
14071 -7671 0
-12951 2711 0
12951 -2711 0
-14072 7672 0
14072 -7672 0
-12952 2712 0
12952 -2712 0
-14073 7673 0
14073 -7673 0
-12953 2713 0
12953 -2713 0
-14074 7674 0
14074 -7674 0
-12954 2714 0
12954 -2714 0
-14075 7675 0
14075 -7675 0
-12955 2715 0
12955 -2715 0
-14076 7676 0
14076 -7676 0
-12956 2716 0
12956 -2716 0
-14077 7677 0
14077 -7677 0
-12957 2717 0
12957 -2717 0
-14078 7678 0
14078 -7678 0
-12958 2718 0
12958 -2718 0
-14079 7679 0
14079 -7679 0
-12959 2719 0
12959 -2719 0
-14080 7680 0
14080 -7680 0
-12960 2720 0
12960 -2720 0
-12961 6561 2721 0
12961 -6561 0
12961 -2721 0
-12962 6562 2722 0
12962 -6562 0
12962 -2722 0
-12963 6563 2723 0
12963 -6563 0
12963 -2723 0
-12964 6564 2724 0
12964 -6564 0
12964 -2724 0
-12965 6565 2725 0
12965 -6565 0
12965 -2725 0
-12966 6566 2726 0
12966 -6566 0
12966 -2726 0
-12967 6567 2727 0
12967 -6567 0
12967 -2727 0
-12968 6568 2728 0
12968 -6568 0
12968 -2728 0
-12969 6569 2729 0
12969 -6569 0
12969 -2729 0
-12970 6570 2730 0
12970 -6570 0
12970 -2730 0
-12971 6571 2731 0
12971 -6571 0
12971 -2731 0
-12972 6572 2732 0
12972 -6572 0
12972 -2732 0
-12973 6573 2733 0
12973 -6573 0
12973 -2733 0
-12974 6574 2734 0
12974 -6574 0
12974 -2734 0
-12975 6575 2735 0
12975 -6575 0
12975 -2735 0
-12976 6576 2736 0
12976 -6576 0
12976 -2736 0
-12977 6577 2737 0
12977 -6577 0
12977 -2737 0
-12978 6578 2738 0
12978 -6578 0
12978 -2738 0
-12979 6579 2739 0
12979 -6579 0
12979 -2739 0
-12980 6580 2740 0
12980 -6580 0
12980 -2740 0
-12981 6581 2741 0
12981 -6581 0
12981 -2741 0
-12982 6582 2742 0
12982 -6582 0
12982 -2742 0
-12983 6583 2743 0
12983 -6583 0
12983 -2743 0
-12984 6584 2744 0
12984 -6584 0
12984 -2744 0
-12985 6585 2745 0
12985 -6585 0
12985 -2745 0
-12986 6586 2746 0
12986 -6586 0
12986 -2746 0
-12987 6587 2747 0
12987 -6587 0
12987 -2747 0
-12988 6588 2748 0
12988 -6588 0
12988 -2748 0
-12989 6589 2749 0
12989 -6589 0
12989 -2749 0
-12990 6590 2750 0
12990 -6590 0
12990 -2750 0
-12991 6591 2751 0
12991 -6591 0
12991 -2751 0
-12992 6592 2752 0
12992 -6592 0
12992 -2752 0
-12993 6593 2753 0
12993 -6593 0
12993 -2753 0
-12994 6594 2754 0
12994 -6594 0
12994 -2754 0
-12995 6595 2755 0
12995 -6595 0
12995 -2755 0
-12996 6596 2756 0
12996 -6596 0
12996 -2756 0
-12997 6597 2757 0
12997 -6597 0
12997 -2757 0
-12998 6598 2758 0
12998 -6598 0
12998 -2758 0
-12999 6599 2759 0
12999 -6599 0
12999 -2759 0
-13000 6600 2760 0
13000 -6600 0
13000 -2760 0
-13001 6601 2761 0
13001 -6601 0
13001 -2761 0
-13002 6602 2762 0
13002 -6602 0
13002 -2762 0
-13003 6603 2763 0
13003 -6603 0
13003 -2763 0
-13004 6604 2764 0
13004 -6604 0
13004 -2764 0
-13005 6605 2765 0
13005 -6605 0
13005 -2765 0
-13006 6606 2766 0
13006 -6606 0
13006 -2766 0
-13007 6607 2767 0
13007 -6607 0
13007 -2767 0
-13008 6608 2768 0
13008 -6608 0
13008 -2768 0
-13009 6609 2769 0
13009 -6609 0
13009 -2769 0
-13010 6610 2770 0
13010 -6610 0
13010 -2770 0
-13011 6611 2771 0
13011 -6611 0
13011 -2771 0
-13012 6612 2772 0
13012 -6612 0
13012 -2772 0
-13013 6613 2773 0
13013 -6613 0
13013 -2773 0
-13014 6614 2774 0
13014 -6614 0
13014 -2774 0
-13015 6615 2775 0
13015 -6615 0
13015 -2775 0
-13016 6616 2776 0
13016 -6616 0
13016 -2776 0
-13017 6617 2777 0
13017 -6617 0
13017 -2777 0
-13018 6618 2778 0
13018 -6618 0
13018 -2778 0
-13019 6619 2779 0
13019 -6619 0
13019 -2779 0
-13020 6620 2780 0
13020 -6620 0
13020 -2780 0
-13021 6621 2781 0
13021 -6621 0
13021 -2781 0
-13022 6622 2782 0
13022 -6622 0
13022 -2782 0
-13023 6623 2783 0
13023 -6623 0
13023 -2783 0
-13024 6624 2784 0
13024 -6624 0
13024 -2784 0
-13025 6625 2785 0
13025 -6625 0
13025 -2785 0
-13026 6626 2786 0
13026 -6626 0
13026 -2786 0
-13027 6627 2787 0
13027 -6627 0
13027 -2787 0
-13028 6628 2788 0
13028 -6628 0
13028 -2788 0
-13029 6629 2789 0
13029 -6629 0
13029 -2789 0
-13030 6630 2790 0
13030 -6630 0
13030 -2790 0
-13031 6631 2791 0
13031 -6631 0
13031 -2791 0
-13032 6632 2792 0
13032 -6632 0
13032 -2792 0
-13033 6633 2793 0
13033 -6633 0
13033 -2793 0
-13034 6634 2794 0
13034 -6634 0
13034 -2794 0
-13035 6635 2795 0
13035 -6635 0
13035 -2795 0
-13036 6636 2796 0
13036 -6636 0
13036 -2796 0
-13037 6637 2797 0
13037 -6637 0
13037 -2797 0
-13038 6638 2798 0
13038 -6638 0
13038 -2798 0
-13039 6639 2799 0
13039 -6639 0
13039 -2799 0
-13040 6640 2800 0
13040 -6640 0
13040 -2800 0
-13041 6641 2801 0
13041 -6641 0
13041 -2801 0
-13042 6642 2802 0
13042 -6642 0
13042 -2802 0
-13043 6643 2803 0
13043 -6643 0
13043 -2803 0
-13044 6644 2804 0
13044 -6644 0
13044 -2804 0
-13045 6645 2805 0
13045 -6645 0
13045 -2805 0
-13046 6646 2806 0
13046 -6646 0
13046 -2806 0
-13047 6647 2807 0
13047 -6647 0
13047 -2807 0
-13048 6648 2808 0
13048 -6648 0
13048 -2808 0
-13049 6649 2809 0
13049 -6649 0
13049 -2809 0
-13050 6650 2810 0
13050 -6650 0
13050 -2810 0
-13051 6651 2811 0
13051 -6651 0
13051 -2811 0
-13052 6652 2812 0
13052 -6652 0
13052 -2812 0
-13053 6653 2813 0
13053 -6653 0
13053 -2813 0
-13054 6654 2814 0
13054 -6654 0
13054 -2814 0
-13055 6655 2815 0
13055 -6655 0
13055 -2815 0
-13056 6656 2816 0
13056 -6656 0
13056 -2816 0
-13057 6657 2817 0
13057 -6657 0
13057 -2817 0
-13058 6658 2818 0
13058 -6658 0
13058 -2818 0
-13059 6659 2819 0
13059 -6659 0
13059 -2819 0
-13060 6660 2820 0
13060 -6660 0
13060 -2820 0
-13061 6661 2821 0
13061 -6661 0
13061 -2821 0
-13062 6662 2822 0
13062 -6662 0
13062 -2822 0
-13063 6663 2823 0
13063 -6663 0
13063 -2823 0
-13064 6664 2824 0
13064 -6664 0
13064 -2824 0
-13065 6665 2825 0
13065 -6665 0
13065 -2825 0
-13066 6666 2826 0
13066 -6666 0
13066 -2826 0
-13067 6667 2827 0
13067 -6667 0
13067 -2827 0
-13068 6668 2828 0
13068 -6668 0
13068 -2828 0
-13069 6669 2829 0
13069 -6669 0
13069 -2829 0
-13070 6670 2830 0
13070 -6670 0
13070 -2830 0
-13071 6671 2831 0
13071 -6671 0
13071 -2831 0
-13072 6672 2832 0
13072 -6672 0
13072 -2832 0
-13073 6673 2833 0
13073 -6673 0
13073 -2833 0
-13074 6674 2834 0
13074 -6674 0
13074 -2834 0
-13075 6675 2835 0
13075 -6675 0
13075 -2835 0
-13076 6676 2836 0
13076 -6676 0
13076 -2836 0
-13077 6677 2837 0
13077 -6677 0
13077 -2837 0
-13078 6678 2838 0
13078 -6678 0
13078 -2838 0
-13079 6679 2839 0
13079 -6679 0
13079 -2839 0
-13080 6680 2840 0
13080 -6680 0
13080 -2840 0
-13081 6681 2841 0
13081 -6681 0
13081 -2841 0
-13082 6682 2842 0
13082 -6682 0
13082 -2842 0
-13083 6683 2843 0
13083 -6683 0
13083 -2843 0
-13084 6684 2844 0
13084 -6684 0
13084 -2844 0
-13085 6685 2845 0
13085 -6685 0
13085 -2845 0
-13086 6686 2846 0
13086 -6686 0
13086 -2846 0
-13087 6687 2847 0
13087 -6687 0
13087 -2847 0
-13088 6688 2848 0
13088 -6688 0
13088 -2848 0
-13089 6689 2849 0
13089 -6689 0
13089 -2849 0
-13090 6690 2850 0
13090 -6690 0
13090 -2850 0
-13091 6691 2851 0
13091 -6691 0
13091 -2851 0
-13092 6692 2852 0
13092 -6692 0
13092 -2852 0
-13093 6693 2853 0
13093 -6693 0
13093 -2853 0
-13094 6694 2854 0
13094 -6694 0
13094 -2854 0
-13095 6695 2855 0
13095 -6695 0
13095 -2855 0
-13096 6696 2856 0
13096 -6696 0
13096 -2856 0
-13097 6697 2857 0
13097 -6697 0
13097 -2857 0
-13098 6698 2858 0
13098 -6698 0
13098 -2858 0
-13099 6699 2859 0
13099 -6699 0
13099 -2859 0
-13100 6700 2860 0
13100 -6700 0
13100 -2860 0
-13101 6701 2861 0
13101 -6701 0
13101 -2861 0
-13102 6702 2862 0
13102 -6702 0
13102 -2862 0
-13103 6703 2863 0
13103 -6703 0
13103 -2863 0
-13104 6704 2864 0
13104 -6704 0
13104 -2864 0
-13105 6705 2865 0
13105 -6705 0
13105 -2865 0
-13106 6706 2866 0
13106 -6706 0
13106 -2866 0
-13107 6707 2867 0
13107 -6707 0
13107 -2867 0
-13108 6708 2868 0
13108 -6708 0
13108 -2868 0
-13109 6709 2869 0
13109 -6709 0
13109 -2869 0
-13110 6710 2870 0
13110 -6710 0
13110 -2870 0
-13111 6711 2871 0
13111 -6711 0
13111 -2871 0
-13112 6712 2872 0
13112 -6712 0
13112 -2872 0
-13113 6713 2873 0
13113 -6713 0
13113 -2873 0
-13114 6714 2874 0
13114 -6714 0
13114 -2874 0
-13115 6715 2875 0
13115 -6715 0
13115 -2875 0
-13116 6716 2876 0
13116 -6716 0
13116 -2876 0
-13117 6717 2877 0
13117 -6717 0
13117 -2877 0
-13118 6718 2878 0
13118 -6718 0
13118 -2878 0
-13119 6719 2879 0
13119 -6719 0
13119 -2879 0
-13120 6720 2880 0
13120 -6720 0
13120 -2880 0
-13121 6721 2881 0
13121 -6721 0
13121 -2881 0
-13122 6722 2882 0
13122 -6722 0
13122 -2882 0
-13123 6723 2883 0
13123 -6723 0
13123 -2883 0
-13124 6724 2884 0
13124 -6724 0
13124 -2884 0
-13125 6725 2885 0
13125 -6725 0
13125 -2885 0
-13126 6726 2886 0
13126 -6726 0
13126 -2886 0
-13127 6727 2887 0
13127 -6727 0
13127 -2887 0
-13128 6728 2888 0
13128 -6728 0
13128 -2888 0
-13129 6729 2889 0
13129 -6729 0
13129 -2889 0
-13130 6730 2890 0
13130 -6730 0
13130 -2890 0
-13131 6731 2891 0
13131 -6731 0
13131 -2891 0
-13132 6732 2892 0
13132 -6732 0
13132 -2892 0
-13133 6733 2893 0
13133 -6733 0
13133 -2893 0
-13134 6734 2894 0
13134 -6734 0
13134 -2894 0
-13135 6735 2895 0
13135 -6735 0
13135 -2895 0
-13136 6736 2896 0
13136 -6736 0
13136 -2896 0
-13137 6737 2897 0
13137 -6737 0
13137 -2897 0
-13138 6738 2898 0
13138 -6738 0
13138 -2898 0
-13139 6739 2899 0
13139 -6739 0
13139 -2899 0
-13140 6740 2900 0
13140 -6740 0
13140 -2900 0
-13141 6741 2901 0
13141 -6741 0
13141 -2901 0
-13142 6742 2902 0
13142 -6742 0
13142 -2902 0
-13143 6743 2903 0
13143 -6743 0
13143 -2903 0
-13144 6744 2904 0
13144 -6744 0
13144 -2904 0
-13145 6745 2905 0
13145 -6745 0
13145 -2905 0
-13146 6746 2906 0
13146 -6746 0
13146 -2906 0
-13147 6747 2907 0
13147 -6747 0
13147 -2907 0
-13148 6748 2908 0
13148 -6748 0
13148 -2908 0
-13149 6749 2909 0
13149 -6749 0
13149 -2909 0
-13150 6750 2910 0
13150 -6750 0
13150 -2910 0
-13151 6751 2911 0
13151 -6751 0
13151 -2911 0
-13152 6752 2912 0
13152 -6752 0
13152 -2912 0
-13153 6753 2913 0
13153 -6753 0
13153 -2913 0
-13154 6754 2914 0
13154 -6754 0
13154 -2914 0
-13155 6755 2915 0
13155 -6755 0
13155 -2915 0
-13156 6756 2916 0
13156 -6756 0
13156 -2916 0
-13157 6757 2917 0
13157 -6757 0
13157 -2917 0
-13158 6758 2918 0
13158 -6758 0
13158 -2918 0
-13159 6759 2919 0
13159 -6759 0
13159 -2919 0
-13160 6760 2920 0
13160 -6760 0
13160 -2920 0
-13161 6761 2921 0
13161 -6761 0
13161 -2921 0
-13162 6762 2922 0
13162 -6762 0
13162 -2922 0
-13163 6763 2923 0
13163 -6763 0
13163 -2923 0
-13164 6764 2924 0
13164 -6764 0
13164 -2924 0
-13165 6765 2925 0
13165 -6765 0
13165 -2925 0
-13166 6766 2926 0
13166 -6766 0
13166 -2926 0
-13167 6767 2927 0
13167 -6767 0
13167 -2927 0
-13168 6768 2928 0
13168 -6768 0
13168 -2928 0
-13169 6769 2929 0
13169 -6769 0
13169 -2929 0
-13170 6770 2930 0
13170 -6770 0
13170 -2930 0
-13171 6771 2931 0
13171 -6771 0
13171 -2931 0
-13172 6772 2932 0
13172 -6772 0
13172 -2932 0
-13173 6773 2933 0
13173 -6773 0
13173 -2933 0
-13174 6774 2934 0
13174 -6774 0
13174 -2934 0
-13175 6775 2935 0
13175 -6775 0
13175 -2935 0
-13176 6776 2936 0
13176 -6776 0
13176 -2936 0
-13177 6777 2937 0
13177 -6777 0
13177 -2937 0
-13178 6778 2938 0
13178 -6778 0
13178 -2938 0
-13179 6779 2939 0
13179 -6779 0
13179 -2939 0
-13180 6780 2940 0
13180 -6780 0
13180 -2940 0
-13181 6781 2941 0
13181 -6781 0
13181 -2941 0
-13182 6782 2942 0
13182 -6782 0
13182 -2942 0
-13183 6783 2943 0
13183 -6783 0
13183 -2943 0
-13184 6784 2944 0
13184 -6784 0
13184 -2944 0
-13185 6785 2945 0
13185 -6785 0
13185 -2945 0
-13186 6786 2946 0
13186 -6786 0
13186 -2946 0
-13187 6787 2947 0
13187 -6787 0
13187 -2947 0
-13188 6788 2948 0
13188 -6788 0
13188 -2948 0
-13189 6789 2949 0
13189 -6789 0
13189 -2949 0
-13190 6790 2950 0
13190 -6790 0
13190 -2950 0
-13191 6791 2951 0
13191 -6791 0
13191 -2951 0
-13192 6792 2952 0
13192 -6792 0
13192 -2952 0
-13193 6793 2953 0
13193 -6793 0
13193 -2953 0
-13194 6794 2954 0
13194 -6794 0
13194 -2954 0
-13195 6795 2955 0
13195 -6795 0
13195 -2955 0
-13196 6796 2956 0
13196 -6796 0
13196 -2956 0
-13197 6797 2957 0
13197 -6797 0
13197 -2957 0
-13198 6798 2958 0
13198 -6798 0
13198 -2958 0
-13199 6799 2959 0
13199 -6799 0
13199 -2959 0
-13200 6800 2960 0
13200 -6800 0
13200 -2960 0
-13201 6801 2961 0
13201 -6801 0
13201 -2961 0
-13202 6802 2962 0
13202 -6802 0
13202 -2962 0
-13203 6803 2963 0
13203 -6803 0
13203 -2963 0
-13204 6804 2964 0
13204 -6804 0
13204 -2964 0
-13205 6805 2965 0
13205 -6805 0
13205 -2965 0
-13206 6806 2966 0
13206 -6806 0
13206 -2966 0
-13207 6807 2967 0
13207 -6807 0
13207 -2967 0
-13208 6808 2968 0
13208 -6808 0
13208 -2968 0
-13209 6809 2969 0
13209 -6809 0
13209 -2969 0
-13210 6810 2970 0
13210 -6810 0
13210 -2970 0
-13211 6811 2971 0
13211 -6811 0
13211 -2971 0
-13212 6812 2972 0
13212 -6812 0
13212 -2972 0
-13213 6813 2973 0
13213 -6813 0
13213 -2973 0
-13214 6814 2974 0
13214 -6814 0
13214 -2974 0
-13215 6815 2975 0
13215 -6815 0
13215 -2975 0
-13216 6816 2976 0
13216 -6816 0
13216 -2976 0
-13217 6817 2977 0
13217 -6817 0
13217 -2977 0
-13218 6818 2978 0
13218 -6818 0
13218 -2978 0
-13219 6819 2979 0
13219 -6819 0
13219 -2979 0
-13220 6820 2980 0
13220 -6820 0
13220 -2980 0
-13221 6821 2981 0
13221 -6821 0
13221 -2981 0
-13222 6822 2982 0
13222 -6822 0
13222 -2982 0
-13223 6823 2983 0
13223 -6823 0
13223 -2983 0
-13224 6824 2984 0
13224 -6824 0
13224 -2984 0
-13225 6825 2985 0
13225 -6825 0
13225 -2985 0
-13226 6826 2986 0
13226 -6826 0
13226 -2986 0
-13227 6827 2987 0
13227 -6827 0
13227 -2987 0
-13228 6828 2988 0
13228 -6828 0
13228 -2988 0
-13229 6829 2989 0
13229 -6829 0
13229 -2989 0
-13230 6830 2990 0
13230 -6830 0
13230 -2990 0
-13231 6831 2991 0
13231 -6831 0
13231 -2991 0
-13232 6832 2992 0
13232 -6832 0
13232 -2992 0
-13233 6833 2993 0
13233 -6833 0
13233 -2993 0
-13234 6834 2994 0
13234 -6834 0
13234 -2994 0
-13235 6835 2995 0
13235 -6835 0
13235 -2995 0
-13236 6836 2996 0
13236 -6836 0
13236 -2996 0
-13237 6837 2997 0
13237 -6837 0
13237 -2997 0
-13238 6838 2998 0
13238 -6838 0
13238 -2998 0
-13239 6839 2999 0
13239 -6839 0
13239 -2999 0
-13240 6840 3000 0
13240 -6840 0
13240 -3000 0
-13241 6841 3001 0
13241 -6841 0
13241 -3001 0
-13242 6842 3002 0
13242 -6842 0
13242 -3002 0
-13243 6843 3003 0
13243 -6843 0
13243 -3003 0
-13244 6844 3004 0
13244 -6844 0
13244 -3004 0
-13245 6845 3005 0
13245 -6845 0
13245 -3005 0
-13246 6846 3006 0
13246 -6846 0
13246 -3006 0
-13247 6847 3007 0
13247 -6847 0
13247 -3007 0
-13248 6848 3008 0
13248 -6848 0
13248 -3008 0
-13249 6849 3009 0
13249 -6849 0
13249 -3009 0
-13250 6850 3010 0
13250 -6850 0
13250 -3010 0
-13251 6851 3011 0
13251 -6851 0
13251 -3011 0
-13252 6852 3012 0
13252 -6852 0
13252 -3012 0
-13253 6853 3013 0
13253 -6853 0
13253 -3013 0
-13254 6854 3014 0
13254 -6854 0
13254 -3014 0
-13255 6855 3015 0
13255 -6855 0
13255 -3015 0
-13256 6856 3016 0
13256 -6856 0
13256 -3016 0
-13257 6857 3017 0
13257 -6857 0
13257 -3017 0
-13258 6858 3018 0
13258 -6858 0
13258 -3018 0
-13259 6859 3019 0
13259 -6859 0
13259 -3019 0
-13260 6860 3020 0
13260 -6860 0
13260 -3020 0
-13261 6861 3021 0
13261 -6861 0
13261 -3021 0
-13262 6862 3022 0
13262 -6862 0
13262 -3022 0
-13263 6863 3023 0
13263 -6863 0
13263 -3023 0
-13264 6864 3024 0
13264 -6864 0
13264 -3024 0
-13265 6865 3025 0
13265 -6865 0
13265 -3025 0
-13266 6866 3026 0
13266 -6866 0
13266 -3026 0
-13267 6867 3027 0
13267 -6867 0
13267 -3027 0
-13268 6868 3028 0
13268 -6868 0
13268 -3028 0
-13269 6869 3029 0
13269 -6869 0
13269 -3029 0
-13270 6870 3030 0
13270 -6870 0
13270 -3030 0
-13271 6871 3031 0
13271 -6871 0
13271 -3031 0
-13272 6872 3032 0
13272 -6872 0
13272 -3032 0
-13273 6873 3033 0
13273 -6873 0
13273 -3033 0
-13274 6874 3034 0
13274 -6874 0
13274 -3034 0
-13275 6875 3035 0
13275 -6875 0
13275 -3035 0
-13276 6876 3036 0
13276 -6876 0
13276 -3036 0
-13277 6877 3037 0
13277 -6877 0
13277 -3037 0
-13278 6878 3038 0
13278 -6878 0
13278 -3038 0
-13279 6879 3039 0
13279 -6879 0
13279 -3039 0
-13280 6880 3040 0
13280 -6880 0
13280 -3040 0
-13281 6881 3041 0
13281 -6881 0
13281 -3041 0
-13282 6882 3042 0
13282 -6882 0
13282 -3042 0
-13283 6883 3043 0
13283 -6883 0
13283 -3043 0
-13284 6884 3044 0
13284 -6884 0
13284 -3044 0
-13285 6885 3045 0
13285 -6885 0
13285 -3045 0
-13286 6886 3046 0
13286 -6886 0
13286 -3046 0
-13287 6887 3047 0
13287 -6887 0
13287 -3047 0
-13288 6888 3048 0
13288 -6888 0
13288 -3048 0
-13289 6889 3049 0
13289 -6889 0
13289 -3049 0
-13290 6890 3050 0
13290 -6890 0
13290 -3050 0
-13291 6891 3051 0
13291 -6891 0
13291 -3051 0
-13292 6892 3052 0
13292 -6892 0
13292 -3052 0
-13293 6893 3053 0
13293 -6893 0
13293 -3053 0
-13294 6894 3054 0
13294 -6894 0
13294 -3054 0
-13295 6895 3055 0
13295 -6895 0
13295 -3055 0
-13296 6896 3056 0
13296 -6896 0
13296 -3056 0
-13297 6897 3057 0
13297 -6897 0
13297 -3057 0
-13298 6898 3058 0
13298 -6898 0
13298 -3058 0
-13299 6899 3059 0
13299 -6899 0
13299 -3059 0
-13300 6900 3060 0
13300 -6900 0
13300 -3060 0
-13301 6901 3061 0
13301 -6901 0
13301 -3061 0
-13302 6902 3062 0
13302 -6902 0
13302 -3062 0
-13303 6903 3063 0
13303 -6903 0
13303 -3063 0
-13304 6904 3064 0
13304 -6904 0
13304 -3064 0
-13305 6905 3065 0
13305 -6905 0
13305 -3065 0
-13306 6906 3066 0
13306 -6906 0
13306 -3066 0
-13307 6907 3067 0
13307 -6907 0
13307 -3067 0
-13308 6908 3068 0
13308 -6908 0
13308 -3068 0
-13309 6909 3069 0
13309 -6909 0
13309 -3069 0
-13310 6910 3070 0
13310 -6910 0
13310 -3070 0
-13311 6911 3071 0
13311 -6911 0
13311 -3071 0
-13312 6912 3072 0
13312 -6912 0
13312 -3072 0
-13313 6913 3073 0
13313 -6913 0
13313 -3073 0
-13314 6914 3074 0
13314 -6914 0
13314 -3074 0
-13315 6915 3075 0
13315 -6915 0
13315 -3075 0
-13316 6916 3076 0
13316 -6916 0
13316 -3076 0
-13317 6917 3077 0
13317 -6917 0
13317 -3077 0
-13318 6918 3078 0
13318 -6918 0
13318 -3078 0
-13319 6919 3079 0
13319 -6919 0
13319 -3079 0
-13320 6920 3080 0
13320 -6920 0
13320 -3080 0
-13321 6921 3081 0
13321 -6921 0
13321 -3081 0
-13322 6922 3082 0
13322 -6922 0
13322 -3082 0
-13323 6923 3083 0
13323 -6923 0
13323 -3083 0
-13324 6924 3084 0
13324 -6924 0
13324 -3084 0
-13325 6925 3085 0
13325 -6925 0
13325 -3085 0
-13326 6926 3086 0
13326 -6926 0
13326 -3086 0
-13327 6927 3087 0
13327 -6927 0
13327 -3087 0
-13328 6928 3088 0
13328 -6928 0
13328 -3088 0
-13329 6929 3089 0
13329 -6929 0
13329 -3089 0
-13330 6930 3090 0
13330 -6930 0
13330 -3090 0
-13331 6931 3091 0
13331 -6931 0
13331 -3091 0
-13332 6932 3092 0
13332 -6932 0
13332 -3092 0
-13333 6933 3093 0
13333 -6933 0
13333 -3093 0
-13334 6934 3094 0
13334 -6934 0
13334 -3094 0
-13335 6935 3095 0
13335 -6935 0
13335 -3095 0
-13336 6936 3096 0
13336 -6936 0
13336 -3096 0
-13337 6937 3097 0
13337 -6937 0
13337 -3097 0
-13338 6938 3098 0
13338 -6938 0
13338 -3098 0
-13339 6939 3099 0
13339 -6939 0
13339 -3099 0
-13340 6940 3100 0
13340 -6940 0
13340 -3100 0
-13341 6941 3101 0
13341 -6941 0
13341 -3101 0
-13342 6942 3102 0
13342 -6942 0
13342 -3102 0
-13343 6943 3103 0
13343 -6943 0
13343 -3103 0
-13344 6944 3104 0
13344 -6944 0
13344 -3104 0
-13345 6945 3105 0
13345 -6945 0
13345 -3105 0
-13346 6946 3106 0
13346 -6946 0
13346 -3106 0
-13347 6947 3107 0
13347 -6947 0
13347 -3107 0
-13348 6948 3108 0
13348 -6948 0
13348 -3108 0
-13349 6949 3109 0
13349 -6949 0
13349 -3109 0
-13350 6950 3110 0
13350 -6950 0
13350 -3110 0
-13351 6951 3111 0
13351 -6951 0
13351 -3111 0
-13352 6952 3112 0
13352 -6952 0
13352 -3112 0
-13353 6953 3113 0
13353 -6953 0
13353 -3113 0
-13354 6954 3114 0
13354 -6954 0
13354 -3114 0
-13355 6955 3115 0
13355 -6955 0
13355 -3115 0
-13356 6956 3116 0
13356 -6956 0
13356 -3116 0
-13357 6957 3117 0
13357 -6957 0
13357 -3117 0
-13358 6958 3118 0
13358 -6958 0
13358 -3118 0
-13359 6959 3119 0
13359 -6959 0
13359 -3119 0
-13360 6960 3120 0
13360 -6960 0
13360 -3120 0
-13361 6961 3121 0
13361 -6961 0
13361 -3121 0
-13362 6962 3122 0
13362 -6962 0
13362 -3122 0
-13363 6963 3123 0
13363 -6963 0
13363 -3123 0
-13364 6964 3124 0
13364 -6964 0
13364 -3124 0
-13365 6965 3125 0
13365 -6965 0
13365 -3125 0
-13366 6966 3126 0
13366 -6966 0
13366 -3126 0
-13367 6967 3127 0
13367 -6967 0
13367 -3127 0
-13368 6968 3128 0
13368 -6968 0
13368 -3128 0
-13369 6969 3129 0
13369 -6969 0
13369 -3129 0
-13370 6970 3130 0
13370 -6970 0
13370 -3130 0
-13371 6971 3131 0
13371 -6971 0
13371 -3131 0
-13372 6972 3132 0
13372 -6972 0
13372 -3132 0
-13373 6973 3133 0
13373 -6973 0
13373 -3133 0
-13374 6974 3134 0
13374 -6974 0
13374 -3134 0
-13375 6975 3135 0
13375 -6975 0
13375 -3135 0
-13376 6976 3136 0
13376 -6976 0
13376 -3136 0
-13377 6977 3137 0
13377 -6977 0
13377 -3137 0
-13378 6978 3138 0
13378 -6978 0
13378 -3138 0
-13379 6979 3139 0
13379 -6979 0
13379 -3139 0
-13380 6980 3140 0
13380 -6980 0
13380 -3140 0
-13381 6981 3141 0
13381 -6981 0
13381 -3141 0
-13382 6982 3142 0
13382 -6982 0
13382 -3142 0
-13383 6983 3143 0
13383 -6983 0
13383 -3143 0
-13384 6984 3144 0
13384 -6984 0
13384 -3144 0
-13385 6985 3145 0
13385 -6985 0
13385 -3145 0
-13386 6986 3146 0
13386 -6986 0
13386 -3146 0
-13387 6987 3147 0
13387 -6987 0
13387 -3147 0
-13388 6988 3148 0
13388 -6988 0
13388 -3148 0
-13389 6989 3149 0
13389 -6989 0
13389 -3149 0
-13390 6990 3150 0
13390 -6990 0
13390 -3150 0
-13391 6991 3151 0
13391 -6991 0
13391 -3151 0
-13392 6992 3152 0
13392 -6992 0
13392 -3152 0
-13393 6993 3153 0
13393 -6993 0
13393 -3153 0
-13394 6994 3154 0
13394 -6994 0
13394 -3154 0
-13395 6995 3155 0
13395 -6995 0
13395 -3155 0
-13396 6996 3156 0
13396 -6996 0
13396 -3156 0
-13397 6997 3157 0
13397 -6997 0
13397 -3157 0
-13398 6998 3158 0
13398 -6998 0
13398 -3158 0
-13399 6999 3159 0
13399 -6999 0
13399 -3159 0
-13400 7000 3160 0
13400 -7000 0
13400 -3160 0
-13401 7001 3161 0
13401 -7001 0
13401 -3161 0
-13402 7002 3162 0
13402 -7002 0
13402 -3162 0
-13403 7003 3163 0
13403 -7003 0
13403 -3163 0
-13404 7004 3164 0
13404 -7004 0
13404 -3164 0
-13405 7005 3165 0
13405 -7005 0
13405 -3165 0
-13406 7006 3166 0
13406 -7006 0
13406 -3166 0
-13407 7007 3167 0
13407 -7007 0
13407 -3167 0
-13408 7008 3168 0
13408 -7008 0
13408 -3168 0
-13409 7009 3169 0
13409 -7009 0
13409 -3169 0
-13410 7010 3170 0
13410 -7010 0
13410 -3170 0
-13411 7011 3171 0
13411 -7011 0
13411 -3171 0
-13412 7012 3172 0
13412 -7012 0
13412 -3172 0
-13413 7013 3173 0
13413 -7013 0
13413 -3173 0
-13414 7014 3174 0
13414 -7014 0
13414 -3174 0
-13415 7015 3175 0
13415 -7015 0
13415 -3175 0
-13416 7016 3176 0
13416 -7016 0
13416 -3176 0
-13417 7017 3177 0
13417 -7017 0
13417 -3177 0
-13418 7018 3178 0
13418 -7018 0
13418 -3178 0
-13419 7019 3179 0
13419 -7019 0
13419 -3179 0
-13420 7020 3180 0
13420 -7020 0
13420 -3180 0
-13421 7021 3181 0
13421 -7021 0
13421 -3181 0
-13422 7022 3182 0
13422 -7022 0
13422 -3182 0
-13423 7023 3183 0
13423 -7023 0
13423 -3183 0
-13424 7024 3184 0
13424 -7024 0
13424 -3184 0
-13425 7025 3185 0
13425 -7025 0
13425 -3185 0
-13426 7026 3186 0
13426 -7026 0
13426 -3186 0
-13427 7027 3187 0
13427 -7027 0
13427 -3187 0
-13428 7028 3188 0
13428 -7028 0
13428 -3188 0
-13429 7029 3189 0
13429 -7029 0
13429 -3189 0
-13430 7030 3190 0
13430 -7030 0
13430 -3190 0
-13431 7031 3191 0
13431 -7031 0
13431 -3191 0
-13432 7032 3192 0
13432 -7032 0
13432 -3192 0
-13433 7033 3193 0
13433 -7033 0
13433 -3193 0
-13434 7034 3194 0
13434 -7034 0
13434 -3194 0
-13435 7035 3195 0
13435 -7035 0
13435 -3195 0
-13436 7036 3196 0
13436 -7036 0
13436 -3196 0
-13437 7037 3197 0
13437 -7037 0
13437 -3197 0
-13438 7038 3198 0
13438 -7038 0
13438 -3198 0
-13439 7039 3199 0
13439 -7039 0
13439 -3199 0
-13440 7040 3200 0
13440 -7040 0
13440 -3200 0
-13441 7041 3201 0
13441 -7041 0
13441 -3201 0
-13442 7042 3202 0
13442 -7042 0
13442 -3202 0
-13443 7043 3203 0
13443 -7043 0
13443 -3203 0
-13444 7044 3204 0
13444 -7044 0
13444 -3204 0
-13445 7045 3205 0
13445 -7045 0
13445 -3205 0
-13446 7046 3206 0
13446 -7046 0
13446 -3206 0
-13447 7047 3207 0
13447 -7047 0
13447 -3207 0
-13448 7048 3208 0
13448 -7048 0
13448 -3208 0
-13449 7049 3209 0
13449 -7049 0
13449 -3209 0
-13450 7050 3210 0
13450 -7050 0
13450 -3210 0
-13451 7051 3211 0
13451 -7051 0
13451 -3211 0
-13452 7052 3212 0
13452 -7052 0
13452 -3212 0
-13453 7053 3213 0
13453 -7053 0
13453 -3213 0
-13454 7054 3214 0
13454 -7054 0
13454 -3214 0
-13455 7055 3215 0
13455 -7055 0
13455 -3215 0
-13456 7056 3216 0
13456 -7056 0
13456 -3216 0
-13457 7057 3217 0
13457 -7057 0
13457 -3217 0
-13458 7058 3218 0
13458 -7058 0
13458 -3218 0
-13459 7059 3219 0
13459 -7059 0
13459 -3219 0
-13460 7060 3220 0
13460 -7060 0
13460 -3220 0
-13461 7061 3221 0
13461 -7061 0
13461 -3221 0
-13462 7062 3222 0
13462 -7062 0
13462 -3222 0
-13463 7063 3223 0
13463 -7063 0
13463 -3223 0
-13464 7064 3224 0
13464 -7064 0
13464 -3224 0
-13465 7065 3225 0
13465 -7065 0
13465 -3225 0
-13466 7066 3226 0
13466 -7066 0
13466 -3226 0
-13467 7067 3227 0
13467 -7067 0
13467 -3227 0
-13468 7068 3228 0
13468 -7068 0
13468 -3228 0
-13469 7069 3229 0
13469 -7069 0
13469 -3229 0
-13470 7070 3230 0
13470 -7070 0
13470 -3230 0
-13471 7071 3231 0
13471 -7071 0
13471 -3231 0
-13472 7072 3232 0
13472 -7072 0
13472 -3232 0
-13473 7073 3233 0
13473 -7073 0
13473 -3233 0
-13474 7074 3234 0
13474 -7074 0
13474 -3234 0
-13475 7075 3235 0
13475 -7075 0
13475 -3235 0
-13476 7076 3236 0
13476 -7076 0
13476 -3236 0
-13477 7077 3237 0
13477 -7077 0
13477 -3237 0
-13478 7078 3238 0
13478 -7078 0
13478 -3238 0
-13479 7079 3239 0
13479 -7079 0
13479 -3239 0
-13480 7080 3240 0
13480 -7080 0
13480 -3240 0
-13481 7081 3241 0
13481 -7081 0
13481 -3241 0
-13482 7082 3242 0
13482 -7082 0
13482 -3242 0
-13483 7083 3243 0
13483 -7083 0
13483 -3243 0
-13484 7084 3244 0
13484 -7084 0
13484 -3244 0
-13485 7085 3245 0
13485 -7085 0
13485 -3245 0
-13486 7086 3246 0
13486 -7086 0
13486 -3246 0
-13487 7087 3247 0
13487 -7087 0
13487 -3247 0
-13488 7088 3248 0
13488 -7088 0
13488 -3248 0
-13489 7089 3249 0
13489 -7089 0
13489 -3249 0
-13490 7090 3250 0
13490 -7090 0
13490 -3250 0
-13491 7091 3251 0
13491 -7091 0
13491 -3251 0
-13492 7092 3252 0
13492 -7092 0
13492 -3252 0
-13493 7093 3253 0
13493 -7093 0
13493 -3253 0
-13494 7094 3254 0
13494 -7094 0
13494 -3254 0
-13495 7095 3255 0
13495 -7095 0
13495 -3255 0
-13496 7096 3256 0
13496 -7096 0
13496 -3256 0
-13497 7097 3257 0
13497 -7097 0
13497 -3257 0
-13498 7098 3258 0
13498 -7098 0
13498 -3258 0
-13499 7099 3259 0
13499 -7099 0
13499 -3259 0
-13500 7100 3260 0
13500 -7100 0
13500 -3260 0
-13501 7101 3261 0
13501 -7101 0
13501 -3261 0
-13502 7102 3262 0
13502 -7102 0
13502 -3262 0
-13503 7103 3263 0
13503 -7103 0
13503 -3263 0
-13504 7104 3264 0
13504 -7104 0
13504 -3264 0
-13505 7105 3265 0
13505 -7105 0
13505 -3265 0
-13506 7106 3266 0
13506 -7106 0
13506 -3266 0
-13507 7107 3267 0
13507 -7107 0
13507 -3267 0
-13508 7108 3268 0
13508 -7108 0
13508 -3268 0
-13509 7109 3269 0
13509 -7109 0
13509 -3269 0
-13510 7110 3270 0
13510 -7110 0
13510 -3270 0
-13511 7111 3271 0
13511 -7111 0
13511 -3271 0
-13512 7112 3272 0
13512 -7112 0
13512 -3272 0
-13513 7113 3273 0
13513 -7113 0
13513 -3273 0
-13514 7114 3274 0
13514 -7114 0
13514 -3274 0
-13515 7115 3275 0
13515 -7115 0
13515 -3275 0
-13516 7116 3276 0
13516 -7116 0
13516 -3276 0
-13517 7117 3277 0
13517 -7117 0
13517 -3277 0
-13518 7118 3278 0
13518 -7118 0
13518 -3278 0
-13519 7119 3279 0
13519 -7119 0
13519 -3279 0
-13520 7120 3280 0
13520 -7120 0
13520 -3280 0
-13521 7121 3281 0
13521 -7121 0
13521 -3281 0
-13522 7122 3282 0
13522 -7122 0
13522 -3282 0
-13523 7123 3283 0
13523 -7123 0
13523 -3283 0
-13524 7124 3284 0
13524 -7124 0
13524 -3284 0
-13525 7125 3285 0
13525 -7125 0
13525 -3285 0
-13526 7126 3286 0
13526 -7126 0
13526 -3286 0
-13527 7127 3287 0
13527 -7127 0
13527 -3287 0
-13528 7128 3288 0
13528 -7128 0
13528 -3288 0
-13529 7129 3289 0
13529 -7129 0
13529 -3289 0
-13530 7130 3290 0
13530 -7130 0
13530 -3290 0
-13531 7131 3291 0
13531 -7131 0
13531 -3291 0
-13532 7132 3292 0
13532 -7132 0
13532 -3292 0
-13533 7133 3293 0
13533 -7133 0
13533 -3293 0
-13534 7134 3294 0
13534 -7134 0
13534 -3294 0
-13535 7135 3295 0
13535 -7135 0
13535 -3295 0
-13536 7136 3296 0
13536 -7136 0
13536 -3296 0
-13537 7137 3297 0
13537 -7137 0
13537 -3297 0
-13538 7138 3298 0
13538 -7138 0
13538 -3298 0
-13539 7139 3299 0
13539 -7139 0
13539 -3299 0
-13540 7140 3300 0
13540 -7140 0
13540 -3300 0
-13541 7141 3301 0
13541 -7141 0
13541 -3301 0
-13542 7142 3302 0
13542 -7142 0
13542 -3302 0
-13543 7143 3303 0
13543 -7143 0
13543 -3303 0
-13544 7144 3304 0
13544 -7144 0
13544 -3304 0
-13545 7145 3305 0
13545 -7145 0
13545 -3305 0
-13546 7146 3306 0
13546 -7146 0
13546 -3306 0
-13547 7147 3307 0
13547 -7147 0
13547 -3307 0
-13548 7148 3308 0
13548 -7148 0
13548 -3308 0
-13549 7149 3309 0
13549 -7149 0
13549 -3309 0
-13550 7150 3310 0
13550 -7150 0
13550 -3310 0
-13551 7151 3311 0
13551 -7151 0
13551 -3311 0
-13552 7152 3312 0
13552 -7152 0
13552 -3312 0
-13553 7153 3313 0
13553 -7153 0
13553 -3313 0
-13554 7154 3314 0
13554 -7154 0
13554 -3314 0
-13555 7155 3315 0
13555 -7155 0
13555 -3315 0
-13556 7156 3316 0
13556 -7156 0
13556 -3316 0
-13557 7157 3317 0
13557 -7157 0
13557 -3317 0
-13558 7158 3318 0
13558 -7158 0
13558 -3318 0
-13559 7159 3319 0
13559 -7159 0
13559 -3319 0
-13560 7160 3320 0
13560 -7160 0
13560 -3320 0
-13561 7161 3321 0
13561 -7161 0
13561 -3321 0
-13562 7162 3322 0
13562 -7162 0
13562 -3322 0
-13563 7163 3323 0
13563 -7163 0
13563 -3323 0
-13564 7164 3324 0
13564 -7164 0
13564 -3324 0
-13565 7165 3325 0
13565 -7165 0
13565 -3325 0
-13566 7166 3326 0
13566 -7166 0
13566 -3326 0
-13567 7167 3327 0
13567 -7167 0
13567 -3327 0
-13568 7168 3328 0
13568 -7168 0
13568 -3328 0
-13569 7169 3329 0
13569 -7169 0
13569 -3329 0
-13570 7170 3330 0
13570 -7170 0
13570 -3330 0
-13571 7171 3331 0
13571 -7171 0
13571 -3331 0
-13572 7172 3332 0
13572 -7172 0
13572 -3332 0
-13573 7173 3333 0
13573 -7173 0
13573 -3333 0
-13574 7174 3334 0
13574 -7174 0
13574 -3334 0
-13575 7175 3335 0
13575 -7175 0
13575 -3335 0
-13576 7176 3336 0
13576 -7176 0
13576 -3336 0
-13577 7177 3337 0
13577 -7177 0
13577 -3337 0
-13578 7178 3338 0
13578 -7178 0
13578 -3338 0
-13579 7179 3339 0
13579 -7179 0
13579 -3339 0
-13580 7180 3340 0
13580 -7180 0
13580 -3340 0
-13581 7181 3341 0
13581 -7181 0
13581 -3341 0
-13582 7182 3342 0
13582 -7182 0
13582 -3342 0
-13583 7183 3343 0
13583 -7183 0
13583 -3343 0
-13584 7184 3344 0
13584 -7184 0
13584 -3344 0
-13585 7185 3345 0
13585 -7185 0
13585 -3345 0
-13586 7186 3346 0
13586 -7186 0
13586 -3346 0
-13587 7187 3347 0
13587 -7187 0
13587 -3347 0
-13588 7188 3348 0
13588 -7188 0
13588 -3348 0
-13589 7189 3349 0
13589 -7189 0
13589 -3349 0
-13590 7190 3350 0
13590 -7190 0
13590 -3350 0
-13591 7191 3351 0
13591 -7191 0
13591 -3351 0
-13592 7192 3352 0
13592 -7192 0
13592 -3352 0
-13593 7193 3353 0
13593 -7193 0
13593 -3353 0
-13594 7194 3354 0
13594 -7194 0
13594 -3354 0
-13595 7195 3355 0
13595 -7195 0
13595 -3355 0
-13596 7196 3356 0
13596 -7196 0
13596 -3356 0
-13597 7197 3357 0
13597 -7197 0
13597 -3357 0
-13598 7198 3358 0
13598 -7198 0
13598 -3358 0
-13599 7199 3359 0
13599 -7199 0
13599 -3359 0
-13600 7200 3360 0
13600 -7200 0
13600 -3360 0
-13601 7201 3361 0
13601 -7201 0
13601 -3361 0
-13602 7202 3362 0
13602 -7202 0
13602 -3362 0
-13603 7203 3363 0
13603 -7203 0
13603 -3363 0
-13604 7204 3364 0
13604 -7204 0
13604 -3364 0
-13605 7205 3365 0
13605 -7205 0
13605 -3365 0
-13606 7206 3366 0
13606 -7206 0
13606 -3366 0
-13607 7207 3367 0
13607 -7207 0
13607 -3367 0
-13608 7208 3368 0
13608 -7208 0
13608 -3368 0
-13609 7209 3369 0
13609 -7209 0
13609 -3369 0
-13610 7210 3370 0
13610 -7210 0
13610 -3370 0
-13611 7211 3371 0
13611 -7211 0
13611 -3371 0
-13612 7212 3372 0
13612 -7212 0
13612 -3372 0
-13613 7213 3373 0
13613 -7213 0
13613 -3373 0
-13614 7214 3374 0
13614 -7214 0
13614 -3374 0
-13615 7215 3375 0
13615 -7215 0
13615 -3375 0
-13616 7216 3376 0
13616 -7216 0
13616 -3376 0
-13617 7217 3377 0
13617 -7217 0
13617 -3377 0
-13618 7218 3378 0
13618 -7218 0
13618 -3378 0
-13619 7219 3379 0
13619 -7219 0
13619 -3379 0
-13620 7220 3380 0
13620 -7220 0
13620 -3380 0
-13621 7221 3381 0
13621 -7221 0
13621 -3381 0
-13622 7222 3382 0
13622 -7222 0
13622 -3382 0
-13623 7223 3383 0
13623 -7223 0
13623 -3383 0
-13624 7224 3384 0
13624 -7224 0
13624 -3384 0
-13625 7225 3385 0
13625 -7225 0
13625 -3385 0
-13626 7226 3386 0
13626 -7226 0
13626 -3386 0
-13627 7227 3387 0
13627 -7227 0
13627 -3387 0
-13628 7228 3388 0
13628 -7228 0
13628 -3388 0
-13629 7229 3389 0
13629 -7229 0
13629 -3389 0
-13630 7230 3390 0
13630 -7230 0
13630 -3390 0
-13631 7231 3391 0
13631 -7231 0
13631 -3391 0
-13632 7232 3392 0
13632 -7232 0
13632 -3392 0
-13633 7233 3393 0
13633 -7233 0
13633 -3393 0
-13634 7234 3394 0
13634 -7234 0
13634 -3394 0
-13635 7235 3395 0
13635 -7235 0
13635 -3395 0
-13636 7236 3396 0
13636 -7236 0
13636 -3396 0
-13637 7237 3397 0
13637 -7237 0
13637 -3397 0
-13638 7238 3398 0
13638 -7238 0
13638 -3398 0
-13639 7239 3399 0
13639 -7239 0
13639 -3399 0
-13640 7240 3400 0
13640 -7240 0
13640 -3400 0
-13641 7241 3401 0
13641 -7241 0
13641 -3401 0
-13642 7242 3402 0
13642 -7242 0
13642 -3402 0
-13643 7243 3403 0
13643 -7243 0
13643 -3403 0
-13644 7244 3404 0
13644 -7244 0
13644 -3404 0
-13645 7245 3405 0
13645 -7245 0
13645 -3405 0
-13646 7246 3406 0
13646 -7246 0
13646 -3406 0
-13647 7247 3407 0
13647 -7247 0
13647 -3407 0
-13648 7248 3408 0
13648 -7248 0
13648 -3408 0
-13649 7249 3409 0
13649 -7249 0
13649 -3409 0
-13650 7250 3410 0
13650 -7250 0
13650 -3410 0
-13651 7251 3411 0
13651 -7251 0
13651 -3411 0
-13652 7252 3412 0
13652 -7252 0
13652 -3412 0
-13653 7253 3413 0
13653 -7253 0
13653 -3413 0
-13654 7254 3414 0
13654 -7254 0
13654 -3414 0
-13655 7255 3415 0
13655 -7255 0
13655 -3415 0
-13656 7256 3416 0
13656 -7256 0
13656 -3416 0
-13657 7257 3417 0
13657 -7257 0
13657 -3417 0
-13658 7258 3418 0
13658 -7258 0
13658 -3418 0
-13659 7259 3419 0
13659 -7259 0
13659 -3419 0
-13660 7260 3420 0
13660 -7260 0
13660 -3420 0
-13661 7261 3421 0
13661 -7261 0
13661 -3421 0
-13662 7262 3422 0
13662 -7262 0
13662 -3422 0
-13663 7263 3423 0
13663 -7263 0
13663 -3423 0
-13664 7264 3424 0
13664 -7264 0
13664 -3424 0
-13665 7265 3425 0
13665 -7265 0
13665 -3425 0
-13666 7266 3426 0
13666 -7266 0
13666 -3426 0
-13667 7267 3427 0
13667 -7267 0
13667 -3427 0
-13668 7268 3428 0
13668 -7268 0
13668 -3428 0
-13669 7269 3429 0
13669 -7269 0
13669 -3429 0
-13670 7270 3430 0
13670 -7270 0
13670 -3430 0
-13671 7271 3431 0
13671 -7271 0
13671 -3431 0
-13672 7272 3432 0
13672 -7272 0
13672 -3432 0
-13673 7273 3433 0
13673 -7273 0
13673 -3433 0
-13674 7274 3434 0
13674 -7274 0
13674 -3434 0
-13675 7275 3435 0
13675 -7275 0
13675 -3435 0
-13676 7276 3436 0
13676 -7276 0
13676 -3436 0
-13677 7277 3437 0
13677 -7277 0
13677 -3437 0
-13678 7278 3438 0
13678 -7278 0
13678 -3438 0
-13679 7279 3439 0
13679 -7279 0
13679 -3439 0
-13680 7280 3440 0
13680 -7280 0
13680 -3440 0
-13681 7281 3441 0
13681 -7281 0
13681 -3441 0
-13682 7282 3442 0
13682 -7282 0
13682 -3442 0
-13683 7283 3443 0
13683 -7283 0
13683 -3443 0
-13684 7284 3444 0
13684 -7284 0
13684 -3444 0
-13685 7285 3445 0
13685 -7285 0
13685 -3445 0
-13686 7286 3446 0
13686 -7286 0
13686 -3446 0
-13687 7287 3447 0
13687 -7287 0
13687 -3447 0
-13688 7288 3448 0
13688 -7288 0
13688 -3448 0
-13689 7289 3449 0
13689 -7289 0
13689 -3449 0
-13690 7290 3450 0
13690 -7290 0
13690 -3450 0
-13691 7291 3451 0
13691 -7291 0
13691 -3451 0
-13692 7292 3452 0
13692 -7292 0
13692 -3452 0
-13693 7293 3453 0
13693 -7293 0
13693 -3453 0
-13694 7294 3454 0
13694 -7294 0
13694 -3454 0
-13695 7295 3455 0
13695 -7295 0
13695 -3455 0
-13696 7296 3456 0
13696 -7296 0
13696 -3456 0
-13697 7297 3457 0
13697 -7297 0
13697 -3457 0
-13698 7298 3458 0
13698 -7298 0
13698 -3458 0
-13699 7299 3459 0
13699 -7299 0
13699 -3459 0
-13700 7300 3460 0
13700 -7300 0
13700 -3460 0
-13701 7301 3461 0
13701 -7301 0
13701 -3461 0
-13702 7302 3462 0
13702 -7302 0
13702 -3462 0
-13703 7303 3463 0
13703 -7303 0
13703 -3463 0
-13704 7304 3464 0
13704 -7304 0
13704 -3464 0
-13705 7305 3465 0
13705 -7305 0
13705 -3465 0
-13706 7306 3466 0
13706 -7306 0
13706 -3466 0
-13707 7307 3467 0
13707 -7307 0
13707 -3467 0
-13708 7308 3468 0
13708 -7308 0
13708 -3468 0
-13709 7309 3469 0
13709 -7309 0
13709 -3469 0
-13710 7310 3470 0
13710 -7310 0
13710 -3470 0
-13711 7311 3471 0
13711 -7311 0
13711 -3471 0
-13712 7312 3472 0
13712 -7312 0
13712 -3472 0
-13713 7313 3473 0
13713 -7313 0
13713 -3473 0
-13714 7314 3474 0
13714 -7314 0
13714 -3474 0
-13715 7315 3475 0
13715 -7315 0
13715 -3475 0
-13716 7316 3476 0
13716 -7316 0
13716 -3476 0
-13717 7317 3477 0
13717 -7317 0
13717 -3477 0
-13718 7318 3478 0
13718 -7318 0
13718 -3478 0
-13719 7319 3479 0
13719 -7319 0
13719 -3479 0
-13720 7320 3480 0
13720 -7320 0
13720 -3480 0
-13721 7321 3481 0
13721 -7321 0
13721 -3481 0
-13722 7322 3482 0
13722 -7322 0
13722 -3482 0
-13723 7323 3483 0
13723 -7323 0
13723 -3483 0
-13724 7324 3484 0
13724 -7324 0
13724 -3484 0
-13725 7325 3485 0
13725 -7325 0
13725 -3485 0
-13726 7326 3486 0
13726 -7326 0
13726 -3486 0
-13727 7327 3487 0
13727 -7327 0
13727 -3487 0
-13728 7328 3488 0
13728 -7328 0
13728 -3488 0
-13729 7329 3489 0
13729 -7329 0
13729 -3489 0
-13730 7330 3490 0
13730 -7330 0
13730 -3490 0
-13731 7331 3491 0
13731 -7331 0
13731 -3491 0
-13732 7332 3492 0
13732 -7332 0
13732 -3492 0
-13733 7333 3493 0
13733 -7333 0
13733 -3493 0
-13734 7334 3494 0
13734 -7334 0
13734 -3494 0
-13735 7335 3495 0
13735 -7335 0
13735 -3495 0
-13736 7336 3496 0
13736 -7336 0
13736 -3496 0
-13737 7337 3497 0
13737 -7337 0
13737 -3497 0
-13738 7338 3498 0
13738 -7338 0
13738 -3498 0
-13739 7339 3499 0
13739 -7339 0
13739 -3499 0
-13740 7340 3500 0
13740 -7340 0
13740 -3500 0
-13741 7341 3501 0
13741 -7341 0
13741 -3501 0
-13742 7342 3502 0
13742 -7342 0
13742 -3502 0
-13743 7343 3503 0
13743 -7343 0
13743 -3503 0
-13744 7344 3504 0
13744 -7344 0
13744 -3504 0
-13745 7345 3505 0
13745 -7345 0
13745 -3505 0
-13746 7346 3506 0
13746 -7346 0
13746 -3506 0
-13747 7347 3507 0
13747 -7347 0
13747 -3507 0
-13748 7348 3508 0
13748 -7348 0
13748 -3508 0
-13749 7349 3509 0
13749 -7349 0
13749 -3509 0
-13750 7350 3510 0
13750 -7350 0
13750 -3510 0
-13751 7351 3511 0
13751 -7351 0
13751 -3511 0
-13752 7352 3512 0
13752 -7352 0
13752 -3512 0
-13753 7353 3513 0
13753 -7353 0
13753 -3513 0
-13754 7354 3514 0
13754 -7354 0
13754 -3514 0
-13755 7355 3515 0
13755 -7355 0
13755 -3515 0
-13756 7356 3516 0
13756 -7356 0
13756 -3516 0
-13757 7357 3517 0
13757 -7357 0
13757 -3517 0
-13758 7358 3518 0
13758 -7358 0
13758 -3518 0
-13759 7359 3519 0
13759 -7359 0
13759 -3519 0
-13760 7360 3520 0
13760 -7360 0
13760 -3520 0
-13761 7361 3521 0
13761 -7361 0
13761 -3521 0
-13762 7362 3522 0
13762 -7362 0
13762 -3522 0
-13763 7363 3523 0
13763 -7363 0
13763 -3523 0
-13764 7364 3524 0
13764 -7364 0
13764 -3524 0
-13765 7365 3525 0
13765 -7365 0
13765 -3525 0
-13766 7366 3526 0
13766 -7366 0
13766 -3526 0
-13767 7367 3527 0
13767 -7367 0
13767 -3527 0
-13768 7368 3528 0
13768 -7368 0
13768 -3528 0
-13769 7369 3529 0
13769 -7369 0
13769 -3529 0
-13770 7370 3530 0
13770 -7370 0
13770 -3530 0
-13771 7371 3531 0
13771 -7371 0
13771 -3531 0
-13772 7372 3532 0
13772 -7372 0
13772 -3532 0
-13773 7373 3533 0
13773 -7373 0
13773 -3533 0
-13774 7374 3534 0
13774 -7374 0
13774 -3534 0
-13775 7375 3535 0
13775 -7375 0
13775 -3535 0
-13776 7376 3536 0
13776 -7376 0
13776 -3536 0
-13777 7377 3537 0
13777 -7377 0
13777 -3537 0
-13778 7378 3538 0
13778 -7378 0
13778 -3538 0
-13779 7379 3539 0
13779 -7379 0
13779 -3539 0
-13780 7380 3540 0
13780 -7380 0
13780 -3540 0
-13781 7381 3541 0
13781 -7381 0
13781 -3541 0
-13782 7382 3542 0
13782 -7382 0
13782 -3542 0
-13783 7383 3543 0
13783 -7383 0
13783 -3543 0
-13784 7384 3544 0
13784 -7384 0
13784 -3544 0
-13785 7385 3545 0
13785 -7385 0
13785 -3545 0
-13786 7386 3546 0
13786 -7386 0
13786 -3546 0
-13787 7387 3547 0
13787 -7387 0
13787 -3547 0
-13788 7388 3548 0
13788 -7388 0
13788 -3548 0
-13789 7389 3549 0
13789 -7389 0
13789 -3549 0
-13790 7390 3550 0
13790 -7390 0
13790 -3550 0
-13791 7391 3551 0
13791 -7391 0
13791 -3551 0
-13792 7392 3552 0
13792 -7392 0
13792 -3552 0
-13793 7393 3553 0
13793 -7393 0
13793 -3553 0
-13794 7394 3554 0
13794 -7394 0
13794 -3554 0
-13795 7395 3555 0
13795 -7395 0
13795 -3555 0
-13796 7396 3556 0
13796 -7396 0
13796 -3556 0
-13797 7397 3557 0
13797 -7397 0
13797 -3557 0
-13798 7398 3558 0
13798 -7398 0
13798 -3558 0
-13799 7399 3559 0
13799 -7399 0
13799 -3559 0
-13800 7400 3560 0
13800 -7400 0
13800 -3560 0
-13801 7401 3561 0
13801 -7401 0
13801 -3561 0
-13802 7402 3562 0
13802 -7402 0
13802 -3562 0
-13803 7403 3563 0
13803 -7403 0
13803 -3563 0
-13804 7404 3564 0
13804 -7404 0
13804 -3564 0
-13805 7405 3565 0
13805 -7405 0
13805 -3565 0
-13806 7406 3566 0
13806 -7406 0
13806 -3566 0
-13807 7407 3567 0
13807 -7407 0
13807 -3567 0
-13808 7408 3568 0
13808 -7408 0
13808 -3568 0
-13809 7409 3569 0
13809 -7409 0
13809 -3569 0
-13810 7410 3570 0
13810 -7410 0
13810 -3570 0
-13811 7411 3571 0
13811 -7411 0
13811 -3571 0
-13812 7412 3572 0
13812 -7412 0
13812 -3572 0
-13813 7413 3573 0
13813 -7413 0
13813 -3573 0
-13814 7414 3574 0
13814 -7414 0
13814 -3574 0
-13815 7415 3575 0
13815 -7415 0
13815 -3575 0
-13816 7416 3576 0
13816 -7416 0
13816 -3576 0
-13817 7417 3577 0
13817 -7417 0
13817 -3577 0
-13818 7418 3578 0
13818 -7418 0
13818 -3578 0
-13819 7419 3579 0
13819 -7419 0
13819 -3579 0
-13820 7420 3580 0
13820 -7420 0
13820 -3580 0
-13821 7421 3581 0
13821 -7421 0
13821 -3581 0
-13822 7422 3582 0
13822 -7422 0
13822 -3582 0
-13823 7423 3583 0
13823 -7423 0
13823 -3583 0
-13824 7424 3584 0
13824 -7424 0
13824 -3584 0
-13825 7425 3585 0
13825 -7425 0
13825 -3585 0
-13826 7426 3586 0
13826 -7426 0
13826 -3586 0
-13827 7427 3587 0
13827 -7427 0
13827 -3587 0
-13828 7428 3588 0
13828 -7428 0
13828 -3588 0
-13829 7429 3589 0
13829 -7429 0
13829 -3589 0
-13830 7430 3590 0
13830 -7430 0
13830 -3590 0
-13831 7431 3591 0
13831 -7431 0
13831 -3591 0
-13832 7432 3592 0
13832 -7432 0
13832 -3592 0
-13833 7433 3593 0
13833 -7433 0
13833 -3593 0
-13834 7434 3594 0
13834 -7434 0
13834 -3594 0
-13835 7435 3595 0
13835 -7435 0
13835 -3595 0
-13836 7436 3596 0
13836 -7436 0
13836 -3596 0
-13837 7437 3597 0
13837 -7437 0
13837 -3597 0
-13838 7438 3598 0
13838 -7438 0
13838 -3598 0
-13839 7439 3599 0
13839 -7439 0
13839 -3599 0
-13840 7440 3600 0
13840 -7440 0
13840 -3600 0
-13841 7441 3601 0
13841 -7441 0
13841 -3601 0
-13842 7442 3602 0
13842 -7442 0
13842 -3602 0
-13843 7443 3603 0
13843 -7443 0
13843 -3603 0
-13844 7444 3604 0
13844 -7444 0
13844 -3604 0
-13845 7445 3605 0
13845 -7445 0
13845 -3605 0
-13846 7446 3606 0
13846 -7446 0
13846 -3606 0
-13847 7447 3607 0
13847 -7447 0
13847 -3607 0
-13848 7448 3608 0
13848 -7448 0
13848 -3608 0
-13849 7449 3609 0
13849 -7449 0
13849 -3609 0
-13850 7450 3610 0
13850 -7450 0
13850 -3610 0
-13851 7451 3611 0
13851 -7451 0
13851 -3611 0
-13852 7452 3612 0
13852 -7452 0
13852 -3612 0
-13853 7453 3613 0
13853 -7453 0
13853 -3613 0
-13854 7454 3614 0
13854 -7454 0
13854 -3614 0
-13855 7455 3615 0
13855 -7455 0
13855 -3615 0
-13856 7456 3616 0
13856 -7456 0
13856 -3616 0
-13857 7457 3617 0
13857 -7457 0
13857 -3617 0
-13858 7458 3618 0
13858 -7458 0
13858 -3618 0
-13859 7459 3619 0
13859 -7459 0
13859 -3619 0
-13860 7460 3620 0
13860 -7460 0
13860 -3620 0
-13861 7461 3621 0
13861 -7461 0
13861 -3621 0
-13862 7462 3622 0
13862 -7462 0
13862 -3622 0
-13863 7463 3623 0
13863 -7463 0
13863 -3623 0
-13864 7464 3624 0
13864 -7464 0
13864 -3624 0
-13865 7465 3625 0
13865 -7465 0
13865 -3625 0
-13866 7466 3626 0
13866 -7466 0
13866 -3626 0
-13867 7467 3627 0
13867 -7467 0
13867 -3627 0
-13868 7468 3628 0
13868 -7468 0
13868 -3628 0
-13869 7469 3629 0
13869 -7469 0
13869 -3629 0
-13870 7470 3630 0
13870 -7470 0
13870 -3630 0
-13871 7471 3631 0
13871 -7471 0
13871 -3631 0
-13872 7472 3632 0
13872 -7472 0
13872 -3632 0
-13873 7473 3633 0
13873 -7473 0
13873 -3633 0
-13874 7474 3634 0
13874 -7474 0
13874 -3634 0
-13875 7475 3635 0
13875 -7475 0
13875 -3635 0
-13876 7476 3636 0
13876 -7476 0
13876 -3636 0
-13877 7477 3637 0
13877 -7477 0
13877 -3637 0
-13878 7478 3638 0
13878 -7478 0
13878 -3638 0
-13879 7479 3639 0
13879 -7479 0
13879 -3639 0
-13880 7480 3640 0
13880 -7480 0
13880 -3640 0
-13881 7481 3641 0
13881 -7481 0
13881 -3641 0
-13882 7482 3642 0
13882 -7482 0
13882 -3642 0
-13883 7483 3643 0
13883 -7483 0
13883 -3643 0
-13884 7484 3644 0
13884 -7484 0
13884 -3644 0
-13885 7485 3645 0
13885 -7485 0
13885 -3645 0
-13886 7486 3646 0
13886 -7486 0
13886 -3646 0
-13887 7487 3647 0
13887 -7487 0
13887 -3647 0
-13888 7488 3648 0
13888 -7488 0
13888 -3648 0
-13889 7489 3649 0
13889 -7489 0
13889 -3649 0
-13890 7490 3650 0
13890 -7490 0
13890 -3650 0
-13891 7491 3651 0
13891 -7491 0
13891 -3651 0
-13892 7492 3652 0
13892 -7492 0
13892 -3652 0
-13893 7493 3653 0
13893 -7493 0
13893 -3653 0
-13894 7494 3654 0
13894 -7494 0
13894 -3654 0
-13895 7495 3655 0
13895 -7495 0
13895 -3655 0
-13896 7496 3656 0
13896 -7496 0
13896 -3656 0
-13897 7497 3657 0
13897 -7497 0
13897 -3657 0
-13898 7498 3658 0
13898 -7498 0
13898 -3658 0
-13899 7499 3659 0
13899 -7499 0
13899 -3659 0
-13900 7500 3660 0
13900 -7500 0
13900 -3660 0
-13901 7501 3661 0
13901 -7501 0
13901 -3661 0
-13902 7502 3662 0
13902 -7502 0
13902 -3662 0
-13903 7503 3663 0
13903 -7503 0
13903 -3663 0
-13904 7504 3664 0
13904 -7504 0
13904 -3664 0
-13905 7505 3665 0
13905 -7505 0
13905 -3665 0
-13906 7506 3666 0
13906 -7506 0
13906 -3666 0
-13907 7507 3667 0
13907 -7507 0
13907 -3667 0
-13908 7508 3668 0
13908 -7508 0
13908 -3668 0
-13909 7509 3669 0
13909 -7509 0
13909 -3669 0
-13910 7510 3670 0
13910 -7510 0
13910 -3670 0
-13911 7511 3671 0
13911 -7511 0
13911 -3671 0
-13912 7512 3672 0
13912 -7512 0
13912 -3672 0
-13913 7513 3673 0
13913 -7513 0
13913 -3673 0
-13914 7514 3674 0
13914 -7514 0
13914 -3674 0
-13915 7515 3675 0
13915 -7515 0
13915 -3675 0
-13916 7516 3676 0
13916 -7516 0
13916 -3676 0
-13917 7517 3677 0
13917 -7517 0
13917 -3677 0
-13918 7518 3678 0
13918 -7518 0
13918 -3678 0
-13919 7519 3679 0
13919 -7519 0
13919 -3679 0
-13920 7520 3680 0
13920 -7520 0
13920 -3680 0
14081 14241 14401 14561 14721 14881 15041 15201 0
-10241 2561 0
-10401 2721 0
-10561 2881 0
-10721 3041 0
-10881 3201 0
-11041 3361 0
-11201 3521 0
-11681 6561 0
-11841 6721 0
-12001 6881 0
-12161 7041 0
-12321 7201 0
-12481 7361 0
-12641 7521 0
-11681 -10401 0
-14241 11681 10401 0
14241 -11681 0
14241 -10401 0
-11841 -10561 0
-14401 11841 10561 0
14401 -11841 0
14401 -10561 0
-12001 -10721 0
-14561 12001 10721 0
14561 -12001 0
14561 -10721 0
-12161 -10881 0
-14721 12161 10881 0
14721 -12161 0
14721 -10881 0
-12321 -11041 0
-14881 12321 11041 0
14881 -12321 0
14881 -11041 0
-12481 -11201 0
-15041 12481 11201 0
15041 -12481 0
15041 -11201 0
-15201 12641 0
15201 -12641 0
-14081 10241 0
14081 -10241 0
14082 14242 14402 14562 14722 14882 15042 15202 0
-10242 2562 0
-10402 2722 0
-10562 2882 0
-10722 3042 0
-10882 3202 0
-11042 3362 0
-11202 3522 0
-11682 6562 0
-11842 6722 0
-12002 6882 0
-12162 7042 0
-12322 7202 0
-12482 7362 0
-12642 7522 0
-11682 -10402 0
-14242 11682 10402 0
14242 -11682 0
14242 -10402 0
-11842 -10562 0
-14402 11842 10562 0
14402 -11842 0
14402 -10562 0
-12002 -10722 0
-14562 12002 10722 0
14562 -12002 0
14562 -10722 0
-12162 -10882 0
-14722 12162 10882 0
14722 -12162 0
14722 -10882 0
-12322 -11042 0
-14882 12322 11042 0
14882 -12322 0
14882 -11042 0
-12482 -11202 0
-15042 12482 11202 0
15042 -12482 0
15042 -11202 0
-15202 12642 0
15202 -12642 0
-14082 10242 0
14082 -10242 0
14083 14243 14403 14563 14723 14883 15043 15203 0
-10243 2563 0
-10403 2723 0
-10563 2883 0
-10723 3043 0
-10883 3203 0
-11043 3363 0
-11203 3523 0
-11683 6563 0
-11843 6723 0
-12003 6883 0
-12163 7043 0
-12323 7203 0
-12483 7363 0
-12643 7523 0
-11683 -10403 0
-14243 11683 10403 0
14243 -11683 0
14243 -10403 0
-11843 -10563 0
-14403 11843 10563 0
14403 -11843 0
14403 -10563 0
-12003 -10723 0
-14563 12003 10723 0
14563 -12003 0
14563 -10723 0
-12163 -10883 0
-14723 12163 10883 0
14723 -12163 0
14723 -10883 0
-12323 -11043 0
-14883 12323 11043 0
14883 -12323 0
14883 -11043 0
-12483 -11203 0
-15043 12483 11203 0
15043 -12483 0
15043 -11203 0
-15203 12643 0
15203 -12643 0
-14083 10243 0
14083 -10243 0
14084 14244 14404 14564 14724 14884 15044 15204 0
-10244 2564 0
-10404 2724 0
-10564 2884 0
-10724 3044 0
-10884 3204 0
-11044 3364 0
-11204 3524 0
-11684 6564 0
-11844 6724 0
-12004 6884 0
-12164 7044 0
-12324 7204 0
-12484 7364 0
-12644 7524 0
-11684 -10404 0
-14244 11684 10404 0
14244 -11684 0
14244 -10404 0
-11844 -10564 0
-14404 11844 10564 0
14404 -11844 0
14404 -10564 0
-12004 -10724 0
-14564 12004 10724 0
14564 -12004 0
14564 -10724 0
-12164 -10884 0
-14724 12164 10884 0
14724 -12164 0
14724 -10884 0
-12324 -11044 0
-14884 12324 11044 0
14884 -12324 0
14884 -11044 0
-12484 -11204 0
-15044 12484 11204 0
15044 -12484 0
15044 -11204 0
-15204 12644 0
15204 -12644 0
-14084 10244 0
14084 -10244 0
14085 14245 14405 14565 14725 14885 15045 15205 0
-10245 2565 0
-10405 2725 0
-10565 2885 0
-10725 3045 0
-10885 3205 0
-11045 3365 0
-11205 3525 0
-11685 6565 0
-11845 6725 0
-12005 6885 0
-12165 7045 0
-12325 7205 0
-12485 7365 0
-12645 7525 0
-11685 -10405 0
-14245 11685 10405 0
14245 -11685 0
14245 -10405 0
-11845 -10565 0
-14405 11845 10565 0
14405 -11845 0
14405 -10565 0
-12005 -10725 0
-14565 12005 10725 0
14565 -12005 0
14565 -10725 0
-12165 -10885 0
-14725 12165 10885 0
14725 -12165 0
14725 -10885 0
-12325 -11045 0
-14885 12325 11045 0
14885 -12325 0
14885 -11045 0
-12485 -11205 0
-15045 12485 11205 0
15045 -12485 0
15045 -11205 0
-15205 12645 0
15205 -12645 0
-14085 10245 0
14085 -10245 0
14086 14246 14406 14566 14726 14886 15046 15206 0
-10246 2566 0
-10406 2726 0
-10566 2886 0
-10726 3046 0
-10886 3206 0
-11046 3366 0
-11206 3526 0
-11686 6566 0
-11846 6726 0
-12006 6886 0
-12166 7046 0
-12326 7206 0
-12486 7366 0
-12646 7526 0
-11686 -10406 0
-14246 11686 10406 0
14246 -11686 0
14246 -10406 0
-11846 -10566 0
-14406 11846 10566 0
14406 -11846 0
14406 -10566 0
-12006 -10726 0
-14566 12006 10726 0
14566 -12006 0
14566 -10726 0
-12166 -10886 0
-14726 12166 10886 0
14726 -12166 0
14726 -10886 0
-12326 -11046 0
-14886 12326 11046 0
14886 -12326 0
14886 -11046 0
-12486 -11206 0
-15046 12486 11206 0
15046 -12486 0
15046 -11206 0
-15206 12646 0
15206 -12646 0
-14086 10246 0
14086 -10246 0
14087 14247 14407 14567 14727 14887 15047 15207 0
-10247 2567 0
-10407 2727 0
-10567 2887 0
-10727 3047 0
-10887 3207 0
-11047 3367 0
-11207 3527 0
-11687 6567 0
-11847 6727 0
-12007 6887 0
-12167 7047 0
-12327 7207 0
-12487 7367 0
-12647 7527 0
-11687 -10407 0
-14247 11687 10407 0
14247 -11687 0
14247 -10407 0
-11847 -10567 0
-14407 11847 10567 0
14407 -11847 0
14407 -10567 0
-12007 -10727 0
-14567 12007 10727 0
14567 -12007 0
14567 -10727 0
-12167 -10887 0
-14727 12167 10887 0
14727 -12167 0
14727 -10887 0
-12327 -11047 0
-14887 12327 11047 0
14887 -12327 0
14887 -11047 0
-12487 -11207 0
-15047 12487 11207 0
15047 -12487 0
15047 -11207 0
-15207 12647 0
15207 -12647 0
-14087 10247 0
14087 -10247 0
14088 14248 14408 14568 14728 14888 15048 15208 0
-10248 2568 0
-10408 2728 0
-10568 2888 0
-10728 3048 0
-10888 3208 0
-11048 3368 0
-11208 3528 0
-11688 6568 0
-11848 6728 0
-12008 6888 0
-12168 7048 0
-12328 7208 0
-12488 7368 0
-12648 7528 0
-11688 -10408 0
-14248 11688 10408 0
14248 -11688 0
14248 -10408 0
-11848 -10568 0
-14408 11848 10568 0
14408 -11848 0
14408 -10568 0
-12008 -10728 0
-14568 12008 10728 0
14568 -12008 0
14568 -10728 0
-12168 -10888 0
-14728 12168 10888 0
14728 -12168 0
14728 -10888 0
-12328 -11048 0
-14888 12328 11048 0
14888 -12328 0
14888 -11048 0
-12488 -11208 0
-15048 12488 11208 0
15048 -12488 0
15048 -11208 0
-15208 12648 0
15208 -12648 0
-14088 10248 0
14088 -10248 0
14089 14249 14409 14569 14729 14889 15049 15209 0
-10249 2569 0
-10409 2729 0
-10569 2889 0
-10729 3049 0
-10889 3209 0
-11049 3369 0
-11209 3529 0
-11689 6569 0
-11849 6729 0
-12009 6889 0
-12169 7049 0
-12329 7209 0
-12489 7369 0
-12649 7529 0
-11689 -10409 0
-14249 11689 10409 0
14249 -11689 0
14249 -10409 0
-11849 -10569 0
-14409 11849 10569 0
14409 -11849 0
14409 -10569 0
-12009 -10729 0
-14569 12009 10729 0
14569 -12009 0
14569 -10729 0
-12169 -10889 0
-14729 12169 10889 0
14729 -12169 0
14729 -10889 0
-12329 -11049 0
-14889 12329 11049 0
14889 -12329 0
14889 -11049 0
-12489 -11209 0
-15049 12489 11209 0
15049 -12489 0
15049 -11209 0
-15209 12649 0
15209 -12649 0
-14089 10249 0
14089 -10249 0
14090 14250 14410 14570 14730 14890 15050 15210 0
-10250 2570 0
-10410 2730 0
-10570 2890 0
-10730 3050 0
-10890 3210 0
-11050 3370 0
-11210 3530 0
-11690 6570 0
-11850 6730 0
-12010 6890 0
-12170 7050 0
-12330 7210 0
-12490 7370 0
-12650 7530 0
-11690 -10410 0
-14250 11690 10410 0
14250 -11690 0
14250 -10410 0
-11850 -10570 0
-14410 11850 10570 0
14410 -11850 0
14410 -10570 0
-12010 -10730 0
-14570 12010 10730 0
14570 -12010 0
14570 -10730 0
-12170 -10890 0
-14730 12170 10890 0
14730 -12170 0
14730 -10890 0
-12330 -11050 0
-14890 12330 11050 0
14890 -12330 0
14890 -11050 0
-12490 -11210 0
-15050 12490 11210 0
15050 -12490 0
15050 -11210 0
-15210 12650 0
15210 -12650 0
-14090 10250 0
14090 -10250 0
14091 14251 14411 14571 14731 14891 15051 15211 0
-10251 2571 0
-10411 2731 0
-10571 2891 0
-10731 3051 0
-10891 3211 0
-11051 3371 0
-11211 3531 0
-11691 6571 0
-11851 6731 0
-12011 6891 0
-12171 7051 0
-12331 7211 0
-12491 7371 0
-12651 7531 0
-11691 -10411 0
-14251 11691 10411 0
14251 -11691 0
14251 -10411 0
-11851 -10571 0
-14411 11851 10571 0
14411 -11851 0
14411 -10571 0
-12011 -10731 0
-14571 12011 10731 0
14571 -12011 0
14571 -10731 0
-12171 -10891 0
-14731 12171 10891 0
14731 -12171 0
14731 -10891 0
-12331 -11051 0
-14891 12331 11051 0
14891 -12331 0
14891 -11051 0
-12491 -11211 0
-15051 12491 11211 0
15051 -12491 0
15051 -11211 0
-15211 12651 0
15211 -12651 0
-14091 10251 0
14091 -10251 0
14092 14252 14412 14572 14732 14892 15052 15212 0
-10252 2572 0
-10412 2732 0
-10572 2892 0
-10732 3052 0
-10892 3212 0
-11052 3372 0
-11212 3532 0
-11692 6572 0
-11852 6732 0
-12012 6892 0
-12172 7052 0
-12332 7212 0
-12492 7372 0
-12652 7532 0
-11692 -10412 0
-14252 11692 10412 0
14252 -11692 0
14252 -10412 0
-11852 -10572 0
-14412 11852 10572 0
14412 -11852 0
14412 -10572 0
-12012 -10732 0
-14572 12012 10732 0
14572 -12012 0
14572 -10732 0
-12172 -10892 0
-14732 12172 10892 0
14732 -12172 0
14732 -10892 0
-12332 -11052 0
-14892 12332 11052 0
14892 -12332 0
14892 -11052 0
-12492 -11212 0
-15052 12492 11212 0
15052 -12492 0
15052 -11212 0
-15212 12652 0
15212 -12652 0
-14092 10252 0
14092 -10252 0
14093 14253 14413 14573 14733 14893 15053 15213 0
-10253 2573 0
-10413 2733 0
-10573 2893 0
-10733 3053 0
-10893 3213 0
-11053 3373 0
-11213 3533 0
-11693 6573 0
-11853 6733 0
-12013 6893 0
-12173 7053 0
-12333 7213 0
-12493 7373 0
-12653 7533 0
-11693 -10413 0
-14253 11693 10413 0
14253 -11693 0
14253 -10413 0
-11853 -10573 0
-14413 11853 10573 0
14413 -11853 0
14413 -10573 0
-12013 -10733 0
-14573 12013 10733 0
14573 -12013 0
14573 -10733 0
-12173 -10893 0
-14733 12173 10893 0
14733 -12173 0
14733 -10893 0
-12333 -11053 0
-14893 12333 11053 0
14893 -12333 0
14893 -11053 0
-12493 -11213 0
-15053 12493 11213 0
15053 -12493 0
15053 -11213 0
-15213 12653 0
15213 -12653 0
-14093 10253 0
14093 -10253 0
14094 14254 14414 14574 14734 14894 15054 15214 0
-10254 2574 0
-10414 2734 0
-10574 2894 0
-10734 3054 0
-10894 3214 0
-11054 3374 0
-11214 3534 0
-11694 6574 0
-11854 6734 0
-12014 6894 0
-12174 7054 0
-12334 7214 0
-12494 7374 0
-12654 7534 0
-11694 -10414 0
-14254 11694 10414 0
14254 -11694 0
14254 -10414 0
-11854 -10574 0
-14414 11854 10574 0
14414 -11854 0
14414 -10574 0
-12014 -10734 0
-14574 12014 10734 0
14574 -12014 0
14574 -10734 0
-12174 -10894 0
-14734 12174 10894 0
14734 -12174 0
14734 -10894 0
-12334 -11054 0
-14894 12334 11054 0
14894 -12334 0
14894 -11054 0
-12494 -11214 0
-15054 12494 11214 0
15054 -12494 0
15054 -11214 0
-15214 12654 0
15214 -12654 0
-14094 10254 0
14094 -10254 0
14095 14255 14415 14575 14735 14895 15055 15215 0
-10255 2575 0
-10415 2735 0
-10575 2895 0
-10735 3055 0
-10895 3215 0
-11055 3375 0
-11215 3535 0
-11695 6575 0
-11855 6735 0
-12015 6895 0
-12175 7055 0
-12335 7215 0
-12495 7375 0
-12655 7535 0
-11695 -10415 0
-14255 11695 10415 0
14255 -11695 0
14255 -10415 0
-11855 -10575 0
-14415 11855 10575 0
14415 -11855 0
14415 -10575 0
-12015 -10735 0
-14575 12015 10735 0
14575 -12015 0
14575 -10735 0
-12175 -10895 0
-14735 12175 10895 0
14735 -12175 0
14735 -10895 0
-12335 -11055 0
-14895 12335 11055 0
14895 -12335 0
14895 -11055 0
-12495 -11215 0
-15055 12495 11215 0
15055 -12495 0
15055 -11215 0
-15215 12655 0
15215 -12655 0
-14095 10255 0
14095 -10255 0
14096 14256 14416 14576 14736 14896 15056 15216 0
-10256 2576 0
-10416 2736 0
-10576 2896 0
-10736 3056 0
-10896 3216 0
-11056 3376 0
-11216 3536 0
-11696 6576 0
-11856 6736 0
-12016 6896 0
-12176 7056 0
-12336 7216 0
-12496 7376 0
-12656 7536 0
-11696 -10416 0
-14256 11696 10416 0
14256 -11696 0
14256 -10416 0
-11856 -10576 0
-14416 11856 10576 0
14416 -11856 0
14416 -10576 0
-12016 -10736 0
-14576 12016 10736 0
14576 -12016 0
14576 -10736 0
-12176 -10896 0
-14736 12176 10896 0
14736 -12176 0
14736 -10896 0
-12336 -11056 0
-14896 12336 11056 0
14896 -12336 0
14896 -11056 0
-12496 -11216 0
-15056 12496 11216 0
15056 -12496 0
15056 -11216 0
-15216 12656 0
15216 -12656 0
-14096 10256 0
14096 -10256 0
14097 14257 14417 14577 14737 14897 15057 15217 0
-10257 2577 0
-10417 2737 0
-10577 2897 0
-10737 3057 0
-10897 3217 0
-11057 3377 0
-11217 3537 0
-11697 6577 0
-11857 6737 0
-12017 6897 0
-12177 7057 0
-12337 7217 0
-12497 7377 0
-12657 7537 0
-11697 -10417 0
-14257 11697 10417 0
14257 -11697 0
14257 -10417 0
-11857 -10577 0
-14417 11857 10577 0
14417 -11857 0
14417 -10577 0
-12017 -10737 0
-14577 12017 10737 0
14577 -12017 0
14577 -10737 0
-12177 -10897 0
-14737 12177 10897 0
14737 -12177 0
14737 -10897 0
-12337 -11057 0
-14897 12337 11057 0
14897 -12337 0
14897 -11057 0
-12497 -11217 0
-15057 12497 11217 0
15057 -12497 0
15057 -11217 0
-15217 12657 0
15217 -12657 0
-14097 10257 0
14097 -10257 0
14098 14258 14418 14578 14738 14898 15058 15218 0
-10258 2578 0
-10418 2738 0
-10578 2898 0
-10738 3058 0
-10898 3218 0
-11058 3378 0
-11218 3538 0
-11698 6578 0
-11858 6738 0
-12018 6898 0
-12178 7058 0
-12338 7218 0
-12498 7378 0
-12658 7538 0
-11698 -10418 0
-14258 11698 10418 0
14258 -11698 0
14258 -10418 0
-11858 -10578 0
-14418 11858 10578 0
14418 -11858 0
14418 -10578 0
-12018 -10738 0
-14578 12018 10738 0
14578 -12018 0
14578 -10738 0
-12178 -10898 0
-14738 12178 10898 0
14738 -12178 0
14738 -10898 0
-12338 -11058 0
-14898 12338 11058 0
14898 -12338 0
14898 -11058 0
-12498 -11218 0
-15058 12498 11218 0
15058 -12498 0
15058 -11218 0
-15218 12658 0
15218 -12658 0
-14098 10258 0
14098 -10258 0
14099 14259 14419 14579 14739 14899 15059 15219 0
-10259 2579 0
-10419 2739 0
-10579 2899 0
-10739 3059 0
-10899 3219 0
-11059 3379 0
-11219 3539 0
-11699 6579 0
-11859 6739 0
-12019 6899 0
-12179 7059 0
-12339 7219 0
-12499 7379 0
-12659 7539 0
-11699 -10419 0
-14259 11699 10419 0
14259 -11699 0
14259 -10419 0
-11859 -10579 0
-14419 11859 10579 0
14419 -11859 0
14419 -10579 0
-12019 -10739 0
-14579 12019 10739 0
14579 -12019 0
14579 -10739 0
-12179 -10899 0
-14739 12179 10899 0
14739 -12179 0
14739 -10899 0
-12339 -11059 0
-14899 12339 11059 0
14899 -12339 0
14899 -11059 0
-12499 -11219 0
-15059 12499 11219 0
15059 -12499 0
15059 -11219 0
-15219 12659 0
15219 -12659 0
-14099 10259 0
14099 -10259 0
14100 14260 14420 14580 14740 14900 15060 15220 0
-10260 2580 0
-10420 2740 0
-10580 2900 0
-10740 3060 0
-10900 3220 0
-11060 3380 0
-11220 3540 0
-11700 6580 0
-11860 6740 0
-12020 6900 0
-12180 7060 0
-12340 7220 0
-12500 7380 0
-12660 7540 0
-11700 -10420 0
-14260 11700 10420 0
14260 -11700 0
14260 -10420 0
-11860 -10580 0
-14420 11860 10580 0
14420 -11860 0
14420 -10580 0
-12020 -10740 0
-14580 12020 10740 0
14580 -12020 0
14580 -10740 0
-12180 -10900 0
-14740 12180 10900 0
14740 -12180 0
14740 -10900 0
-12340 -11060 0
-14900 12340 11060 0
14900 -12340 0
14900 -11060 0
-12500 -11220 0
-15060 12500 11220 0
15060 -12500 0
15060 -11220 0
-15220 12660 0
15220 -12660 0
-14100 10260 0
14100 -10260 0
14101 14261 14421 14581 14741 14901 15061 15221 0
-10261 2581 0
-10421 2741 0
-10581 2901 0
-10741 3061 0
-10901 3221 0
-11061 3381 0
-11221 3541 0
-11701 6581 0
-11861 6741 0
-12021 6901 0
-12181 7061 0
-12341 7221 0
-12501 7381 0
-12661 7541 0
-11701 -10421 0
-14261 11701 10421 0
14261 -11701 0
14261 -10421 0
-11861 -10581 0
-14421 11861 10581 0
14421 -11861 0
14421 -10581 0
-12021 -10741 0
-14581 12021 10741 0
14581 -12021 0
14581 -10741 0
-12181 -10901 0
-14741 12181 10901 0
14741 -12181 0
14741 -10901 0
-12341 -11061 0
-14901 12341 11061 0
14901 -12341 0
14901 -11061 0
-12501 -11221 0
-15061 12501 11221 0
15061 -12501 0
15061 -11221 0
-15221 12661 0
15221 -12661 0
-14101 10261 0
14101 -10261 0
14102 14262 14422 14582 14742 14902 15062 15222 0
-10262 2582 0
-10422 2742 0
-10582 2902 0
-10742 3062 0
-10902 3222 0
-11062 3382 0
-11222 3542 0
-11702 6582 0
-11862 6742 0
-12022 6902 0
-12182 7062 0
-12342 7222 0
-12502 7382 0
-12662 7542 0
-11702 -10422 0
-14262 11702 10422 0
14262 -11702 0
14262 -10422 0
-11862 -10582 0
-14422 11862 10582 0
14422 -11862 0
14422 -10582 0
-12022 -10742 0
-14582 12022 10742 0
14582 -12022 0
14582 -10742 0
-12182 -10902 0
-14742 12182 10902 0
14742 -12182 0
14742 -10902 0
-12342 -11062 0
-14902 12342 11062 0
14902 -12342 0
14902 -11062 0
-12502 -11222 0
-15062 12502 11222 0
15062 -12502 0
15062 -11222 0
-15222 12662 0
15222 -12662 0
-14102 10262 0
14102 -10262 0
14103 14263 14423 14583 14743 14903 15063 15223 0
-10263 2583 0
-10423 2743 0
-10583 2903 0
-10743 3063 0
-10903 3223 0
-11063 3383 0
-11223 3543 0
-11703 6583 0
-11863 6743 0
-12023 6903 0
-12183 7063 0
-12343 7223 0
-12503 7383 0
-12663 7543 0
-11703 -10423 0
-14263 11703 10423 0
14263 -11703 0
14263 -10423 0
-11863 -10583 0
-14423 11863 10583 0
14423 -11863 0
14423 -10583 0
-12023 -10743 0
-14583 12023 10743 0
14583 -12023 0
14583 -10743 0
-12183 -10903 0
-14743 12183 10903 0
14743 -12183 0
14743 -10903 0
-12343 -11063 0
-14903 12343 11063 0
14903 -12343 0
14903 -11063 0
-12503 -11223 0
-15063 12503 11223 0
15063 -12503 0
15063 -11223 0
-15223 12663 0
15223 -12663 0
-14103 10263 0
14103 -10263 0
14104 14264 14424 14584 14744 14904 15064 15224 0
-10264 2584 0
-10424 2744 0
-10584 2904 0
-10744 3064 0
-10904 3224 0
-11064 3384 0
-11224 3544 0
-11704 6584 0
-11864 6744 0
-12024 6904 0
-12184 7064 0
-12344 7224 0
-12504 7384 0
-12664 7544 0
-11704 -10424 0
-14264 11704 10424 0
14264 -11704 0
14264 -10424 0
-11864 -10584 0
-14424 11864 10584 0
14424 -11864 0
14424 -10584 0
-12024 -10744 0
-14584 12024 10744 0
14584 -12024 0
14584 -10744 0
-12184 -10904 0
-14744 12184 10904 0
14744 -12184 0
14744 -10904 0
-12344 -11064 0
-14904 12344 11064 0
14904 -12344 0
14904 -11064 0
-12504 -11224 0
-15064 12504 11224 0
15064 -12504 0
15064 -11224 0
-15224 12664 0
15224 -12664 0
-14104 10264 0
14104 -10264 0
14105 14265 14425 14585 14745 14905 15065 15225 0
-10265 2585 0
-10425 2745 0
-10585 2905 0
-10745 3065 0
-10905 3225 0
-11065 3385 0
-11225 3545 0
-11705 6585 0
-11865 6745 0
-12025 6905 0
-12185 7065 0
-12345 7225 0
-12505 7385 0
-12665 7545 0
-11705 -10425 0
-14265 11705 10425 0
14265 -11705 0
14265 -10425 0
-11865 -10585 0
-14425 11865 10585 0
14425 -11865 0
14425 -10585 0
-12025 -10745 0
-14585 12025 10745 0
14585 -12025 0
14585 -10745 0
-12185 -10905 0
-14745 12185 10905 0
14745 -12185 0
14745 -10905 0
-12345 -11065 0
-14905 12345 11065 0
14905 -12345 0
14905 -11065 0
-12505 -11225 0
-15065 12505 11225 0
15065 -12505 0
15065 -11225 0
-15225 12665 0
15225 -12665 0
-14105 10265 0
14105 -10265 0
14106 14266 14426 14586 14746 14906 15066 15226 0
-10266 2586 0
-10426 2746 0
-10586 2906 0
-10746 3066 0
-10906 3226 0
-11066 3386 0
-11226 3546 0
-11706 6586 0
-11866 6746 0
-12026 6906 0
-12186 7066 0
-12346 7226 0
-12506 7386 0
-12666 7546 0
-11706 -10426 0
-14266 11706 10426 0
14266 -11706 0
14266 -10426 0
-11866 -10586 0
-14426 11866 10586 0
14426 -11866 0
14426 -10586 0
-12026 -10746 0
-14586 12026 10746 0
14586 -12026 0
14586 -10746 0
-12186 -10906 0
-14746 12186 10906 0
14746 -12186 0
14746 -10906 0
-12346 -11066 0
-14906 12346 11066 0
14906 -12346 0
14906 -11066 0
-12506 -11226 0
-15066 12506 11226 0
15066 -12506 0
15066 -11226 0
-15226 12666 0
15226 -12666 0
-14106 10266 0
14106 -10266 0
14107 14267 14427 14587 14747 14907 15067 15227 0
-10267 2587 0
-10427 2747 0
-10587 2907 0
-10747 3067 0
-10907 3227 0
-11067 3387 0
-11227 3547 0
-11707 6587 0
-11867 6747 0
-12027 6907 0
-12187 7067 0
-12347 7227 0
-12507 7387 0
-12667 7547 0
-11707 -10427 0
-14267 11707 10427 0
14267 -11707 0
14267 -10427 0
-11867 -10587 0
-14427 11867 10587 0
14427 -11867 0
14427 -10587 0
-12027 -10747 0
-14587 12027 10747 0
14587 -12027 0
14587 -10747 0
-12187 -10907 0
-14747 12187 10907 0
14747 -12187 0
14747 -10907 0
-12347 -11067 0
-14907 12347 11067 0
14907 -12347 0
14907 -11067 0
-12507 -11227 0
-15067 12507 11227 0
15067 -12507 0
15067 -11227 0
-15227 12667 0
15227 -12667 0
-14107 10267 0
14107 -10267 0
14108 14268 14428 14588 14748 14908 15068 15228 0
-10268 2588 0
-10428 2748 0
-10588 2908 0
-10748 3068 0
-10908 3228 0
-11068 3388 0
-11228 3548 0
-11708 6588 0
-11868 6748 0
-12028 6908 0
-12188 7068 0
-12348 7228 0
-12508 7388 0
-12668 7548 0
-11708 -10428 0
-14268 11708 10428 0
14268 -11708 0
14268 -10428 0
-11868 -10588 0
-14428 11868 10588 0
14428 -11868 0
14428 -10588 0
-12028 -10748 0
-14588 12028 10748 0
14588 -12028 0
14588 -10748 0
-12188 -10908 0
-14748 12188 10908 0
14748 -12188 0
14748 -10908 0
-12348 -11068 0
-14908 12348 11068 0
14908 -12348 0
14908 -11068 0
-12508 -11228 0
-15068 12508 11228 0
15068 -12508 0
15068 -11228 0
-15228 12668 0
15228 -12668 0
-14108 10268 0
14108 -10268 0
14109 14269 14429 14589 14749 14909 15069 15229 0
-10269 2589 0
-10429 2749 0
-10589 2909 0
-10749 3069 0
-10909 3229 0
-11069 3389 0
-11229 3549 0
-11709 6589 0
-11869 6749 0
-12029 6909 0
-12189 7069 0
-12349 7229 0
-12509 7389 0
-12669 7549 0
-11709 -10429 0
-14269 11709 10429 0
14269 -11709 0
14269 -10429 0
-11869 -10589 0
-14429 11869 10589 0
14429 -11869 0
14429 -10589 0
-12029 -10749 0
-14589 12029 10749 0
14589 -12029 0
14589 -10749 0
-12189 -10909 0
-14749 12189 10909 0
14749 -12189 0
14749 -10909 0
-12349 -11069 0
-14909 12349 11069 0
14909 -12349 0
14909 -11069 0
-12509 -11229 0
-15069 12509 11229 0
15069 -12509 0
15069 -11229 0
-15229 12669 0
15229 -12669 0
-14109 10269 0
14109 -10269 0
14110 14270 14430 14590 14750 14910 15070 15230 0
-10270 2590 0
-10430 2750 0
-10590 2910 0
-10750 3070 0
-10910 3230 0
-11070 3390 0
-11230 3550 0
-11710 6590 0
-11870 6750 0
-12030 6910 0
-12190 7070 0
-12350 7230 0
-12510 7390 0
-12670 7550 0
-11710 -10430 0
-14270 11710 10430 0
14270 -11710 0
14270 -10430 0
-11870 -10590 0
-14430 11870 10590 0
14430 -11870 0
14430 -10590 0
-12030 -10750 0
-14590 12030 10750 0
14590 -12030 0
14590 -10750 0
-12190 -10910 0
-14750 12190 10910 0
14750 -12190 0
14750 -10910 0
-12350 -11070 0
-14910 12350 11070 0
14910 -12350 0
14910 -11070 0
-12510 -11230 0
-15070 12510 11230 0
15070 -12510 0
15070 -11230 0
-15230 12670 0
15230 -12670 0
-14110 10270 0
14110 -10270 0
14111 14271 14431 14591 14751 14911 15071 15231 0
-10271 2591 0
-10431 2751 0
-10591 2911 0
-10751 3071 0
-10911 3231 0
-11071 3391 0
-11231 3551 0
-11711 6591 0
-11871 6751 0
-12031 6911 0
-12191 7071 0
-12351 7231 0
-12511 7391 0
-12671 7551 0
-11711 -10431 0
-14271 11711 10431 0
14271 -11711 0
14271 -10431 0
-11871 -10591 0
-14431 11871 10591 0
14431 -11871 0
14431 -10591 0
-12031 -10751 0
-14591 12031 10751 0
14591 -12031 0
14591 -10751 0
-12191 -10911 0
-14751 12191 10911 0
14751 -12191 0
14751 -10911 0
-12351 -11071 0
-14911 12351 11071 0
14911 -12351 0
14911 -11071 0
-12511 -11231 0
-15071 12511 11231 0
15071 -12511 0
15071 -11231 0
-15231 12671 0
15231 -12671 0
-14111 10271 0
14111 -10271 0
14112 14272 14432 14592 14752 14912 15072 15232 0
-10272 2592 0
-10432 2752 0
-10592 2912 0
-10752 3072 0
-10912 3232 0
-11072 3392 0
-11232 3552 0
-11712 6592 0
-11872 6752 0
-12032 6912 0
-12192 7072 0
-12352 7232 0
-12512 7392 0
-12672 7552 0
-11712 -10432 0
-14272 11712 10432 0
14272 -11712 0
14272 -10432 0
-11872 -10592 0
-14432 11872 10592 0
14432 -11872 0
14432 -10592 0
-12032 -10752 0
-14592 12032 10752 0
14592 -12032 0
14592 -10752 0
-12192 -10912 0
-14752 12192 10912 0
14752 -12192 0
14752 -10912 0
-12352 -11072 0
-14912 12352 11072 0
14912 -12352 0
14912 -11072 0
-12512 -11232 0
-15072 12512 11232 0
15072 -12512 0
15072 -11232 0
-15232 12672 0
15232 -12672 0
-14112 10272 0
14112 -10272 0
14113 14273 14433 14593 14753 14913 15073 15233 0
-10273 2593 0
-10433 2753 0
-10593 2913 0
-10753 3073 0
-10913 3233 0
-11073 3393 0
-11233 3553 0
-11713 6593 0
-11873 6753 0
-12033 6913 0
-12193 7073 0
-12353 7233 0
-12513 7393 0
-12673 7553 0
-11713 -10433 0
-14273 11713 10433 0
14273 -11713 0
14273 -10433 0
-11873 -10593 0
-14433 11873 10593 0
14433 -11873 0
14433 -10593 0
-12033 -10753 0
-14593 12033 10753 0
14593 -12033 0
14593 -10753 0
-12193 -10913 0
-14753 12193 10913 0
14753 -12193 0
14753 -10913 0
-12353 -11073 0
-14913 12353 11073 0
14913 -12353 0
14913 -11073 0
-12513 -11233 0
-15073 12513 11233 0
15073 -12513 0
15073 -11233 0
-15233 12673 0
15233 -12673 0
-14113 10273 0
14113 -10273 0
14114 14274 14434 14594 14754 14914 15074 15234 0
-10274 2594 0
-10434 2754 0
-10594 2914 0
-10754 3074 0
-10914 3234 0
-11074 3394 0
-11234 3554 0
-11714 6594 0
-11874 6754 0
-12034 6914 0
-12194 7074 0
-12354 7234 0
-12514 7394 0
-12674 7554 0
-11714 -10434 0
-14274 11714 10434 0
14274 -11714 0
14274 -10434 0
-11874 -10594 0
-14434 11874 10594 0
14434 -11874 0
14434 -10594 0
-12034 -10754 0
-14594 12034 10754 0
14594 -12034 0
14594 -10754 0
-12194 -10914 0
-14754 12194 10914 0
14754 -12194 0
14754 -10914 0
-12354 -11074 0
-14914 12354 11074 0
14914 -12354 0
14914 -11074 0
-12514 -11234 0
-15074 12514 11234 0
15074 -12514 0
15074 -11234 0
-15234 12674 0
15234 -12674 0
-14114 10274 0
14114 -10274 0
14115 14275 14435 14595 14755 14915 15075 15235 0
-10275 2595 0
-10435 2755 0
-10595 2915 0
-10755 3075 0
-10915 3235 0
-11075 3395 0
-11235 3555 0
-11715 6595 0
-11875 6755 0
-12035 6915 0
-12195 7075 0
-12355 7235 0
-12515 7395 0
-12675 7555 0
-11715 -10435 0
-14275 11715 10435 0
14275 -11715 0
14275 -10435 0
-11875 -10595 0
-14435 11875 10595 0
14435 -11875 0
14435 -10595 0
-12035 -10755 0
-14595 12035 10755 0
14595 -12035 0
14595 -10755 0
-12195 -10915 0
-14755 12195 10915 0
14755 -12195 0
14755 -10915 0
-12355 -11075 0
-14915 12355 11075 0
14915 -12355 0
14915 -11075 0
-12515 -11235 0
-15075 12515 11235 0
15075 -12515 0
15075 -11235 0
-15235 12675 0
15235 -12675 0
-14115 10275 0
14115 -10275 0
14116 14276 14436 14596 14756 14916 15076 15236 0
-10276 2596 0
-10436 2756 0
-10596 2916 0
-10756 3076 0
-10916 3236 0
-11076 3396 0
-11236 3556 0
-11716 6596 0
-11876 6756 0
-12036 6916 0
-12196 7076 0
-12356 7236 0
-12516 7396 0
-12676 7556 0
-11716 -10436 0
-14276 11716 10436 0
14276 -11716 0
14276 -10436 0
-11876 -10596 0
-14436 11876 10596 0
14436 -11876 0
14436 -10596 0
-12036 -10756 0
-14596 12036 10756 0
14596 -12036 0
14596 -10756 0
-12196 -10916 0
-14756 12196 10916 0
14756 -12196 0
14756 -10916 0
-12356 -11076 0
-14916 12356 11076 0
14916 -12356 0
14916 -11076 0
-12516 -11236 0
-15076 12516 11236 0
15076 -12516 0
15076 -11236 0
-15236 12676 0
15236 -12676 0
-14116 10276 0
14116 -10276 0
14117 14277 14437 14597 14757 14917 15077 15237 0
-10277 2597 0
-10437 2757 0
-10597 2917 0
-10757 3077 0
-10917 3237 0
-11077 3397 0
-11237 3557 0
-11717 6597 0
-11877 6757 0
-12037 6917 0
-12197 7077 0
-12357 7237 0
-12517 7397 0
-12677 7557 0
-11717 -10437 0
-14277 11717 10437 0
14277 -11717 0
14277 -10437 0
-11877 -10597 0
-14437 11877 10597 0
14437 -11877 0
14437 -10597 0
-12037 -10757 0
-14597 12037 10757 0
14597 -12037 0
14597 -10757 0
-12197 -10917 0
-14757 12197 10917 0
14757 -12197 0
14757 -10917 0
-12357 -11077 0
-14917 12357 11077 0
14917 -12357 0
14917 -11077 0
-12517 -11237 0
-15077 12517 11237 0
15077 -12517 0
15077 -11237 0
-15237 12677 0
15237 -12677 0
-14117 10277 0
14117 -10277 0
14118 14278 14438 14598 14758 14918 15078 15238 0
-10278 2598 0
-10438 2758 0
-10598 2918 0
-10758 3078 0
-10918 3238 0
-11078 3398 0
-11238 3558 0
-11718 6598 0
-11878 6758 0
-12038 6918 0
-12198 7078 0
-12358 7238 0
-12518 7398 0
-12678 7558 0
-11718 -10438 0
-14278 11718 10438 0
14278 -11718 0
14278 -10438 0
-11878 -10598 0
-14438 11878 10598 0
14438 -11878 0
14438 -10598 0
-12038 -10758 0
-14598 12038 10758 0
14598 -12038 0
14598 -10758 0
-12198 -10918 0
-14758 12198 10918 0
14758 -12198 0
14758 -10918 0
-12358 -11078 0
-14918 12358 11078 0
14918 -12358 0
14918 -11078 0
-12518 -11238 0
-15078 12518 11238 0
15078 -12518 0
15078 -11238 0
-15238 12678 0
15238 -12678 0
-14118 10278 0
14118 -10278 0
14119 14279 14439 14599 14759 14919 15079 15239 0
-10279 2599 0
-10439 2759 0
-10599 2919 0
-10759 3079 0
-10919 3239 0
-11079 3399 0
-11239 3559 0
-11719 6599 0
-11879 6759 0
-12039 6919 0
-12199 7079 0
-12359 7239 0
-12519 7399 0
-12679 7559 0
-11719 -10439 0
-14279 11719 10439 0
14279 -11719 0
14279 -10439 0
-11879 -10599 0
-14439 11879 10599 0
14439 -11879 0
14439 -10599 0
-12039 -10759 0
-14599 12039 10759 0
14599 -12039 0
14599 -10759 0
-12199 -10919 0
-14759 12199 10919 0
14759 -12199 0
14759 -10919 0
-12359 -11079 0
-14919 12359 11079 0
14919 -12359 0
14919 -11079 0
-12519 -11239 0
-15079 12519 11239 0
15079 -12519 0
15079 -11239 0
-15239 12679 0
15239 -12679 0
-14119 10279 0
14119 -10279 0
14120 14280 14440 14600 14760 14920 15080 15240 0
-10280 2600 0
-10440 2760 0
-10600 2920 0
-10760 3080 0
-10920 3240 0
-11080 3400 0
-11240 3560 0
-11720 6600 0
-11880 6760 0
-12040 6920 0
-12200 7080 0
-12360 7240 0
-12520 7400 0
-12680 7560 0
-11720 -10440 0
-14280 11720 10440 0
14280 -11720 0
14280 -10440 0
-11880 -10600 0
-14440 11880 10600 0
14440 -11880 0
14440 -10600 0
-12040 -10760 0
-14600 12040 10760 0
14600 -12040 0
14600 -10760 0
-12200 -10920 0
-14760 12200 10920 0
14760 -12200 0
14760 -10920 0
-12360 -11080 0
-14920 12360 11080 0
14920 -12360 0
14920 -11080 0
-12520 -11240 0
-15080 12520 11240 0
15080 -12520 0
15080 -11240 0
-15240 12680 0
15240 -12680 0
-14120 10280 0
14120 -10280 0
14121 14281 14441 14601 14761 14921 15081 15241 0
-10281 2601 0
-10441 2761 0
-10601 2921 0
-10761 3081 0
-10921 3241 0
-11081 3401 0
-11241 3561 0
-11721 6601 0
-11881 6761 0
-12041 6921 0
-12201 7081 0
-12361 7241 0
-12521 7401 0
-12681 7561 0
-11721 -10441 0
-14281 11721 10441 0
14281 -11721 0
14281 -10441 0
-11881 -10601 0
-14441 11881 10601 0
14441 -11881 0
14441 -10601 0
-12041 -10761 0
-14601 12041 10761 0
14601 -12041 0
14601 -10761 0
-12201 -10921 0
-14761 12201 10921 0
14761 -12201 0
14761 -10921 0
-12361 -11081 0
-14921 12361 11081 0
14921 -12361 0
14921 -11081 0
-12521 -11241 0
-15081 12521 11241 0
15081 -12521 0
15081 -11241 0
-15241 12681 0
15241 -12681 0
-14121 10281 0
14121 -10281 0
14122 14282 14442 14602 14762 14922 15082 15242 0
-10282 2602 0
-10442 2762 0
-10602 2922 0
-10762 3082 0
-10922 3242 0
-11082 3402 0
-11242 3562 0
-11722 6602 0
-11882 6762 0
-12042 6922 0
-12202 7082 0
-12362 7242 0
-12522 7402 0
-12682 7562 0
-11722 -10442 0
-14282 11722 10442 0
14282 -11722 0
14282 -10442 0
-11882 -10602 0
-14442 11882 10602 0
14442 -11882 0
14442 -10602 0
-12042 -10762 0
-14602 12042 10762 0
14602 -12042 0
14602 -10762 0
-12202 -10922 0
-14762 12202 10922 0
14762 -12202 0
14762 -10922 0
-12362 -11082 0
-14922 12362 11082 0
14922 -12362 0
14922 -11082 0
-12522 -11242 0
-15082 12522 11242 0
15082 -12522 0
15082 -11242 0
-15242 12682 0
15242 -12682 0
-14122 10282 0
14122 -10282 0
14123 14283 14443 14603 14763 14923 15083 15243 0
-10283 2603 0
-10443 2763 0
-10603 2923 0
-10763 3083 0
-10923 3243 0
-11083 3403 0
-11243 3563 0
-11723 6603 0
-11883 6763 0
-12043 6923 0
-12203 7083 0
-12363 7243 0
-12523 7403 0
-12683 7563 0
-11723 -10443 0
-14283 11723 10443 0
14283 -11723 0
14283 -10443 0
-11883 -10603 0
-14443 11883 10603 0
14443 -11883 0
14443 -10603 0
-12043 -10763 0
-14603 12043 10763 0
14603 -12043 0
14603 -10763 0
-12203 -10923 0
-14763 12203 10923 0
14763 -12203 0
14763 -10923 0
-12363 -11083 0
-14923 12363 11083 0
14923 -12363 0
14923 -11083 0
-12523 -11243 0
-15083 12523 11243 0
15083 -12523 0
15083 -11243 0
-15243 12683 0
15243 -12683 0
-14123 10283 0
14123 -10283 0
14124 14284 14444 14604 14764 14924 15084 15244 0
-10284 2604 0
-10444 2764 0
-10604 2924 0
-10764 3084 0
-10924 3244 0
-11084 3404 0
-11244 3564 0
-11724 6604 0
-11884 6764 0
-12044 6924 0
-12204 7084 0
-12364 7244 0
-12524 7404 0
-12684 7564 0
-11724 -10444 0
-14284 11724 10444 0
14284 -11724 0
14284 -10444 0
-11884 -10604 0
-14444 11884 10604 0
14444 -11884 0
14444 -10604 0
-12044 -10764 0
-14604 12044 10764 0
14604 -12044 0
14604 -10764 0
-12204 -10924 0
-14764 12204 10924 0
14764 -12204 0
14764 -10924 0
-12364 -11084 0
-14924 12364 11084 0
14924 -12364 0
14924 -11084 0
-12524 -11244 0
-15084 12524 11244 0
15084 -12524 0
15084 -11244 0
-15244 12684 0
15244 -12684 0
-14124 10284 0
14124 -10284 0
14125 14285 14445 14605 14765 14925 15085 15245 0
-10285 2605 0
-10445 2765 0
-10605 2925 0
-10765 3085 0
-10925 3245 0
-11085 3405 0
-11245 3565 0
-11725 6605 0
-11885 6765 0
-12045 6925 0
-12205 7085 0
-12365 7245 0
-12525 7405 0
-12685 7565 0
-11725 -10445 0
-14285 11725 10445 0
14285 -11725 0
14285 -10445 0
-11885 -10605 0
-14445 11885 10605 0
14445 -11885 0
14445 -10605 0
-12045 -10765 0
-14605 12045 10765 0
14605 -12045 0
14605 -10765 0
-12205 -10925 0
-14765 12205 10925 0
14765 -12205 0
14765 -10925 0
-12365 -11085 0
-14925 12365 11085 0
14925 -12365 0
14925 -11085 0
-12525 -11245 0
-15085 12525 11245 0
15085 -12525 0
15085 -11245 0
-15245 12685 0
15245 -12685 0
-14125 10285 0
14125 -10285 0
14126 14286 14446 14606 14766 14926 15086 15246 0
-10286 2606 0
-10446 2766 0
-10606 2926 0
-10766 3086 0
-10926 3246 0
-11086 3406 0
-11246 3566 0
-11726 6606 0
-11886 6766 0
-12046 6926 0
-12206 7086 0
-12366 7246 0
-12526 7406 0
-12686 7566 0
-11726 -10446 0
-14286 11726 10446 0
14286 -11726 0
14286 -10446 0
-11886 -10606 0
-14446 11886 10606 0
14446 -11886 0
14446 -10606 0
-12046 -10766 0
-14606 12046 10766 0
14606 -12046 0
14606 -10766 0
-12206 -10926 0
-14766 12206 10926 0
14766 -12206 0
14766 -10926 0
-12366 -11086 0
-14926 12366 11086 0
14926 -12366 0
14926 -11086 0
-12526 -11246 0
-15086 12526 11246 0
15086 -12526 0
15086 -11246 0
-15246 12686 0
15246 -12686 0
-14126 10286 0
14126 -10286 0
14127 14287 14447 14607 14767 14927 15087 15247 0
-10287 2607 0
-10447 2767 0
-10607 2927 0
-10767 3087 0
-10927 3247 0
-11087 3407 0
-11247 3567 0
-11727 6607 0
-11887 6767 0
-12047 6927 0
-12207 7087 0
-12367 7247 0
-12527 7407 0
-12687 7567 0
-11727 -10447 0
-14287 11727 10447 0
14287 -11727 0
14287 -10447 0
-11887 -10607 0
-14447 11887 10607 0
14447 -11887 0
14447 -10607 0
-12047 -10767 0
-14607 12047 10767 0
14607 -12047 0
14607 -10767 0
-12207 -10927 0
-14767 12207 10927 0
14767 -12207 0
14767 -10927 0
-12367 -11087 0
-14927 12367 11087 0
14927 -12367 0
14927 -11087 0
-12527 -11247 0
-15087 12527 11247 0
15087 -12527 0
15087 -11247 0
-15247 12687 0
15247 -12687 0
-14127 10287 0
14127 -10287 0
14128 14288 14448 14608 14768 14928 15088 15248 0
-10288 2608 0
-10448 2768 0
-10608 2928 0
-10768 3088 0
-10928 3248 0
-11088 3408 0
-11248 3568 0
-11728 6608 0
-11888 6768 0
-12048 6928 0
-12208 7088 0
-12368 7248 0
-12528 7408 0
-12688 7568 0
-11728 -10448 0
-14288 11728 10448 0
14288 -11728 0
14288 -10448 0
-11888 -10608 0
-14448 11888 10608 0
14448 -11888 0
14448 -10608 0
-12048 -10768 0
-14608 12048 10768 0
14608 -12048 0
14608 -10768 0
-12208 -10928 0
-14768 12208 10928 0
14768 -12208 0
14768 -10928 0
-12368 -11088 0
-14928 12368 11088 0
14928 -12368 0
14928 -11088 0
-12528 -11248 0
-15088 12528 11248 0
15088 -12528 0
15088 -11248 0
-15248 12688 0
15248 -12688 0
-14128 10288 0
14128 -10288 0
14129 14289 14449 14609 14769 14929 15089 15249 0
-10289 2609 0
-10449 2769 0
-10609 2929 0
-10769 3089 0
-10929 3249 0
-11089 3409 0
-11249 3569 0
-11729 6609 0
-11889 6769 0
-12049 6929 0
-12209 7089 0
-12369 7249 0
-12529 7409 0
-12689 7569 0
-11729 -10449 0
-14289 11729 10449 0
14289 -11729 0
14289 -10449 0
-11889 -10609 0
-14449 11889 10609 0
14449 -11889 0
14449 -10609 0
-12049 -10769 0
-14609 12049 10769 0
14609 -12049 0
14609 -10769 0
-12209 -10929 0
-14769 12209 10929 0
14769 -12209 0
14769 -10929 0
-12369 -11089 0
-14929 12369 11089 0
14929 -12369 0
14929 -11089 0
-12529 -11249 0
-15089 12529 11249 0
15089 -12529 0
15089 -11249 0
-15249 12689 0
15249 -12689 0
-14129 10289 0
14129 -10289 0
14130 14290 14450 14610 14770 14930 15090 15250 0
-10290 2610 0
-10450 2770 0
-10610 2930 0
-10770 3090 0
-10930 3250 0
-11090 3410 0
-11250 3570 0
-11730 6610 0
-11890 6770 0
-12050 6930 0
-12210 7090 0
-12370 7250 0
-12530 7410 0
-12690 7570 0
-11730 -10450 0
-14290 11730 10450 0
14290 -11730 0
14290 -10450 0
-11890 -10610 0
-14450 11890 10610 0
14450 -11890 0
14450 -10610 0
-12050 -10770 0
-14610 12050 10770 0
14610 -12050 0
14610 -10770 0
-12210 -10930 0
-14770 12210 10930 0
14770 -12210 0
14770 -10930 0
-12370 -11090 0
-14930 12370 11090 0
14930 -12370 0
14930 -11090 0
-12530 -11250 0
-15090 12530 11250 0
15090 -12530 0
15090 -11250 0
-15250 12690 0
15250 -12690 0
-14130 10290 0
14130 -10290 0
14131 14291 14451 14611 14771 14931 15091 15251 0
-10291 2611 0
-10451 2771 0
-10611 2931 0
-10771 3091 0
-10931 3251 0
-11091 3411 0
-11251 3571 0
-11731 6611 0
-11891 6771 0
-12051 6931 0
-12211 7091 0
-12371 7251 0
-12531 7411 0
-12691 7571 0
-11731 -10451 0
-14291 11731 10451 0
14291 -11731 0
14291 -10451 0
-11891 -10611 0
-14451 11891 10611 0
14451 -11891 0
14451 -10611 0
-12051 -10771 0
-14611 12051 10771 0
14611 -12051 0
14611 -10771 0
-12211 -10931 0
-14771 12211 10931 0
14771 -12211 0
14771 -10931 0
-12371 -11091 0
-14931 12371 11091 0
14931 -12371 0
14931 -11091 0
-12531 -11251 0
-15091 12531 11251 0
15091 -12531 0
15091 -11251 0
-15251 12691 0
15251 -12691 0
-14131 10291 0
14131 -10291 0
14132 14292 14452 14612 14772 14932 15092 15252 0
-10292 2612 0
-10452 2772 0
-10612 2932 0
-10772 3092 0
-10932 3252 0
-11092 3412 0
-11252 3572 0
-11732 6612 0
-11892 6772 0
-12052 6932 0
-12212 7092 0
-12372 7252 0
-12532 7412 0
-12692 7572 0
-11732 -10452 0
-14292 11732 10452 0
14292 -11732 0
14292 -10452 0
-11892 -10612 0
-14452 11892 10612 0
14452 -11892 0
14452 -10612 0
-12052 -10772 0
-14612 12052 10772 0
14612 -12052 0
14612 -10772 0
-12212 -10932 0
-14772 12212 10932 0
14772 -12212 0
14772 -10932 0
-12372 -11092 0
-14932 12372 11092 0
14932 -12372 0
14932 -11092 0
-12532 -11252 0
-15092 12532 11252 0
15092 -12532 0
15092 -11252 0
-15252 12692 0
15252 -12692 0
-14132 10292 0
14132 -10292 0
14133 14293 14453 14613 14773 14933 15093 15253 0
-10293 2613 0
-10453 2773 0
-10613 2933 0
-10773 3093 0
-10933 3253 0
-11093 3413 0
-11253 3573 0
-11733 6613 0
-11893 6773 0
-12053 6933 0
-12213 7093 0
-12373 7253 0
-12533 7413 0
-12693 7573 0
-11733 -10453 0
-14293 11733 10453 0
14293 -11733 0
14293 -10453 0
-11893 -10613 0
-14453 11893 10613 0
14453 -11893 0
14453 -10613 0
-12053 -10773 0
-14613 12053 10773 0
14613 -12053 0
14613 -10773 0
-12213 -10933 0
-14773 12213 10933 0
14773 -12213 0
14773 -10933 0
-12373 -11093 0
-14933 12373 11093 0
14933 -12373 0
14933 -11093 0
-12533 -11253 0
-15093 12533 11253 0
15093 -12533 0
15093 -11253 0
-15253 12693 0
15253 -12693 0
-14133 10293 0
14133 -10293 0
14134 14294 14454 14614 14774 14934 15094 15254 0
-10294 2614 0
-10454 2774 0
-10614 2934 0
-10774 3094 0
-10934 3254 0
-11094 3414 0
-11254 3574 0
-11734 6614 0
-11894 6774 0
-12054 6934 0
-12214 7094 0
-12374 7254 0
-12534 7414 0
-12694 7574 0
-11734 -10454 0
-14294 11734 10454 0
14294 -11734 0
14294 -10454 0
-11894 -10614 0
-14454 11894 10614 0
14454 -11894 0
14454 -10614 0
-12054 -10774 0
-14614 12054 10774 0
14614 -12054 0
14614 -10774 0
-12214 -10934 0
-14774 12214 10934 0
14774 -12214 0
14774 -10934 0
-12374 -11094 0
-14934 12374 11094 0
14934 -12374 0
14934 -11094 0
-12534 -11254 0
-15094 12534 11254 0
15094 -12534 0
15094 -11254 0
-15254 12694 0
15254 -12694 0
-14134 10294 0
14134 -10294 0
14135 14295 14455 14615 14775 14935 15095 15255 0
-10295 2615 0
-10455 2775 0
-10615 2935 0
-10775 3095 0
-10935 3255 0
-11095 3415 0
-11255 3575 0
-11735 6615 0
-11895 6775 0
-12055 6935 0
-12215 7095 0
-12375 7255 0
-12535 7415 0
-12695 7575 0
-11735 -10455 0
-14295 11735 10455 0
14295 -11735 0
14295 -10455 0
-11895 -10615 0
-14455 11895 10615 0
14455 -11895 0
14455 -10615 0
-12055 -10775 0
-14615 12055 10775 0
14615 -12055 0
14615 -10775 0
-12215 -10935 0
-14775 12215 10935 0
14775 -12215 0
14775 -10935 0
-12375 -11095 0
-14935 12375 11095 0
14935 -12375 0
14935 -11095 0
-12535 -11255 0
-15095 12535 11255 0
15095 -12535 0
15095 -11255 0
-15255 12695 0
15255 -12695 0
-14135 10295 0
14135 -10295 0
14136 14296 14456 14616 14776 14936 15096 15256 0
-10296 2616 0
-10456 2776 0
-10616 2936 0
-10776 3096 0
-10936 3256 0
-11096 3416 0
-11256 3576 0
-11736 6616 0
-11896 6776 0
-12056 6936 0
-12216 7096 0
-12376 7256 0
-12536 7416 0
-12696 7576 0
-11736 -10456 0
-14296 11736 10456 0
14296 -11736 0
14296 -10456 0
-11896 -10616 0
-14456 11896 10616 0
14456 -11896 0
14456 -10616 0
-12056 -10776 0
-14616 12056 10776 0
14616 -12056 0
14616 -10776 0
-12216 -10936 0
-14776 12216 10936 0
14776 -12216 0
14776 -10936 0
-12376 -11096 0
-14936 12376 11096 0
14936 -12376 0
14936 -11096 0
-12536 -11256 0
-15096 12536 11256 0
15096 -12536 0
15096 -11256 0
-15256 12696 0
15256 -12696 0
-14136 10296 0
14136 -10296 0
14137 14297 14457 14617 14777 14937 15097 15257 0
-10297 2617 0
-10457 2777 0
-10617 2937 0
-10777 3097 0
-10937 3257 0
-11097 3417 0
-11257 3577 0
-11737 6617 0
-11897 6777 0
-12057 6937 0
-12217 7097 0
-12377 7257 0
-12537 7417 0
-12697 7577 0
-11737 -10457 0
-14297 11737 10457 0
14297 -11737 0
14297 -10457 0
-11897 -10617 0
-14457 11897 10617 0
14457 -11897 0
14457 -10617 0
-12057 -10777 0
-14617 12057 10777 0
14617 -12057 0
14617 -10777 0
-12217 -10937 0
-14777 12217 10937 0
14777 -12217 0
14777 -10937 0
-12377 -11097 0
-14937 12377 11097 0
14937 -12377 0
14937 -11097 0
-12537 -11257 0
-15097 12537 11257 0
15097 -12537 0
15097 -11257 0
-15257 12697 0
15257 -12697 0
-14137 10297 0
14137 -10297 0
14138 14298 14458 14618 14778 14938 15098 15258 0
-10298 2618 0
-10458 2778 0
-10618 2938 0
-10778 3098 0
-10938 3258 0
-11098 3418 0
-11258 3578 0
-11738 6618 0
-11898 6778 0
-12058 6938 0
-12218 7098 0
-12378 7258 0
-12538 7418 0
-12698 7578 0
-11738 -10458 0
-14298 11738 10458 0
14298 -11738 0
14298 -10458 0
-11898 -10618 0
-14458 11898 10618 0
14458 -11898 0
14458 -10618 0
-12058 -10778 0
-14618 12058 10778 0
14618 -12058 0
14618 -10778 0
-12218 -10938 0
-14778 12218 10938 0
14778 -12218 0
14778 -10938 0
-12378 -11098 0
-14938 12378 11098 0
14938 -12378 0
14938 -11098 0
-12538 -11258 0
-15098 12538 11258 0
15098 -12538 0
15098 -11258 0
-15258 12698 0
15258 -12698 0
-14138 10298 0
14138 -10298 0
14139 14299 14459 14619 14779 14939 15099 15259 0
-10299 2619 0
-10459 2779 0
-10619 2939 0
-10779 3099 0
-10939 3259 0
-11099 3419 0
-11259 3579 0
-11739 6619 0
-11899 6779 0
-12059 6939 0
-12219 7099 0
-12379 7259 0
-12539 7419 0
-12699 7579 0
-11739 -10459 0
-14299 11739 10459 0
14299 -11739 0
14299 -10459 0
-11899 -10619 0
-14459 11899 10619 0
14459 -11899 0
14459 -10619 0
-12059 -10779 0
-14619 12059 10779 0
14619 -12059 0
14619 -10779 0
-12219 -10939 0
-14779 12219 10939 0
14779 -12219 0
14779 -10939 0
-12379 -11099 0
-14939 12379 11099 0
14939 -12379 0
14939 -11099 0
-12539 -11259 0
-15099 12539 11259 0
15099 -12539 0
15099 -11259 0
-15259 12699 0
15259 -12699 0
-14139 10299 0
14139 -10299 0
14140 14300 14460 14620 14780 14940 15100 15260 0
-10300 2620 0
-10460 2780 0
-10620 2940 0
-10780 3100 0
-10940 3260 0
-11100 3420 0
-11260 3580 0
-11740 6620 0
-11900 6780 0
-12060 6940 0
-12220 7100 0
-12380 7260 0
-12540 7420 0
-12700 7580 0
-11740 -10460 0
-14300 11740 10460 0
14300 -11740 0
14300 -10460 0
-11900 -10620 0
-14460 11900 10620 0
14460 -11900 0
14460 -10620 0
-12060 -10780 0
-14620 12060 10780 0
14620 -12060 0
14620 -10780 0
-12220 -10940 0
-14780 12220 10940 0
14780 -12220 0
14780 -10940 0
-12380 -11100 0
-14940 12380 11100 0
14940 -12380 0
14940 -11100 0
-12540 -11260 0
-15100 12540 11260 0
15100 -12540 0
15100 -11260 0
-15260 12700 0
15260 -12700 0
-14140 10300 0
14140 -10300 0
14141 14301 14461 14621 14781 14941 15101 15261 0
-10301 2621 0
-10461 2781 0
-10621 2941 0
-10781 3101 0
-10941 3261 0
-11101 3421 0
-11261 3581 0
-11741 6621 0
-11901 6781 0
-12061 6941 0
-12221 7101 0
-12381 7261 0
-12541 7421 0
-12701 7581 0
-11741 -10461 0
-14301 11741 10461 0
14301 -11741 0
14301 -10461 0
-11901 -10621 0
-14461 11901 10621 0
14461 -11901 0
14461 -10621 0
-12061 -10781 0
-14621 12061 10781 0
14621 -12061 0
14621 -10781 0
-12221 -10941 0
-14781 12221 10941 0
14781 -12221 0
14781 -10941 0
-12381 -11101 0
-14941 12381 11101 0
14941 -12381 0
14941 -11101 0
-12541 -11261 0
-15101 12541 11261 0
15101 -12541 0
15101 -11261 0
-15261 12701 0
15261 -12701 0
-14141 10301 0
14141 -10301 0
14142 14302 14462 14622 14782 14942 15102 15262 0
-10302 2622 0
-10462 2782 0
-10622 2942 0
-10782 3102 0
-10942 3262 0
-11102 3422 0
-11262 3582 0
-11742 6622 0
-11902 6782 0
-12062 6942 0
-12222 7102 0
-12382 7262 0
-12542 7422 0
-12702 7582 0
-11742 -10462 0
-14302 11742 10462 0
14302 -11742 0
14302 -10462 0
-11902 -10622 0
-14462 11902 10622 0
14462 -11902 0
14462 -10622 0
-12062 -10782 0
-14622 12062 10782 0
14622 -12062 0
14622 -10782 0
-12222 -10942 0
-14782 12222 10942 0
14782 -12222 0
14782 -10942 0
-12382 -11102 0
-14942 12382 11102 0
14942 -12382 0
14942 -11102 0
-12542 -11262 0
-15102 12542 11262 0
15102 -12542 0
15102 -11262 0
-15262 12702 0
15262 -12702 0
-14142 10302 0
14142 -10302 0
14143 14303 14463 14623 14783 14943 15103 15263 0
-10303 2623 0
-10463 2783 0
-10623 2943 0
-10783 3103 0
-10943 3263 0
-11103 3423 0
-11263 3583 0
-11743 6623 0
-11903 6783 0
-12063 6943 0
-12223 7103 0
-12383 7263 0
-12543 7423 0
-12703 7583 0
-11743 -10463 0
-14303 11743 10463 0
14303 -11743 0
14303 -10463 0
-11903 -10623 0
-14463 11903 10623 0
14463 -11903 0
14463 -10623 0
-12063 -10783 0
-14623 12063 10783 0
14623 -12063 0
14623 -10783 0
-12223 -10943 0
-14783 12223 10943 0
14783 -12223 0
14783 -10943 0
-12383 -11103 0
-14943 12383 11103 0
14943 -12383 0
14943 -11103 0
-12543 -11263 0
-15103 12543 11263 0
15103 -12543 0
15103 -11263 0
-15263 12703 0
15263 -12703 0
-14143 10303 0
14143 -10303 0
14144 14304 14464 14624 14784 14944 15104 15264 0
-10304 2624 0
-10464 2784 0
-10624 2944 0
-10784 3104 0
-10944 3264 0
-11104 3424 0
-11264 3584 0
-11744 6624 0
-11904 6784 0
-12064 6944 0
-12224 7104 0
-12384 7264 0
-12544 7424 0
-12704 7584 0
-11744 -10464 0
-14304 11744 10464 0
14304 -11744 0
14304 -10464 0
-11904 -10624 0
-14464 11904 10624 0
14464 -11904 0
14464 -10624 0
-12064 -10784 0
-14624 12064 10784 0
14624 -12064 0
14624 -10784 0
-12224 -10944 0
-14784 12224 10944 0
14784 -12224 0
14784 -10944 0
-12384 -11104 0
-14944 12384 11104 0
14944 -12384 0
14944 -11104 0
-12544 -11264 0
-15104 12544 11264 0
15104 -12544 0
15104 -11264 0
-15264 12704 0
15264 -12704 0
-14144 10304 0
14144 -10304 0
14145 14305 14465 14625 14785 14945 15105 15265 0
-10305 2625 0
-10465 2785 0
-10625 2945 0
-10785 3105 0
-10945 3265 0
-11105 3425 0
-11265 3585 0
-11745 6625 0
-11905 6785 0
-12065 6945 0
-12225 7105 0
-12385 7265 0
-12545 7425 0
-12705 7585 0
-11745 -10465 0
-14305 11745 10465 0
14305 -11745 0
14305 -10465 0
-11905 -10625 0
-14465 11905 10625 0
14465 -11905 0
14465 -10625 0
-12065 -10785 0
-14625 12065 10785 0
14625 -12065 0
14625 -10785 0
-12225 -10945 0
-14785 12225 10945 0
14785 -12225 0
14785 -10945 0
-12385 -11105 0
-14945 12385 11105 0
14945 -12385 0
14945 -11105 0
-12545 -11265 0
-15105 12545 11265 0
15105 -12545 0
15105 -11265 0
-15265 12705 0
15265 -12705 0
-14145 10305 0
14145 -10305 0
14146 14306 14466 14626 14786 14946 15106 15266 0
-10306 2626 0
-10466 2786 0
-10626 2946 0
-10786 3106 0
-10946 3266 0
-11106 3426 0
-11266 3586 0
-11746 6626 0
-11906 6786 0
-12066 6946 0
-12226 7106 0
-12386 7266 0
-12546 7426 0
-12706 7586 0
-11746 -10466 0
-14306 11746 10466 0
14306 -11746 0
14306 -10466 0
-11906 -10626 0
-14466 11906 10626 0
14466 -11906 0
14466 -10626 0
-12066 -10786 0
-14626 12066 10786 0
14626 -12066 0
14626 -10786 0
-12226 -10946 0
-14786 12226 10946 0
14786 -12226 0
14786 -10946 0
-12386 -11106 0
-14946 12386 11106 0
14946 -12386 0
14946 -11106 0
-12546 -11266 0
-15106 12546 11266 0
15106 -12546 0
15106 -11266 0
-15266 12706 0
15266 -12706 0
-14146 10306 0
14146 -10306 0
14147 14307 14467 14627 14787 14947 15107 15267 0
-10307 2627 0
-10467 2787 0
-10627 2947 0
-10787 3107 0
-10947 3267 0
-11107 3427 0
-11267 3587 0
-11747 6627 0
-11907 6787 0
-12067 6947 0
-12227 7107 0
-12387 7267 0
-12547 7427 0
-12707 7587 0
-11747 -10467 0
-14307 11747 10467 0
14307 -11747 0
14307 -10467 0
-11907 -10627 0
-14467 11907 10627 0
14467 -11907 0
14467 -10627 0
-12067 -10787 0
-14627 12067 10787 0
14627 -12067 0
14627 -10787 0
-12227 -10947 0
-14787 12227 10947 0
14787 -12227 0
14787 -10947 0
-12387 -11107 0
-14947 12387 11107 0
14947 -12387 0
14947 -11107 0
-12547 -11267 0
-15107 12547 11267 0
15107 -12547 0
15107 -11267 0
-15267 12707 0
15267 -12707 0
-14147 10307 0
14147 -10307 0
14148 14308 14468 14628 14788 14948 15108 15268 0
-10308 2628 0
-10468 2788 0
-10628 2948 0
-10788 3108 0
-10948 3268 0
-11108 3428 0
-11268 3588 0
-11748 6628 0
-11908 6788 0
-12068 6948 0
-12228 7108 0
-12388 7268 0
-12548 7428 0
-12708 7588 0
-11748 -10468 0
-14308 11748 10468 0
14308 -11748 0
14308 -10468 0
-11908 -10628 0
-14468 11908 10628 0
14468 -11908 0
14468 -10628 0
-12068 -10788 0
-14628 12068 10788 0
14628 -12068 0
14628 -10788 0
-12228 -10948 0
-14788 12228 10948 0
14788 -12228 0
14788 -10948 0
-12388 -11108 0
-14948 12388 11108 0
14948 -12388 0
14948 -11108 0
-12548 -11268 0
-15108 12548 11268 0
15108 -12548 0
15108 -11268 0
-15268 12708 0
15268 -12708 0
-14148 10308 0
14148 -10308 0
14149 14309 14469 14629 14789 14949 15109 15269 0
-10309 2629 0
-10469 2789 0
-10629 2949 0
-10789 3109 0
-10949 3269 0
-11109 3429 0
-11269 3589 0
-11749 6629 0
-11909 6789 0
-12069 6949 0
-12229 7109 0
-12389 7269 0
-12549 7429 0
-12709 7589 0
-11749 -10469 0
-14309 11749 10469 0
14309 -11749 0
14309 -10469 0
-11909 -10629 0
-14469 11909 10629 0
14469 -11909 0
14469 -10629 0
-12069 -10789 0
-14629 12069 10789 0
14629 -12069 0
14629 -10789 0
-12229 -10949 0
-14789 12229 10949 0
14789 -12229 0
14789 -10949 0
-12389 -11109 0
-14949 12389 11109 0
14949 -12389 0
14949 -11109 0
-12549 -11269 0
-15109 12549 11269 0
15109 -12549 0
15109 -11269 0
-15269 12709 0
15269 -12709 0
-14149 10309 0
14149 -10309 0
14150 14310 14470 14630 14790 14950 15110 15270 0
-10310 2630 0
-10470 2790 0
-10630 2950 0
-10790 3110 0
-10950 3270 0
-11110 3430 0
-11270 3590 0
-11750 6630 0
-11910 6790 0
-12070 6950 0
-12230 7110 0
-12390 7270 0
-12550 7430 0
-12710 7590 0
-11750 -10470 0
-14310 11750 10470 0
14310 -11750 0
14310 -10470 0
-11910 -10630 0
-14470 11910 10630 0
14470 -11910 0
14470 -10630 0
-12070 -10790 0
-14630 12070 10790 0
14630 -12070 0
14630 -10790 0
-12230 -10950 0
-14790 12230 10950 0
14790 -12230 0
14790 -10950 0
-12390 -11110 0
-14950 12390 11110 0
14950 -12390 0
14950 -11110 0
-12550 -11270 0
-15110 12550 11270 0
15110 -12550 0
15110 -11270 0
-15270 12710 0
15270 -12710 0
-14150 10310 0
14150 -10310 0
14151 14311 14471 14631 14791 14951 15111 15271 0
-10311 2631 0
-10471 2791 0
-10631 2951 0
-10791 3111 0
-10951 3271 0
-11111 3431 0
-11271 3591 0
-11751 6631 0
-11911 6791 0
-12071 6951 0
-12231 7111 0
-12391 7271 0
-12551 7431 0
-12711 7591 0
-11751 -10471 0
-14311 11751 10471 0
14311 -11751 0
14311 -10471 0
-11911 -10631 0
-14471 11911 10631 0
14471 -11911 0
14471 -10631 0
-12071 -10791 0
-14631 12071 10791 0
14631 -12071 0
14631 -10791 0
-12231 -10951 0
-14791 12231 10951 0
14791 -12231 0
14791 -10951 0
-12391 -11111 0
-14951 12391 11111 0
14951 -12391 0
14951 -11111 0
-12551 -11271 0
-15111 12551 11271 0
15111 -12551 0
15111 -11271 0
-15271 12711 0
15271 -12711 0
-14151 10311 0
14151 -10311 0
14152 14312 14472 14632 14792 14952 15112 15272 0
-10312 2632 0
-10472 2792 0
-10632 2952 0
-10792 3112 0
-10952 3272 0
-11112 3432 0
-11272 3592 0
-11752 6632 0
-11912 6792 0
-12072 6952 0
-12232 7112 0
-12392 7272 0
-12552 7432 0
-12712 7592 0
-11752 -10472 0
-14312 11752 10472 0
14312 -11752 0
14312 -10472 0
-11912 -10632 0
-14472 11912 10632 0
14472 -11912 0
14472 -10632 0
-12072 -10792 0
-14632 12072 10792 0
14632 -12072 0
14632 -10792 0
-12232 -10952 0
-14792 12232 10952 0
14792 -12232 0
14792 -10952 0
-12392 -11112 0
-14952 12392 11112 0
14952 -12392 0
14952 -11112 0
-12552 -11272 0
-15112 12552 11272 0
15112 -12552 0
15112 -11272 0
-15272 12712 0
15272 -12712 0
-14152 10312 0
14152 -10312 0
14153 14313 14473 14633 14793 14953 15113 15273 0
-10313 2633 0
-10473 2793 0
-10633 2953 0
-10793 3113 0
-10953 3273 0
-11113 3433 0
-11273 3593 0
-11753 6633 0
-11913 6793 0
-12073 6953 0
-12233 7113 0
-12393 7273 0
-12553 7433 0
-12713 7593 0
-11753 -10473 0
-14313 11753 10473 0
14313 -11753 0
14313 -10473 0
-11913 -10633 0
-14473 11913 10633 0
14473 -11913 0
14473 -10633 0
-12073 -10793 0
-14633 12073 10793 0
14633 -12073 0
14633 -10793 0
-12233 -10953 0
-14793 12233 10953 0
14793 -12233 0
14793 -10953 0
-12393 -11113 0
-14953 12393 11113 0
14953 -12393 0
14953 -11113 0
-12553 -11273 0
-15113 12553 11273 0
15113 -12553 0
15113 -11273 0
-15273 12713 0
15273 -12713 0
-14153 10313 0
14153 -10313 0
14154 14314 14474 14634 14794 14954 15114 15274 0
-10314 2634 0
-10474 2794 0
-10634 2954 0
-10794 3114 0
-10954 3274 0
-11114 3434 0
-11274 3594 0
-11754 6634 0
-11914 6794 0
-12074 6954 0
-12234 7114 0
-12394 7274 0
-12554 7434 0
-12714 7594 0
-11754 -10474 0
-14314 11754 10474 0
14314 -11754 0
14314 -10474 0
-11914 -10634 0
-14474 11914 10634 0
14474 -11914 0
14474 -10634 0
-12074 -10794 0
-14634 12074 10794 0
14634 -12074 0
14634 -10794 0
-12234 -10954 0
-14794 12234 10954 0
14794 -12234 0
14794 -10954 0
-12394 -11114 0
-14954 12394 11114 0
14954 -12394 0
14954 -11114 0
-12554 -11274 0
-15114 12554 11274 0
15114 -12554 0
15114 -11274 0
-15274 12714 0
15274 -12714 0
-14154 10314 0
14154 -10314 0
14155 14315 14475 14635 14795 14955 15115 15275 0
-10315 2635 0
-10475 2795 0
-10635 2955 0
-10795 3115 0
-10955 3275 0
-11115 3435 0
-11275 3595 0
-11755 6635 0
-11915 6795 0
-12075 6955 0
-12235 7115 0
-12395 7275 0
-12555 7435 0
-12715 7595 0
-11755 -10475 0
-14315 11755 10475 0
14315 -11755 0
14315 -10475 0
-11915 -10635 0
-14475 11915 10635 0
14475 -11915 0
14475 -10635 0
-12075 -10795 0
-14635 12075 10795 0
14635 -12075 0
14635 -10795 0
-12235 -10955 0
-14795 12235 10955 0
14795 -12235 0
14795 -10955 0
-12395 -11115 0
-14955 12395 11115 0
14955 -12395 0
14955 -11115 0
-12555 -11275 0
-15115 12555 11275 0
15115 -12555 0
15115 -11275 0
-15275 12715 0
15275 -12715 0
-14155 10315 0
14155 -10315 0
14156 14316 14476 14636 14796 14956 15116 15276 0
-10316 2636 0
-10476 2796 0
-10636 2956 0
-10796 3116 0
-10956 3276 0
-11116 3436 0
-11276 3596 0
-11756 6636 0
-11916 6796 0
-12076 6956 0
-12236 7116 0
-12396 7276 0
-12556 7436 0
-12716 7596 0
-11756 -10476 0
-14316 11756 10476 0
14316 -11756 0
14316 -10476 0
-11916 -10636 0
-14476 11916 10636 0
14476 -11916 0
14476 -10636 0
-12076 -10796 0
-14636 12076 10796 0
14636 -12076 0
14636 -10796 0
-12236 -10956 0
-14796 12236 10956 0
14796 -12236 0
14796 -10956 0
-12396 -11116 0
-14956 12396 11116 0
14956 -12396 0
14956 -11116 0
-12556 -11276 0
-15116 12556 11276 0
15116 -12556 0
15116 -11276 0
-15276 12716 0
15276 -12716 0
-14156 10316 0
14156 -10316 0
14157 14317 14477 14637 14797 14957 15117 15277 0
-10317 2637 0
-10477 2797 0
-10637 2957 0
-10797 3117 0
-10957 3277 0
-11117 3437 0
-11277 3597 0
-11757 6637 0
-11917 6797 0
-12077 6957 0
-12237 7117 0
-12397 7277 0
-12557 7437 0
-12717 7597 0
-11757 -10477 0
-14317 11757 10477 0
14317 -11757 0
14317 -10477 0
-11917 -10637 0
-14477 11917 10637 0
14477 -11917 0
14477 -10637 0
-12077 -10797 0
-14637 12077 10797 0
14637 -12077 0
14637 -10797 0
-12237 -10957 0
-14797 12237 10957 0
14797 -12237 0
14797 -10957 0
-12397 -11117 0
-14957 12397 11117 0
14957 -12397 0
14957 -11117 0
-12557 -11277 0
-15117 12557 11277 0
15117 -12557 0
15117 -11277 0
-15277 12717 0
15277 -12717 0
-14157 10317 0
14157 -10317 0
14158 14318 14478 14638 14798 14958 15118 15278 0
-10318 2638 0
-10478 2798 0
-10638 2958 0
-10798 3118 0
-10958 3278 0
-11118 3438 0
-11278 3598 0
-11758 6638 0
-11918 6798 0
-12078 6958 0
-12238 7118 0
-12398 7278 0
-12558 7438 0
-12718 7598 0
-11758 -10478 0
-14318 11758 10478 0
14318 -11758 0
14318 -10478 0
-11918 -10638 0
-14478 11918 10638 0
14478 -11918 0
14478 -10638 0
-12078 -10798 0
-14638 12078 10798 0
14638 -12078 0
14638 -10798 0
-12238 -10958 0
-14798 12238 10958 0
14798 -12238 0
14798 -10958 0
-12398 -11118 0
-14958 12398 11118 0
14958 -12398 0
14958 -11118 0
-12558 -11278 0
-15118 12558 11278 0
15118 -12558 0
15118 -11278 0
-15278 12718 0
15278 -12718 0
-14158 10318 0
14158 -10318 0
14159 14319 14479 14639 14799 14959 15119 15279 0
-10319 2639 0
-10479 2799 0
-10639 2959 0
-10799 3119 0
-10959 3279 0
-11119 3439 0
-11279 3599 0
-11759 6639 0
-11919 6799 0
-12079 6959 0
-12239 7119 0
-12399 7279 0
-12559 7439 0
-12719 7599 0
-11759 -10479 0
-14319 11759 10479 0
14319 -11759 0
14319 -10479 0
-11919 -10639 0
-14479 11919 10639 0
14479 -11919 0
14479 -10639 0
-12079 -10799 0
-14639 12079 10799 0
14639 -12079 0
14639 -10799 0
-12239 -10959 0
-14799 12239 10959 0
14799 -12239 0
14799 -10959 0
-12399 -11119 0
-14959 12399 11119 0
14959 -12399 0
14959 -11119 0
-12559 -11279 0
-15119 12559 11279 0
15119 -12559 0
15119 -11279 0
-15279 12719 0
15279 -12719 0
-14159 10319 0
14159 -10319 0
14160 14320 14480 14640 14800 14960 15120 15280 0
-10320 2640 0
-10480 2800 0
-10640 2960 0
-10800 3120 0
-10960 3280 0
-11120 3440 0
-11280 3600 0
-11760 6640 0
-11920 6800 0
-12080 6960 0
-12240 7120 0
-12400 7280 0
-12560 7440 0
-12720 7600 0
-11760 -10480 0
-14320 11760 10480 0
14320 -11760 0
14320 -10480 0
-11920 -10640 0
-14480 11920 10640 0
14480 -11920 0
14480 -10640 0
-12080 -10800 0
-14640 12080 10800 0
14640 -12080 0
14640 -10800 0
-12240 -10960 0
-14800 12240 10960 0
14800 -12240 0
14800 -10960 0
-12400 -11120 0
-14960 12400 11120 0
14960 -12400 0
14960 -11120 0
-12560 -11280 0
-15120 12560 11280 0
15120 -12560 0
15120 -11280 0
-15280 12720 0
15280 -12720 0
-14160 10320 0
14160 -10320 0
14161 14321 14481 14641 14801 14961 15121 15281 0
-10321 2641 0
-10481 2801 0
-10641 2961 0
-10801 3121 0
-10961 3281 0
-11121 3441 0
-11281 3601 0
-11761 6641 0
-11921 6801 0
-12081 6961 0
-12241 7121 0
-12401 7281 0
-12561 7441 0
-12721 7601 0
-11761 -10481 0
-14321 11761 10481 0
14321 -11761 0
14321 -10481 0
-11921 -10641 0
-14481 11921 10641 0
14481 -11921 0
14481 -10641 0
-12081 -10801 0
-14641 12081 10801 0
14641 -12081 0
14641 -10801 0
-12241 -10961 0
-14801 12241 10961 0
14801 -12241 0
14801 -10961 0
-12401 -11121 0
-14961 12401 11121 0
14961 -12401 0
14961 -11121 0
-12561 -11281 0
-15121 12561 11281 0
15121 -12561 0
15121 -11281 0
-15281 12721 0
15281 -12721 0
-14161 10321 0
14161 -10321 0
14162 14322 14482 14642 14802 14962 15122 15282 0
-10322 2642 0
-10482 2802 0
-10642 2962 0
-10802 3122 0
-10962 3282 0
-11122 3442 0
-11282 3602 0
-11762 6642 0
-11922 6802 0
-12082 6962 0
-12242 7122 0
-12402 7282 0
-12562 7442 0
-12722 7602 0
-11762 -10482 0
-14322 11762 10482 0
14322 -11762 0
14322 -10482 0
-11922 -10642 0
-14482 11922 10642 0
14482 -11922 0
14482 -10642 0
-12082 -10802 0
-14642 12082 10802 0
14642 -12082 0
14642 -10802 0
-12242 -10962 0
-14802 12242 10962 0
14802 -12242 0
14802 -10962 0
-12402 -11122 0
-14962 12402 11122 0
14962 -12402 0
14962 -11122 0
-12562 -11282 0
-15122 12562 11282 0
15122 -12562 0
15122 -11282 0
-15282 12722 0
15282 -12722 0
-14162 10322 0
14162 -10322 0
14163 14323 14483 14643 14803 14963 15123 15283 0
-10323 2643 0
-10483 2803 0
-10643 2963 0
-10803 3123 0
-10963 3283 0
-11123 3443 0
-11283 3603 0
-11763 6643 0
-11923 6803 0
-12083 6963 0
-12243 7123 0
-12403 7283 0
-12563 7443 0
-12723 7603 0
-11763 -10483 0
-14323 11763 10483 0
14323 -11763 0
14323 -10483 0
-11923 -10643 0
-14483 11923 10643 0
14483 -11923 0
14483 -10643 0
-12083 -10803 0
-14643 12083 10803 0
14643 -12083 0
14643 -10803 0
-12243 -10963 0
-14803 12243 10963 0
14803 -12243 0
14803 -10963 0
-12403 -11123 0
-14963 12403 11123 0
14963 -12403 0
14963 -11123 0
-12563 -11283 0
-15123 12563 11283 0
15123 -12563 0
15123 -11283 0
-15283 12723 0
15283 -12723 0
-14163 10323 0
14163 -10323 0
14164 14324 14484 14644 14804 14964 15124 15284 0
-10324 2644 0
-10484 2804 0
-10644 2964 0
-10804 3124 0
-10964 3284 0
-11124 3444 0
-11284 3604 0
-11764 6644 0
-11924 6804 0
-12084 6964 0
-12244 7124 0
-12404 7284 0
-12564 7444 0
-12724 7604 0
-11764 -10484 0
-14324 11764 10484 0
14324 -11764 0
14324 -10484 0
-11924 -10644 0
-14484 11924 10644 0
14484 -11924 0
14484 -10644 0
-12084 -10804 0
-14644 12084 10804 0
14644 -12084 0
14644 -10804 0
-12244 -10964 0
-14804 12244 10964 0
14804 -12244 0
14804 -10964 0
-12404 -11124 0
-14964 12404 11124 0
14964 -12404 0
14964 -11124 0
-12564 -11284 0
-15124 12564 11284 0
15124 -12564 0
15124 -11284 0
-15284 12724 0
15284 -12724 0
-14164 10324 0
14164 -10324 0
14165 14325 14485 14645 14805 14965 15125 15285 0
-10325 2645 0
-10485 2805 0
-10645 2965 0
-10805 3125 0
-10965 3285 0
-11125 3445 0
-11285 3605 0
-11765 6645 0
-11925 6805 0
-12085 6965 0
-12245 7125 0
-12405 7285 0
-12565 7445 0
-12725 7605 0
-11765 -10485 0
-14325 11765 10485 0
14325 -11765 0
14325 -10485 0
-11925 -10645 0
-14485 11925 10645 0
14485 -11925 0
14485 -10645 0
-12085 -10805 0
-14645 12085 10805 0
14645 -12085 0
14645 -10805 0
-12245 -10965 0
-14805 12245 10965 0
14805 -12245 0
14805 -10965 0
-12405 -11125 0
-14965 12405 11125 0
14965 -12405 0
14965 -11125 0
-12565 -11285 0
-15125 12565 11285 0
15125 -12565 0
15125 -11285 0
-15285 12725 0
15285 -12725 0
-14165 10325 0
14165 -10325 0
14166 14326 14486 14646 14806 14966 15126 15286 0
-10326 2646 0
-10486 2806 0
-10646 2966 0
-10806 3126 0
-10966 3286 0
-11126 3446 0
-11286 3606 0
-11766 6646 0
-11926 6806 0
-12086 6966 0
-12246 7126 0
-12406 7286 0
-12566 7446 0
-12726 7606 0
-11766 -10486 0
-14326 11766 10486 0
14326 -11766 0
14326 -10486 0
-11926 -10646 0
-14486 11926 10646 0
14486 -11926 0
14486 -10646 0
-12086 -10806 0
-14646 12086 10806 0
14646 -12086 0
14646 -10806 0
-12246 -10966 0
-14806 12246 10966 0
14806 -12246 0
14806 -10966 0
-12406 -11126 0
-14966 12406 11126 0
14966 -12406 0
14966 -11126 0
-12566 -11286 0
-15126 12566 11286 0
15126 -12566 0
15126 -11286 0
-15286 12726 0
15286 -12726 0
-14166 10326 0
14166 -10326 0
14167 14327 14487 14647 14807 14967 15127 15287 0
-10327 2647 0
-10487 2807 0
-10647 2967 0
-10807 3127 0
-10967 3287 0
-11127 3447 0
-11287 3607 0
-11767 6647 0
-11927 6807 0
-12087 6967 0
-12247 7127 0
-12407 7287 0
-12567 7447 0
-12727 7607 0
-11767 -10487 0
-14327 11767 10487 0
14327 -11767 0
14327 -10487 0
-11927 -10647 0
-14487 11927 10647 0
14487 -11927 0
14487 -10647 0
-12087 -10807 0
-14647 12087 10807 0
14647 -12087 0
14647 -10807 0
-12247 -10967 0
-14807 12247 10967 0
14807 -12247 0
14807 -10967 0
-12407 -11127 0
-14967 12407 11127 0
14967 -12407 0
14967 -11127 0
-12567 -11287 0
-15127 12567 11287 0
15127 -12567 0
15127 -11287 0
-15287 12727 0
15287 -12727 0
-14167 10327 0
14167 -10327 0
14168 14328 14488 14648 14808 14968 15128 15288 0
-10328 2648 0
-10488 2808 0
-10648 2968 0
-10808 3128 0
-10968 3288 0
-11128 3448 0
-11288 3608 0
-11768 6648 0
-11928 6808 0
-12088 6968 0
-12248 7128 0
-12408 7288 0
-12568 7448 0
-12728 7608 0
-11768 -10488 0
-14328 11768 10488 0
14328 -11768 0
14328 -10488 0
-11928 -10648 0
-14488 11928 10648 0
14488 -11928 0
14488 -10648 0
-12088 -10808 0
-14648 12088 10808 0
14648 -12088 0
14648 -10808 0
-12248 -10968 0
-14808 12248 10968 0
14808 -12248 0
14808 -10968 0
-12408 -11128 0
-14968 12408 11128 0
14968 -12408 0
14968 -11128 0
-12568 -11288 0
-15128 12568 11288 0
15128 -12568 0
15128 -11288 0
-15288 12728 0
15288 -12728 0
-14168 10328 0
14168 -10328 0
14169 14329 14489 14649 14809 14969 15129 15289 0
-10329 2649 0
-10489 2809 0
-10649 2969 0
-10809 3129 0
-10969 3289 0
-11129 3449 0
-11289 3609 0
-11769 6649 0
-11929 6809 0
-12089 6969 0
-12249 7129 0
-12409 7289 0
-12569 7449 0
-12729 7609 0
-11769 -10489 0
-14329 11769 10489 0
14329 -11769 0
14329 -10489 0
-11929 -10649 0
-14489 11929 10649 0
14489 -11929 0
14489 -10649 0
-12089 -10809 0
-14649 12089 10809 0
14649 -12089 0
14649 -10809 0
-12249 -10969 0
-14809 12249 10969 0
14809 -12249 0
14809 -10969 0
-12409 -11129 0
-14969 12409 11129 0
14969 -12409 0
14969 -11129 0
-12569 -11289 0
-15129 12569 11289 0
15129 -12569 0
15129 -11289 0
-15289 12729 0
15289 -12729 0
-14169 10329 0
14169 -10329 0
14170 14330 14490 14650 14810 14970 15130 15290 0
-10330 2650 0
-10490 2810 0
-10650 2970 0
-10810 3130 0
-10970 3290 0
-11130 3450 0
-11290 3610 0
-11770 6650 0
-11930 6810 0
-12090 6970 0
-12250 7130 0
-12410 7290 0
-12570 7450 0
-12730 7610 0
-11770 -10490 0
-14330 11770 10490 0
14330 -11770 0
14330 -10490 0
-11930 -10650 0
-14490 11930 10650 0
14490 -11930 0
14490 -10650 0
-12090 -10810 0
-14650 12090 10810 0
14650 -12090 0
14650 -10810 0
-12250 -10970 0
-14810 12250 10970 0
14810 -12250 0
14810 -10970 0
-12410 -11130 0
-14970 12410 11130 0
14970 -12410 0
14970 -11130 0
-12570 -11290 0
-15130 12570 11290 0
15130 -12570 0
15130 -11290 0
-15290 12730 0
15290 -12730 0
-14170 10330 0
14170 -10330 0
14171 14331 14491 14651 14811 14971 15131 15291 0
-10331 2651 0
-10491 2811 0
-10651 2971 0
-10811 3131 0
-10971 3291 0
-11131 3451 0
-11291 3611 0
-11771 6651 0
-11931 6811 0
-12091 6971 0
-12251 7131 0
-12411 7291 0
-12571 7451 0
-12731 7611 0
-11771 -10491 0
-14331 11771 10491 0
14331 -11771 0
14331 -10491 0
-11931 -10651 0
-14491 11931 10651 0
14491 -11931 0
14491 -10651 0
-12091 -10811 0
-14651 12091 10811 0
14651 -12091 0
14651 -10811 0
-12251 -10971 0
-14811 12251 10971 0
14811 -12251 0
14811 -10971 0
-12411 -11131 0
-14971 12411 11131 0
14971 -12411 0
14971 -11131 0
-12571 -11291 0
-15131 12571 11291 0
15131 -12571 0
15131 -11291 0
-15291 12731 0
15291 -12731 0
-14171 10331 0
14171 -10331 0
14172 14332 14492 14652 14812 14972 15132 15292 0
-10332 2652 0
-10492 2812 0
-10652 2972 0
-10812 3132 0
-10972 3292 0
-11132 3452 0
-11292 3612 0
-11772 6652 0
-11932 6812 0
-12092 6972 0
-12252 7132 0
-12412 7292 0
-12572 7452 0
-12732 7612 0
-11772 -10492 0
-14332 11772 10492 0
14332 -11772 0
14332 -10492 0
-11932 -10652 0
-14492 11932 10652 0
14492 -11932 0
14492 -10652 0
-12092 -10812 0
-14652 12092 10812 0
14652 -12092 0
14652 -10812 0
-12252 -10972 0
-14812 12252 10972 0
14812 -12252 0
14812 -10972 0
-12412 -11132 0
-14972 12412 11132 0
14972 -12412 0
14972 -11132 0
-12572 -11292 0
-15132 12572 11292 0
15132 -12572 0
15132 -11292 0
-15292 12732 0
15292 -12732 0
-14172 10332 0
14172 -10332 0
14173 14333 14493 14653 14813 14973 15133 15293 0
-10333 2653 0
-10493 2813 0
-10653 2973 0
-10813 3133 0
-10973 3293 0
-11133 3453 0
-11293 3613 0
-11773 6653 0
-11933 6813 0
-12093 6973 0
-12253 7133 0
-12413 7293 0
-12573 7453 0
-12733 7613 0
-11773 -10493 0
-14333 11773 10493 0
14333 -11773 0
14333 -10493 0
-11933 -10653 0
-14493 11933 10653 0
14493 -11933 0
14493 -10653 0
-12093 -10813 0
-14653 12093 10813 0
14653 -12093 0
14653 -10813 0
-12253 -10973 0
-14813 12253 10973 0
14813 -12253 0
14813 -10973 0
-12413 -11133 0
-14973 12413 11133 0
14973 -12413 0
14973 -11133 0
-12573 -11293 0
-15133 12573 11293 0
15133 -12573 0
15133 -11293 0
-15293 12733 0
15293 -12733 0
-14173 10333 0
14173 -10333 0
14174 14334 14494 14654 14814 14974 15134 15294 0
-10334 2654 0
-10494 2814 0
-10654 2974 0
-10814 3134 0
-10974 3294 0
-11134 3454 0
-11294 3614 0
-11774 6654 0
-11934 6814 0
-12094 6974 0
-12254 7134 0
-12414 7294 0
-12574 7454 0
-12734 7614 0
-11774 -10494 0
-14334 11774 10494 0
14334 -11774 0
14334 -10494 0
-11934 -10654 0
-14494 11934 10654 0
14494 -11934 0
14494 -10654 0
-12094 -10814 0
-14654 12094 10814 0
14654 -12094 0
14654 -10814 0
-12254 -10974 0
-14814 12254 10974 0
14814 -12254 0
14814 -10974 0
-12414 -11134 0
-14974 12414 11134 0
14974 -12414 0
14974 -11134 0
-12574 -11294 0
-15134 12574 11294 0
15134 -12574 0
15134 -11294 0
-15294 12734 0
15294 -12734 0
-14174 10334 0
14174 -10334 0
14175 14335 14495 14655 14815 14975 15135 15295 0
-10335 2655 0
-10495 2815 0
-10655 2975 0
-10815 3135 0
-10975 3295 0
-11135 3455 0
-11295 3615 0
-11775 6655 0
-11935 6815 0
-12095 6975 0
-12255 7135 0
-12415 7295 0
-12575 7455 0
-12735 7615 0
-11775 -10495 0
-14335 11775 10495 0
14335 -11775 0
14335 -10495 0
-11935 -10655 0
-14495 11935 10655 0
14495 -11935 0
14495 -10655 0
-12095 -10815 0
-14655 12095 10815 0
14655 -12095 0
14655 -10815 0
-12255 -10975 0
-14815 12255 10975 0
14815 -12255 0
14815 -10975 0
-12415 -11135 0
-14975 12415 11135 0
14975 -12415 0
14975 -11135 0
-12575 -11295 0
-15135 12575 11295 0
15135 -12575 0
15135 -11295 0
-15295 12735 0
15295 -12735 0
-14175 10335 0
14175 -10335 0
14176 14336 14496 14656 14816 14976 15136 15296 0
-10336 2656 0
-10496 2816 0
-10656 2976 0
-10816 3136 0
-10976 3296 0
-11136 3456 0
-11296 3616 0
-11776 6656 0
-11936 6816 0
-12096 6976 0
-12256 7136 0
-12416 7296 0
-12576 7456 0
-12736 7616 0
-11776 -10496 0
-14336 11776 10496 0
14336 -11776 0
14336 -10496 0
-11936 -10656 0
-14496 11936 10656 0
14496 -11936 0
14496 -10656 0
-12096 -10816 0
-14656 12096 10816 0
14656 -12096 0
14656 -10816 0
-12256 -10976 0
-14816 12256 10976 0
14816 -12256 0
14816 -10976 0
-12416 -11136 0
-14976 12416 11136 0
14976 -12416 0
14976 -11136 0
-12576 -11296 0
-15136 12576 11296 0
15136 -12576 0
15136 -11296 0
-15296 12736 0
15296 -12736 0
-14176 10336 0
14176 -10336 0
14177 14337 14497 14657 14817 14977 15137 15297 0
-10337 2657 0
-10497 2817 0
-10657 2977 0
-10817 3137 0
-10977 3297 0
-11137 3457 0
-11297 3617 0
-11777 6657 0
-11937 6817 0
-12097 6977 0
-12257 7137 0
-12417 7297 0
-12577 7457 0
-12737 7617 0
-11777 -10497 0
-14337 11777 10497 0
14337 -11777 0
14337 -10497 0
-11937 -10657 0
-14497 11937 10657 0
14497 -11937 0
14497 -10657 0
-12097 -10817 0
-14657 12097 10817 0
14657 -12097 0
14657 -10817 0
-12257 -10977 0
-14817 12257 10977 0
14817 -12257 0
14817 -10977 0
-12417 -11137 0
-14977 12417 11137 0
14977 -12417 0
14977 -11137 0
-12577 -11297 0
-15137 12577 11297 0
15137 -12577 0
15137 -11297 0
-15297 12737 0
15297 -12737 0
-14177 10337 0
14177 -10337 0
14178 14338 14498 14658 14818 14978 15138 15298 0
-10338 2658 0
-10498 2818 0
-10658 2978 0
-10818 3138 0
-10978 3298 0
-11138 3458 0
-11298 3618 0
-11778 6658 0
-11938 6818 0
-12098 6978 0
-12258 7138 0
-12418 7298 0
-12578 7458 0
-12738 7618 0
-11778 -10498 0
-14338 11778 10498 0
14338 -11778 0
14338 -10498 0
-11938 -10658 0
-14498 11938 10658 0
14498 -11938 0
14498 -10658 0
-12098 -10818 0
-14658 12098 10818 0
14658 -12098 0
14658 -10818 0
-12258 -10978 0
-14818 12258 10978 0
14818 -12258 0
14818 -10978 0
-12418 -11138 0
-14978 12418 11138 0
14978 -12418 0
14978 -11138 0
-12578 -11298 0
-15138 12578 11298 0
15138 -12578 0
15138 -11298 0
-15298 12738 0
15298 -12738 0
-14178 10338 0
14178 -10338 0
14179 14339 14499 14659 14819 14979 15139 15299 0
-10339 2659 0
-10499 2819 0
-10659 2979 0
-10819 3139 0
-10979 3299 0
-11139 3459 0
-11299 3619 0
-11779 6659 0
-11939 6819 0
-12099 6979 0
-12259 7139 0
-12419 7299 0
-12579 7459 0
-12739 7619 0
-11779 -10499 0
-14339 11779 10499 0
14339 -11779 0
14339 -10499 0
-11939 -10659 0
-14499 11939 10659 0
14499 -11939 0
14499 -10659 0
-12099 -10819 0
-14659 12099 10819 0
14659 -12099 0
14659 -10819 0
-12259 -10979 0
-14819 12259 10979 0
14819 -12259 0
14819 -10979 0
-12419 -11139 0
-14979 12419 11139 0
14979 -12419 0
14979 -11139 0
-12579 -11299 0
-15139 12579 11299 0
15139 -12579 0
15139 -11299 0
-15299 12739 0
15299 -12739 0
-14179 10339 0
14179 -10339 0
14180 14340 14500 14660 14820 14980 15140 15300 0
-10340 2660 0
-10500 2820 0
-10660 2980 0
-10820 3140 0
-10980 3300 0
-11140 3460 0
-11300 3620 0
-11780 6660 0
-11940 6820 0
-12100 6980 0
-12260 7140 0
-12420 7300 0
-12580 7460 0
-12740 7620 0
-11780 -10500 0
-14340 11780 10500 0
14340 -11780 0
14340 -10500 0
-11940 -10660 0
-14500 11940 10660 0
14500 -11940 0
14500 -10660 0
-12100 -10820 0
-14660 12100 10820 0
14660 -12100 0
14660 -10820 0
-12260 -10980 0
-14820 12260 10980 0
14820 -12260 0
14820 -10980 0
-12420 -11140 0
-14980 12420 11140 0
14980 -12420 0
14980 -11140 0
-12580 -11300 0
-15140 12580 11300 0
15140 -12580 0
15140 -11300 0
-15300 12740 0
15300 -12740 0
-14180 10340 0
14180 -10340 0
14181 14341 14501 14661 14821 14981 15141 15301 0
-10341 2661 0
-10501 2821 0
-10661 2981 0
-10821 3141 0
-10981 3301 0
-11141 3461 0
-11301 3621 0
-11781 6661 0
-11941 6821 0
-12101 6981 0
-12261 7141 0
-12421 7301 0
-12581 7461 0
-12741 7621 0
-11781 -10501 0
-14341 11781 10501 0
14341 -11781 0
14341 -10501 0
-11941 -10661 0
-14501 11941 10661 0
14501 -11941 0
14501 -10661 0
-12101 -10821 0
-14661 12101 10821 0
14661 -12101 0
14661 -10821 0
-12261 -10981 0
-14821 12261 10981 0
14821 -12261 0
14821 -10981 0
-12421 -11141 0
-14981 12421 11141 0
14981 -12421 0
14981 -11141 0
-12581 -11301 0
-15141 12581 11301 0
15141 -12581 0
15141 -11301 0
-15301 12741 0
15301 -12741 0
-14181 10341 0
14181 -10341 0
14182 14342 14502 14662 14822 14982 15142 15302 0
-10342 2662 0
-10502 2822 0
-10662 2982 0
-10822 3142 0
-10982 3302 0
-11142 3462 0
-11302 3622 0
-11782 6662 0
-11942 6822 0
-12102 6982 0
-12262 7142 0
-12422 7302 0
-12582 7462 0
-12742 7622 0
-11782 -10502 0
-14342 11782 10502 0
14342 -11782 0
14342 -10502 0
-11942 -10662 0
-14502 11942 10662 0
14502 -11942 0
14502 -10662 0
-12102 -10822 0
-14662 12102 10822 0
14662 -12102 0
14662 -10822 0
-12262 -10982 0
-14822 12262 10982 0
14822 -12262 0
14822 -10982 0
-12422 -11142 0
-14982 12422 11142 0
14982 -12422 0
14982 -11142 0
-12582 -11302 0
-15142 12582 11302 0
15142 -12582 0
15142 -11302 0
-15302 12742 0
15302 -12742 0
-14182 10342 0
14182 -10342 0
14183 14343 14503 14663 14823 14983 15143 15303 0
-10343 2663 0
-10503 2823 0
-10663 2983 0
-10823 3143 0
-10983 3303 0
-11143 3463 0
-11303 3623 0
-11783 6663 0
-11943 6823 0
-12103 6983 0
-12263 7143 0
-12423 7303 0
-12583 7463 0
-12743 7623 0
-11783 -10503 0
-14343 11783 10503 0
14343 -11783 0
14343 -10503 0
-11943 -10663 0
-14503 11943 10663 0
14503 -11943 0
14503 -10663 0
-12103 -10823 0
-14663 12103 10823 0
14663 -12103 0
14663 -10823 0
-12263 -10983 0
-14823 12263 10983 0
14823 -12263 0
14823 -10983 0
-12423 -11143 0
-14983 12423 11143 0
14983 -12423 0
14983 -11143 0
-12583 -11303 0
-15143 12583 11303 0
15143 -12583 0
15143 -11303 0
-15303 12743 0
15303 -12743 0
-14183 10343 0
14183 -10343 0
14184 14344 14504 14664 14824 14984 15144 15304 0
-10344 2664 0
-10504 2824 0
-10664 2984 0
-10824 3144 0
-10984 3304 0
-11144 3464 0
-11304 3624 0
-11784 6664 0
-11944 6824 0
-12104 6984 0
-12264 7144 0
-12424 7304 0
-12584 7464 0
-12744 7624 0
-11784 -10504 0
-14344 11784 10504 0
14344 -11784 0
14344 -10504 0
-11944 -10664 0
-14504 11944 10664 0
14504 -11944 0
14504 -10664 0
-12104 -10824 0
-14664 12104 10824 0
14664 -12104 0
14664 -10824 0
-12264 -10984 0
-14824 12264 10984 0
14824 -12264 0
14824 -10984 0
-12424 -11144 0
-14984 12424 11144 0
14984 -12424 0
14984 -11144 0
-12584 -11304 0
-15144 12584 11304 0
15144 -12584 0
15144 -11304 0
-15304 12744 0
15304 -12744 0
-14184 10344 0
14184 -10344 0
14185 14345 14505 14665 14825 14985 15145 15305 0
-10345 2665 0
-10505 2825 0
-10665 2985 0
-10825 3145 0
-10985 3305 0
-11145 3465 0
-11305 3625 0
-11785 6665 0
-11945 6825 0
-12105 6985 0
-12265 7145 0
-12425 7305 0
-12585 7465 0
-12745 7625 0
-11785 -10505 0
-14345 11785 10505 0
14345 -11785 0
14345 -10505 0
-11945 -10665 0
-14505 11945 10665 0
14505 -11945 0
14505 -10665 0
-12105 -10825 0
-14665 12105 10825 0
14665 -12105 0
14665 -10825 0
-12265 -10985 0
-14825 12265 10985 0
14825 -12265 0
14825 -10985 0
-12425 -11145 0
-14985 12425 11145 0
14985 -12425 0
14985 -11145 0
-12585 -11305 0
-15145 12585 11305 0
15145 -12585 0
15145 -11305 0
-15305 12745 0
15305 -12745 0
-14185 10345 0
14185 -10345 0
14186 14346 14506 14666 14826 14986 15146 15306 0
-10346 2666 0
-10506 2826 0
-10666 2986 0
-10826 3146 0
-10986 3306 0
-11146 3466 0
-11306 3626 0
-11786 6666 0
-11946 6826 0
-12106 6986 0
-12266 7146 0
-12426 7306 0
-12586 7466 0
-12746 7626 0
-11786 -10506 0
-14346 11786 10506 0
14346 -11786 0
14346 -10506 0
-11946 -10666 0
-14506 11946 10666 0
14506 -11946 0
14506 -10666 0
-12106 -10826 0
-14666 12106 10826 0
14666 -12106 0
14666 -10826 0
-12266 -10986 0
-14826 12266 10986 0
14826 -12266 0
14826 -10986 0
-12426 -11146 0
-14986 12426 11146 0
14986 -12426 0
14986 -11146 0
-12586 -11306 0
-15146 12586 11306 0
15146 -12586 0
15146 -11306 0
-15306 12746 0
15306 -12746 0
-14186 10346 0
14186 -10346 0
14187 14347 14507 14667 14827 14987 15147 15307 0
-10347 2667 0
-10507 2827 0
-10667 2987 0
-10827 3147 0
-10987 3307 0
-11147 3467 0
-11307 3627 0
-11787 6667 0
-11947 6827 0
-12107 6987 0
-12267 7147 0
-12427 7307 0
-12587 7467 0
-12747 7627 0
-11787 -10507 0
-14347 11787 10507 0
14347 -11787 0
14347 -10507 0
-11947 -10667 0
-14507 11947 10667 0
14507 -11947 0
14507 -10667 0
-12107 -10827 0
-14667 12107 10827 0
14667 -12107 0
14667 -10827 0
-12267 -10987 0
-14827 12267 10987 0
14827 -12267 0
14827 -10987 0
-12427 -11147 0
-14987 12427 11147 0
14987 -12427 0
14987 -11147 0
-12587 -11307 0
-15147 12587 11307 0
15147 -12587 0
15147 -11307 0
-15307 12747 0
15307 -12747 0
-14187 10347 0
14187 -10347 0
14188 14348 14508 14668 14828 14988 15148 15308 0
-10348 2668 0
-10508 2828 0
-10668 2988 0
-10828 3148 0
-10988 3308 0
-11148 3468 0
-11308 3628 0
-11788 6668 0
-11948 6828 0
-12108 6988 0
-12268 7148 0
-12428 7308 0
-12588 7468 0
-12748 7628 0
-11788 -10508 0
-14348 11788 10508 0
14348 -11788 0
14348 -10508 0
-11948 -10668 0
-14508 11948 10668 0
14508 -11948 0
14508 -10668 0
-12108 -10828 0
-14668 12108 10828 0
14668 -12108 0
14668 -10828 0
-12268 -10988 0
-14828 12268 10988 0
14828 -12268 0
14828 -10988 0
-12428 -11148 0
-14988 12428 11148 0
14988 -12428 0
14988 -11148 0
-12588 -11308 0
-15148 12588 11308 0
15148 -12588 0
15148 -11308 0
-15308 12748 0
15308 -12748 0
-14188 10348 0
14188 -10348 0
14189 14349 14509 14669 14829 14989 15149 15309 0
-10349 2669 0
-10509 2829 0
-10669 2989 0
-10829 3149 0
-10989 3309 0
-11149 3469 0
-11309 3629 0
-11789 6669 0
-11949 6829 0
-12109 6989 0
-12269 7149 0
-12429 7309 0
-12589 7469 0
-12749 7629 0
-11789 -10509 0
-14349 11789 10509 0
14349 -11789 0
14349 -10509 0
-11949 -10669 0
-14509 11949 10669 0
14509 -11949 0
14509 -10669 0
-12109 -10829 0
-14669 12109 10829 0
14669 -12109 0
14669 -10829 0
-12269 -10989 0
-14829 12269 10989 0
14829 -12269 0
14829 -10989 0
-12429 -11149 0
-14989 12429 11149 0
14989 -12429 0
14989 -11149 0
-12589 -11309 0
-15149 12589 11309 0
15149 -12589 0
15149 -11309 0
-15309 12749 0
15309 -12749 0
-14189 10349 0
14189 -10349 0
14190 14350 14510 14670 14830 14990 15150 15310 0
-10350 2670 0
-10510 2830 0
-10670 2990 0
-10830 3150 0
-10990 3310 0
-11150 3470 0
-11310 3630 0
-11790 6670 0
-11950 6830 0
-12110 6990 0
-12270 7150 0
-12430 7310 0
-12590 7470 0
-12750 7630 0
-11790 -10510 0
-14350 11790 10510 0
14350 -11790 0
14350 -10510 0
-11950 -10670 0
-14510 11950 10670 0
14510 -11950 0
14510 -10670 0
-12110 -10830 0
-14670 12110 10830 0
14670 -12110 0
14670 -10830 0
-12270 -10990 0
-14830 12270 10990 0
14830 -12270 0
14830 -10990 0
-12430 -11150 0
-14990 12430 11150 0
14990 -12430 0
14990 -11150 0
-12590 -11310 0
-15150 12590 11310 0
15150 -12590 0
15150 -11310 0
-15310 12750 0
15310 -12750 0
-14190 10350 0
14190 -10350 0
14191 14351 14511 14671 14831 14991 15151 15311 0
-10351 2671 0
-10511 2831 0
-10671 2991 0
-10831 3151 0
-10991 3311 0
-11151 3471 0
-11311 3631 0
-11791 6671 0
-11951 6831 0
-12111 6991 0
-12271 7151 0
-12431 7311 0
-12591 7471 0
-12751 7631 0
-11791 -10511 0
-14351 11791 10511 0
14351 -11791 0
14351 -10511 0
-11951 -10671 0
-14511 11951 10671 0
14511 -11951 0
14511 -10671 0
-12111 -10831 0
-14671 12111 10831 0
14671 -12111 0
14671 -10831 0
-12271 -10991 0
-14831 12271 10991 0
14831 -12271 0
14831 -10991 0
-12431 -11151 0
-14991 12431 11151 0
14991 -12431 0
14991 -11151 0
-12591 -11311 0
-15151 12591 11311 0
15151 -12591 0
15151 -11311 0
-15311 12751 0
15311 -12751 0
-14191 10351 0
14191 -10351 0
14192 14352 14512 14672 14832 14992 15152 15312 0
-10352 2672 0
-10512 2832 0
-10672 2992 0
-10832 3152 0
-10992 3312 0
-11152 3472 0
-11312 3632 0
-11792 6672 0
-11952 6832 0
-12112 6992 0
-12272 7152 0
-12432 7312 0
-12592 7472 0
-12752 7632 0
-11792 -10512 0
-14352 11792 10512 0
14352 -11792 0
14352 -10512 0
-11952 -10672 0
-14512 11952 10672 0
14512 -11952 0
14512 -10672 0
-12112 -10832 0
-14672 12112 10832 0
14672 -12112 0
14672 -10832 0
-12272 -10992 0
-14832 12272 10992 0
14832 -12272 0
14832 -10992 0
-12432 -11152 0
-14992 12432 11152 0
14992 -12432 0
14992 -11152 0
-12592 -11312 0
-15152 12592 11312 0
15152 -12592 0
15152 -11312 0
-15312 12752 0
15312 -12752 0
-14192 10352 0
14192 -10352 0
14193 14353 14513 14673 14833 14993 15153 15313 0
-10353 2673 0
-10513 2833 0
-10673 2993 0
-10833 3153 0
-10993 3313 0
-11153 3473 0
-11313 3633 0
-11793 6673 0
-11953 6833 0
-12113 6993 0
-12273 7153 0
-12433 7313 0
-12593 7473 0
-12753 7633 0
-11793 -10513 0
-14353 11793 10513 0
14353 -11793 0
14353 -10513 0
-11953 -10673 0
-14513 11953 10673 0
14513 -11953 0
14513 -10673 0
-12113 -10833 0
-14673 12113 10833 0
14673 -12113 0
14673 -10833 0
-12273 -10993 0
-14833 12273 10993 0
14833 -12273 0
14833 -10993 0
-12433 -11153 0
-14993 12433 11153 0
14993 -12433 0
14993 -11153 0
-12593 -11313 0
-15153 12593 11313 0
15153 -12593 0
15153 -11313 0
-15313 12753 0
15313 -12753 0
-14193 10353 0
14193 -10353 0
14194 14354 14514 14674 14834 14994 15154 15314 0
-10354 2674 0
-10514 2834 0
-10674 2994 0
-10834 3154 0
-10994 3314 0
-11154 3474 0
-11314 3634 0
-11794 6674 0
-11954 6834 0
-12114 6994 0
-12274 7154 0
-12434 7314 0
-12594 7474 0
-12754 7634 0
-11794 -10514 0
-14354 11794 10514 0
14354 -11794 0
14354 -10514 0
-11954 -10674 0
-14514 11954 10674 0
14514 -11954 0
14514 -10674 0
-12114 -10834 0
-14674 12114 10834 0
14674 -12114 0
14674 -10834 0
-12274 -10994 0
-14834 12274 10994 0
14834 -12274 0
14834 -10994 0
-12434 -11154 0
-14994 12434 11154 0
14994 -12434 0
14994 -11154 0
-12594 -11314 0
-15154 12594 11314 0
15154 -12594 0
15154 -11314 0
-15314 12754 0
15314 -12754 0
-14194 10354 0
14194 -10354 0
14195 14355 14515 14675 14835 14995 15155 15315 0
-10355 2675 0
-10515 2835 0
-10675 2995 0
-10835 3155 0
-10995 3315 0
-11155 3475 0
-11315 3635 0
-11795 6675 0
-11955 6835 0
-12115 6995 0
-12275 7155 0
-12435 7315 0
-12595 7475 0
-12755 7635 0
-11795 -10515 0
-14355 11795 10515 0
14355 -11795 0
14355 -10515 0
-11955 -10675 0
-14515 11955 10675 0
14515 -11955 0
14515 -10675 0
-12115 -10835 0
-14675 12115 10835 0
14675 -12115 0
14675 -10835 0
-12275 -10995 0
-14835 12275 10995 0
14835 -12275 0
14835 -10995 0
-12435 -11155 0
-14995 12435 11155 0
14995 -12435 0
14995 -11155 0
-12595 -11315 0
-15155 12595 11315 0
15155 -12595 0
15155 -11315 0
-15315 12755 0
15315 -12755 0
-14195 10355 0
14195 -10355 0
14196 14356 14516 14676 14836 14996 15156 15316 0
-10356 2676 0
-10516 2836 0
-10676 2996 0
-10836 3156 0
-10996 3316 0
-11156 3476 0
-11316 3636 0
-11796 6676 0
-11956 6836 0
-12116 6996 0
-12276 7156 0
-12436 7316 0
-12596 7476 0
-12756 7636 0
-11796 -10516 0
-14356 11796 10516 0
14356 -11796 0
14356 -10516 0
-11956 -10676 0
-14516 11956 10676 0
14516 -11956 0
14516 -10676 0
-12116 -10836 0
-14676 12116 10836 0
14676 -12116 0
14676 -10836 0
-12276 -10996 0
-14836 12276 10996 0
14836 -12276 0
14836 -10996 0
-12436 -11156 0
-14996 12436 11156 0
14996 -12436 0
14996 -11156 0
-12596 -11316 0
-15156 12596 11316 0
15156 -12596 0
15156 -11316 0
-15316 12756 0
15316 -12756 0
-14196 10356 0
14196 -10356 0
14197 14357 14517 14677 14837 14997 15157 15317 0
-10357 2677 0
-10517 2837 0
-10677 2997 0
-10837 3157 0
-10997 3317 0
-11157 3477 0
-11317 3637 0
-11797 6677 0
-11957 6837 0
-12117 6997 0
-12277 7157 0
-12437 7317 0
-12597 7477 0
-12757 7637 0
-11797 -10517 0
-14357 11797 10517 0
14357 -11797 0
14357 -10517 0
-11957 -10677 0
-14517 11957 10677 0
14517 -11957 0
14517 -10677 0
-12117 -10837 0
-14677 12117 10837 0
14677 -12117 0
14677 -10837 0
-12277 -10997 0
-14837 12277 10997 0
14837 -12277 0
14837 -10997 0
-12437 -11157 0
-14997 12437 11157 0
14997 -12437 0
14997 -11157 0
-12597 -11317 0
-15157 12597 11317 0
15157 -12597 0
15157 -11317 0
-15317 12757 0
15317 -12757 0
-14197 10357 0
14197 -10357 0
14198 14358 14518 14678 14838 14998 15158 15318 0
-10358 2678 0
-10518 2838 0
-10678 2998 0
-10838 3158 0
-10998 3318 0
-11158 3478 0
-11318 3638 0
-11798 6678 0
-11958 6838 0
-12118 6998 0
-12278 7158 0
-12438 7318 0
-12598 7478 0
-12758 7638 0
-11798 -10518 0
-14358 11798 10518 0
14358 -11798 0
14358 -10518 0
-11958 -10678 0
-14518 11958 10678 0
14518 -11958 0
14518 -10678 0
-12118 -10838 0
-14678 12118 10838 0
14678 -12118 0
14678 -10838 0
-12278 -10998 0
-14838 12278 10998 0
14838 -12278 0
14838 -10998 0
-12438 -11158 0
-14998 12438 11158 0
14998 -12438 0
14998 -11158 0
-12598 -11318 0
-15158 12598 11318 0
15158 -12598 0
15158 -11318 0
-15318 12758 0
15318 -12758 0
-14198 10358 0
14198 -10358 0
14199 14359 14519 14679 14839 14999 15159 15319 0
-10359 2679 0
-10519 2839 0
-10679 2999 0
-10839 3159 0
-10999 3319 0
-11159 3479 0
-11319 3639 0
-11799 6679 0
-11959 6839 0
-12119 6999 0
-12279 7159 0
-12439 7319 0
-12599 7479 0
-12759 7639 0
-11799 -10519 0
-14359 11799 10519 0
14359 -11799 0
14359 -10519 0
-11959 -10679 0
-14519 11959 10679 0
14519 -11959 0
14519 -10679 0
-12119 -10839 0
-14679 12119 10839 0
14679 -12119 0
14679 -10839 0
-12279 -10999 0
-14839 12279 10999 0
14839 -12279 0
14839 -10999 0
-12439 -11159 0
-14999 12439 11159 0
14999 -12439 0
14999 -11159 0
-12599 -11319 0
-15159 12599 11319 0
15159 -12599 0
15159 -11319 0
-15319 12759 0
15319 -12759 0
-14199 10359 0
14199 -10359 0
14200 14360 14520 14680 14840 15000 15160 15320 0
-10360 2680 0
-10520 2840 0
-10680 3000 0
-10840 3160 0
-11000 3320 0
-11160 3480 0
-11320 3640 0
-11800 6680 0
-11960 6840 0
-12120 7000 0
-12280 7160 0
-12440 7320 0
-12600 7480 0
-12760 7640 0
-11800 -10520 0
-14360 11800 10520 0
14360 -11800 0
14360 -10520 0
-11960 -10680 0
-14520 11960 10680 0
14520 -11960 0
14520 -10680 0
-12120 -10840 0
-14680 12120 10840 0
14680 -12120 0
14680 -10840 0
-12280 -11000 0
-14840 12280 11000 0
14840 -12280 0
14840 -11000 0
-12440 -11160 0
-15000 12440 11160 0
15000 -12440 0
15000 -11160 0
-12600 -11320 0
-15160 12600 11320 0
15160 -12600 0
15160 -11320 0
-15320 12760 0
15320 -12760 0
-14200 10360 0
14200 -10360 0
14201 14361 14521 14681 14841 15001 15161 15321 0
-10361 2681 0
-10521 2841 0
-10681 3001 0
-10841 3161 0
-11001 3321 0
-11161 3481 0
-11321 3641 0
-11801 6681 0
-11961 6841 0
-12121 7001 0
-12281 7161 0
-12441 7321 0
-12601 7481 0
-12761 7641 0
-11801 -10521 0
-14361 11801 10521 0
14361 -11801 0
14361 -10521 0
-11961 -10681 0
-14521 11961 10681 0
14521 -11961 0
14521 -10681 0
-12121 -10841 0
-14681 12121 10841 0
14681 -12121 0
14681 -10841 0
-12281 -11001 0
-14841 12281 11001 0
14841 -12281 0
14841 -11001 0
-12441 -11161 0
-15001 12441 11161 0
15001 -12441 0
15001 -11161 0
-12601 -11321 0
-15161 12601 11321 0
15161 -12601 0
15161 -11321 0
-15321 12761 0
15321 -12761 0
-14201 10361 0
14201 -10361 0
14202 14362 14522 14682 14842 15002 15162 15322 0
-10362 2682 0
-10522 2842 0
-10682 3002 0
-10842 3162 0
-11002 3322 0
-11162 3482 0
-11322 3642 0
-11802 6682 0
-11962 6842 0
-12122 7002 0
-12282 7162 0
-12442 7322 0
-12602 7482 0
-12762 7642 0
-11802 -10522 0
-14362 11802 10522 0
14362 -11802 0
14362 -10522 0
-11962 -10682 0
-14522 11962 10682 0
14522 -11962 0
14522 -10682 0
-12122 -10842 0
-14682 12122 10842 0
14682 -12122 0
14682 -10842 0
-12282 -11002 0
-14842 12282 11002 0
14842 -12282 0
14842 -11002 0
-12442 -11162 0
-15002 12442 11162 0
15002 -12442 0
15002 -11162 0
-12602 -11322 0
-15162 12602 11322 0
15162 -12602 0
15162 -11322 0
-15322 12762 0
15322 -12762 0
-14202 10362 0
14202 -10362 0
14203 14363 14523 14683 14843 15003 15163 15323 0
-10363 2683 0
-10523 2843 0
-10683 3003 0
-10843 3163 0
-11003 3323 0
-11163 3483 0
-11323 3643 0
-11803 6683 0
-11963 6843 0
-12123 7003 0
-12283 7163 0
-12443 7323 0
-12603 7483 0
-12763 7643 0
-11803 -10523 0
-14363 11803 10523 0
14363 -11803 0
14363 -10523 0
-11963 -10683 0
-14523 11963 10683 0
14523 -11963 0
14523 -10683 0
-12123 -10843 0
-14683 12123 10843 0
14683 -12123 0
14683 -10843 0
-12283 -11003 0
-14843 12283 11003 0
14843 -12283 0
14843 -11003 0
-12443 -11163 0
-15003 12443 11163 0
15003 -12443 0
15003 -11163 0
-12603 -11323 0
-15163 12603 11323 0
15163 -12603 0
15163 -11323 0
-15323 12763 0
15323 -12763 0
-14203 10363 0
14203 -10363 0
14204 14364 14524 14684 14844 15004 15164 15324 0
-10364 2684 0
-10524 2844 0
-10684 3004 0
-10844 3164 0
-11004 3324 0
-11164 3484 0
-11324 3644 0
-11804 6684 0
-11964 6844 0
-12124 7004 0
-12284 7164 0
-12444 7324 0
-12604 7484 0
-12764 7644 0
-11804 -10524 0
-14364 11804 10524 0
14364 -11804 0
14364 -10524 0
-11964 -10684 0
-14524 11964 10684 0
14524 -11964 0
14524 -10684 0
-12124 -10844 0
-14684 12124 10844 0
14684 -12124 0
14684 -10844 0
-12284 -11004 0
-14844 12284 11004 0
14844 -12284 0
14844 -11004 0
-12444 -11164 0
-15004 12444 11164 0
15004 -12444 0
15004 -11164 0
-12604 -11324 0
-15164 12604 11324 0
15164 -12604 0
15164 -11324 0
-15324 12764 0
15324 -12764 0
-14204 10364 0
14204 -10364 0
14205 14365 14525 14685 14845 15005 15165 15325 0
-10365 2685 0
-10525 2845 0
-10685 3005 0
-10845 3165 0
-11005 3325 0
-11165 3485 0
-11325 3645 0
-11805 6685 0
-11965 6845 0
-12125 7005 0
-12285 7165 0
-12445 7325 0
-12605 7485 0
-12765 7645 0
-11805 -10525 0
-14365 11805 10525 0
14365 -11805 0
14365 -10525 0
-11965 -10685 0
-14525 11965 10685 0
14525 -11965 0
14525 -10685 0
-12125 -10845 0
-14685 12125 10845 0
14685 -12125 0
14685 -10845 0
-12285 -11005 0
-14845 12285 11005 0
14845 -12285 0
14845 -11005 0
-12445 -11165 0
-15005 12445 11165 0
15005 -12445 0
15005 -11165 0
-12605 -11325 0
-15165 12605 11325 0
15165 -12605 0
15165 -11325 0
-15325 12765 0
15325 -12765 0
-14205 10365 0
14205 -10365 0
14206 14366 14526 14686 14846 15006 15166 15326 0
-10366 2686 0
-10526 2846 0
-10686 3006 0
-10846 3166 0
-11006 3326 0
-11166 3486 0
-11326 3646 0
-11806 6686 0
-11966 6846 0
-12126 7006 0
-12286 7166 0
-12446 7326 0
-12606 7486 0
-12766 7646 0
-11806 -10526 0
-14366 11806 10526 0
14366 -11806 0
14366 -10526 0
-11966 -10686 0
-14526 11966 10686 0
14526 -11966 0
14526 -10686 0
-12126 -10846 0
-14686 12126 10846 0
14686 -12126 0
14686 -10846 0
-12286 -11006 0
-14846 12286 11006 0
14846 -12286 0
14846 -11006 0
-12446 -11166 0
-15006 12446 11166 0
15006 -12446 0
15006 -11166 0
-12606 -11326 0
-15166 12606 11326 0
15166 -12606 0
15166 -11326 0
-15326 12766 0
15326 -12766 0
-14206 10366 0
14206 -10366 0
14207 14367 14527 14687 14847 15007 15167 15327 0
-10367 2687 0
-10527 2847 0
-10687 3007 0
-10847 3167 0
-11007 3327 0
-11167 3487 0
-11327 3647 0
-11807 6687 0
-11967 6847 0
-12127 7007 0
-12287 7167 0
-12447 7327 0
-12607 7487 0
-12767 7647 0
-11807 -10527 0
-14367 11807 10527 0
14367 -11807 0
14367 -10527 0
-11967 -10687 0
-14527 11967 10687 0
14527 -11967 0
14527 -10687 0
-12127 -10847 0
-14687 12127 10847 0
14687 -12127 0
14687 -10847 0
-12287 -11007 0
-14847 12287 11007 0
14847 -12287 0
14847 -11007 0
-12447 -11167 0
-15007 12447 11167 0
15007 -12447 0
15007 -11167 0
-12607 -11327 0
-15167 12607 11327 0
15167 -12607 0
15167 -11327 0
-15327 12767 0
15327 -12767 0
-14207 10367 0
14207 -10367 0
14208 14368 14528 14688 14848 15008 15168 15328 0
-10368 2688 0
-10528 2848 0
-10688 3008 0
-10848 3168 0
-11008 3328 0
-11168 3488 0
-11328 3648 0
-11808 6688 0
-11968 6848 0
-12128 7008 0
-12288 7168 0
-12448 7328 0
-12608 7488 0
-12768 7648 0
-11808 -10528 0
-14368 11808 10528 0
14368 -11808 0
14368 -10528 0
-11968 -10688 0
-14528 11968 10688 0
14528 -11968 0
14528 -10688 0
-12128 -10848 0
-14688 12128 10848 0
14688 -12128 0
14688 -10848 0
-12288 -11008 0
-14848 12288 11008 0
14848 -12288 0
14848 -11008 0
-12448 -11168 0
-15008 12448 11168 0
15008 -12448 0
15008 -11168 0
-12608 -11328 0
-15168 12608 11328 0
15168 -12608 0
15168 -11328 0
-15328 12768 0
15328 -12768 0
-14208 10368 0
14208 -10368 0
14209 14369 14529 14689 14849 15009 15169 15329 0
-10369 2689 0
-10529 2849 0
-10689 3009 0
-10849 3169 0
-11009 3329 0
-11169 3489 0
-11329 3649 0
-11809 6689 0
-11969 6849 0
-12129 7009 0
-12289 7169 0
-12449 7329 0
-12609 7489 0
-12769 7649 0
-11809 -10529 0
-14369 11809 10529 0
14369 -11809 0
14369 -10529 0
-11969 -10689 0
-14529 11969 10689 0
14529 -11969 0
14529 -10689 0
-12129 -10849 0
-14689 12129 10849 0
14689 -12129 0
14689 -10849 0
-12289 -11009 0
-14849 12289 11009 0
14849 -12289 0
14849 -11009 0
-12449 -11169 0
-15009 12449 11169 0
15009 -12449 0
15009 -11169 0
-12609 -11329 0
-15169 12609 11329 0
15169 -12609 0
15169 -11329 0
-15329 12769 0
15329 -12769 0
-14209 10369 0
14209 -10369 0
14210 14370 14530 14690 14850 15010 15170 15330 0
-10370 2690 0
-10530 2850 0
-10690 3010 0
-10850 3170 0
-11010 3330 0
-11170 3490 0
-11330 3650 0
-11810 6690 0
-11970 6850 0
-12130 7010 0
-12290 7170 0
-12450 7330 0
-12610 7490 0
-12770 7650 0
-11810 -10530 0
-14370 11810 10530 0
14370 -11810 0
14370 -10530 0
-11970 -10690 0
-14530 11970 10690 0
14530 -11970 0
14530 -10690 0
-12130 -10850 0
-14690 12130 10850 0
14690 -12130 0
14690 -10850 0
-12290 -11010 0
-14850 12290 11010 0
14850 -12290 0
14850 -11010 0
-12450 -11170 0
-15010 12450 11170 0
15010 -12450 0
15010 -11170 0
-12610 -11330 0
-15170 12610 11330 0
15170 -12610 0
15170 -11330 0
-15330 12770 0
15330 -12770 0
-14210 10370 0
14210 -10370 0
14211 14371 14531 14691 14851 15011 15171 15331 0
-10371 2691 0
-10531 2851 0
-10691 3011 0
-10851 3171 0
-11011 3331 0
-11171 3491 0
-11331 3651 0
-11811 6691 0
-11971 6851 0
-12131 7011 0
-12291 7171 0
-12451 7331 0
-12611 7491 0
-12771 7651 0
-11811 -10531 0
-14371 11811 10531 0
14371 -11811 0
14371 -10531 0
-11971 -10691 0
-14531 11971 10691 0
14531 -11971 0
14531 -10691 0
-12131 -10851 0
-14691 12131 10851 0
14691 -12131 0
14691 -10851 0
-12291 -11011 0
-14851 12291 11011 0
14851 -12291 0
14851 -11011 0
-12451 -11171 0
-15011 12451 11171 0
15011 -12451 0
15011 -11171 0
-12611 -11331 0
-15171 12611 11331 0
15171 -12611 0
15171 -11331 0
-15331 12771 0
15331 -12771 0
-14211 10371 0
14211 -10371 0
14212 14372 14532 14692 14852 15012 15172 15332 0
-10372 2692 0
-10532 2852 0
-10692 3012 0
-10852 3172 0
-11012 3332 0
-11172 3492 0
-11332 3652 0
-11812 6692 0
-11972 6852 0
-12132 7012 0
-12292 7172 0
-12452 7332 0
-12612 7492 0
-12772 7652 0
-11812 -10532 0
-14372 11812 10532 0
14372 -11812 0
14372 -10532 0
-11972 -10692 0
-14532 11972 10692 0
14532 -11972 0
14532 -10692 0
-12132 -10852 0
-14692 12132 10852 0
14692 -12132 0
14692 -10852 0
-12292 -11012 0
-14852 12292 11012 0
14852 -12292 0
14852 -11012 0
-12452 -11172 0
-15012 12452 11172 0
15012 -12452 0
15012 -11172 0
-12612 -11332 0
-15172 12612 11332 0
15172 -12612 0
15172 -11332 0
-15332 12772 0
15332 -12772 0
-14212 10372 0
14212 -10372 0
14213 14373 14533 14693 14853 15013 15173 15333 0
-10373 2693 0
-10533 2853 0
-10693 3013 0
-10853 3173 0
-11013 3333 0
-11173 3493 0
-11333 3653 0
-11813 6693 0
-11973 6853 0
-12133 7013 0
-12293 7173 0
-12453 7333 0
-12613 7493 0
-12773 7653 0
-11813 -10533 0
-14373 11813 10533 0
14373 -11813 0
14373 -10533 0
-11973 -10693 0
-14533 11973 10693 0
14533 -11973 0
14533 -10693 0
-12133 -10853 0
-14693 12133 10853 0
14693 -12133 0
14693 -10853 0
-12293 -11013 0
-14853 12293 11013 0
14853 -12293 0
14853 -11013 0
-12453 -11173 0
-15013 12453 11173 0
15013 -12453 0
15013 -11173 0
-12613 -11333 0
-15173 12613 11333 0
15173 -12613 0
15173 -11333 0
-15333 12773 0
15333 -12773 0
-14213 10373 0
14213 -10373 0
14214 14374 14534 14694 14854 15014 15174 15334 0
-10374 2694 0
-10534 2854 0
-10694 3014 0
-10854 3174 0
-11014 3334 0
-11174 3494 0
-11334 3654 0
-11814 6694 0
-11974 6854 0
-12134 7014 0
-12294 7174 0
-12454 7334 0
-12614 7494 0
-12774 7654 0
-11814 -10534 0
-14374 11814 10534 0
14374 -11814 0
14374 -10534 0
-11974 -10694 0
-14534 11974 10694 0
14534 -11974 0
14534 -10694 0
-12134 -10854 0
-14694 12134 10854 0
14694 -12134 0
14694 -10854 0
-12294 -11014 0
-14854 12294 11014 0
14854 -12294 0
14854 -11014 0
-12454 -11174 0
-15014 12454 11174 0
15014 -12454 0
15014 -11174 0
-12614 -11334 0
-15174 12614 11334 0
15174 -12614 0
15174 -11334 0
-15334 12774 0
15334 -12774 0
-14214 10374 0
14214 -10374 0
14215 14375 14535 14695 14855 15015 15175 15335 0
-10375 2695 0
-10535 2855 0
-10695 3015 0
-10855 3175 0
-11015 3335 0
-11175 3495 0
-11335 3655 0
-11815 6695 0
-11975 6855 0
-12135 7015 0
-12295 7175 0
-12455 7335 0
-12615 7495 0
-12775 7655 0
-11815 -10535 0
-14375 11815 10535 0
14375 -11815 0
14375 -10535 0
-11975 -10695 0
-14535 11975 10695 0
14535 -11975 0
14535 -10695 0
-12135 -10855 0
-14695 12135 10855 0
14695 -12135 0
14695 -10855 0
-12295 -11015 0
-14855 12295 11015 0
14855 -12295 0
14855 -11015 0
-12455 -11175 0
-15015 12455 11175 0
15015 -12455 0
15015 -11175 0
-12615 -11335 0
-15175 12615 11335 0
15175 -12615 0
15175 -11335 0
-15335 12775 0
15335 -12775 0
-14215 10375 0
14215 -10375 0
14216 14376 14536 14696 14856 15016 15176 15336 0
-10376 2696 0
-10536 2856 0
-10696 3016 0
-10856 3176 0
-11016 3336 0
-11176 3496 0
-11336 3656 0
-11816 6696 0
-11976 6856 0
-12136 7016 0
-12296 7176 0
-12456 7336 0
-12616 7496 0
-12776 7656 0
-11816 -10536 0
-14376 11816 10536 0
14376 -11816 0
14376 -10536 0
-11976 -10696 0
-14536 11976 10696 0
14536 -11976 0
14536 -10696 0
-12136 -10856 0
-14696 12136 10856 0
14696 -12136 0
14696 -10856 0
-12296 -11016 0
-14856 12296 11016 0
14856 -12296 0
14856 -11016 0
-12456 -11176 0
-15016 12456 11176 0
15016 -12456 0
15016 -11176 0
-12616 -11336 0
-15176 12616 11336 0
15176 -12616 0
15176 -11336 0
-15336 12776 0
15336 -12776 0
-14216 10376 0
14216 -10376 0
14217 14377 14537 14697 14857 15017 15177 15337 0
-10377 2697 0
-10537 2857 0
-10697 3017 0
-10857 3177 0
-11017 3337 0
-11177 3497 0
-11337 3657 0
-11817 6697 0
-11977 6857 0
-12137 7017 0
-12297 7177 0
-12457 7337 0
-12617 7497 0
-12777 7657 0
-11817 -10537 0
-14377 11817 10537 0
14377 -11817 0
14377 -10537 0
-11977 -10697 0
-14537 11977 10697 0
14537 -11977 0
14537 -10697 0
-12137 -10857 0
-14697 12137 10857 0
14697 -12137 0
14697 -10857 0
-12297 -11017 0
-14857 12297 11017 0
14857 -12297 0
14857 -11017 0
-12457 -11177 0
-15017 12457 11177 0
15017 -12457 0
15017 -11177 0
-12617 -11337 0
-15177 12617 11337 0
15177 -12617 0
15177 -11337 0
-15337 12777 0
15337 -12777 0
-14217 10377 0
14217 -10377 0
14218 14378 14538 14698 14858 15018 15178 15338 0
-10378 2698 0
-10538 2858 0
-10698 3018 0
-10858 3178 0
-11018 3338 0
-11178 3498 0
-11338 3658 0
-11818 6698 0
-11978 6858 0
-12138 7018 0
-12298 7178 0
-12458 7338 0
-12618 7498 0
-12778 7658 0
-11818 -10538 0
-14378 11818 10538 0
14378 -11818 0
14378 -10538 0
-11978 -10698 0
-14538 11978 10698 0
14538 -11978 0
14538 -10698 0
-12138 -10858 0
-14698 12138 10858 0
14698 -12138 0
14698 -10858 0
-12298 -11018 0
-14858 12298 11018 0
14858 -12298 0
14858 -11018 0
-12458 -11178 0
-15018 12458 11178 0
15018 -12458 0
15018 -11178 0
-12618 -11338 0
-15178 12618 11338 0
15178 -12618 0
15178 -11338 0
-15338 12778 0
15338 -12778 0
-14218 10378 0
14218 -10378 0
14219 14379 14539 14699 14859 15019 15179 15339 0
-10379 2699 0
-10539 2859 0
-10699 3019 0
-10859 3179 0
-11019 3339 0
-11179 3499 0
-11339 3659 0
-11819 6699 0
-11979 6859 0
-12139 7019 0
-12299 7179 0
-12459 7339 0
-12619 7499 0
-12779 7659 0
-11819 -10539 0
-14379 11819 10539 0
14379 -11819 0
14379 -10539 0
-11979 -10699 0
-14539 11979 10699 0
14539 -11979 0
14539 -10699 0
-12139 -10859 0
-14699 12139 10859 0
14699 -12139 0
14699 -10859 0
-12299 -11019 0
-14859 12299 11019 0
14859 -12299 0
14859 -11019 0
-12459 -11179 0
-15019 12459 11179 0
15019 -12459 0
15019 -11179 0
-12619 -11339 0
-15179 12619 11339 0
15179 -12619 0
15179 -11339 0
-15339 12779 0
15339 -12779 0
-14219 10379 0
14219 -10379 0
14220 14380 14540 14700 14860 15020 15180 15340 0
-10380 2700 0
-10540 2860 0
-10700 3020 0
-10860 3180 0
-11020 3340 0
-11180 3500 0
-11340 3660 0
-11820 6700 0
-11980 6860 0
-12140 7020 0
-12300 7180 0
-12460 7340 0
-12620 7500 0
-12780 7660 0
-11820 -10540 0
-14380 11820 10540 0
14380 -11820 0
14380 -10540 0
-11980 -10700 0
-14540 11980 10700 0
14540 -11980 0
14540 -10700 0
-12140 -10860 0
-14700 12140 10860 0
14700 -12140 0
14700 -10860 0
-12300 -11020 0
-14860 12300 11020 0
14860 -12300 0
14860 -11020 0
-12460 -11180 0
-15020 12460 11180 0
15020 -12460 0
15020 -11180 0
-12620 -11340 0
-15180 12620 11340 0
15180 -12620 0
15180 -11340 0
-15340 12780 0
15340 -12780 0
-14220 10380 0
14220 -10380 0
14221 14381 14541 14701 14861 15021 15181 15341 0
-10381 2701 0
-10541 2861 0
-10701 3021 0
-10861 3181 0
-11021 3341 0
-11181 3501 0
-11341 3661 0
-11821 6701 0
-11981 6861 0
-12141 7021 0
-12301 7181 0
-12461 7341 0
-12621 7501 0
-12781 7661 0
-11821 -10541 0
-14381 11821 10541 0
14381 -11821 0
14381 -10541 0
-11981 -10701 0
-14541 11981 10701 0
14541 -11981 0
14541 -10701 0
-12141 -10861 0
-14701 12141 10861 0
14701 -12141 0
14701 -10861 0
-12301 -11021 0
-14861 12301 11021 0
14861 -12301 0
14861 -11021 0
-12461 -11181 0
-15021 12461 11181 0
15021 -12461 0
15021 -11181 0
-12621 -11341 0
-15181 12621 11341 0
15181 -12621 0
15181 -11341 0
-15341 12781 0
15341 -12781 0
-14221 10381 0
14221 -10381 0
14222 14382 14542 14702 14862 15022 15182 15342 0
-10382 2702 0
-10542 2862 0
-10702 3022 0
-10862 3182 0
-11022 3342 0
-11182 3502 0
-11342 3662 0
-11822 6702 0
-11982 6862 0
-12142 7022 0
-12302 7182 0
-12462 7342 0
-12622 7502 0
-12782 7662 0
-11822 -10542 0
-14382 11822 10542 0
14382 -11822 0
14382 -10542 0
-11982 -10702 0
-14542 11982 10702 0
14542 -11982 0
14542 -10702 0
-12142 -10862 0
-14702 12142 10862 0
14702 -12142 0
14702 -10862 0
-12302 -11022 0
-14862 12302 11022 0
14862 -12302 0
14862 -11022 0
-12462 -11182 0
-15022 12462 11182 0
15022 -12462 0
15022 -11182 0
-12622 -11342 0
-15182 12622 11342 0
15182 -12622 0
15182 -11342 0
-15342 12782 0
15342 -12782 0
-14222 10382 0
14222 -10382 0
14223 14383 14543 14703 14863 15023 15183 15343 0
-10383 2703 0
-10543 2863 0
-10703 3023 0
-10863 3183 0
-11023 3343 0
-11183 3503 0
-11343 3663 0
-11823 6703 0
-11983 6863 0
-12143 7023 0
-12303 7183 0
-12463 7343 0
-12623 7503 0
-12783 7663 0
-11823 -10543 0
-14383 11823 10543 0
14383 -11823 0
14383 -10543 0
-11983 -10703 0
-14543 11983 10703 0
14543 -11983 0
14543 -10703 0
-12143 -10863 0
-14703 12143 10863 0
14703 -12143 0
14703 -10863 0
-12303 -11023 0
-14863 12303 11023 0
14863 -12303 0
14863 -11023 0
-12463 -11183 0
-15023 12463 11183 0
15023 -12463 0
15023 -11183 0
-12623 -11343 0
-15183 12623 11343 0
15183 -12623 0
15183 -11343 0
-15343 12783 0
15343 -12783 0
-14223 10383 0
14223 -10383 0
14224 14384 14544 14704 14864 15024 15184 15344 0
-10384 2704 0
-10544 2864 0
-10704 3024 0
-10864 3184 0
-11024 3344 0
-11184 3504 0
-11344 3664 0
-11824 6704 0
-11984 6864 0
-12144 7024 0
-12304 7184 0
-12464 7344 0
-12624 7504 0
-12784 7664 0
-11824 -10544 0
-14384 11824 10544 0
14384 -11824 0
14384 -10544 0
-11984 -10704 0
-14544 11984 10704 0
14544 -11984 0
14544 -10704 0
-12144 -10864 0
-14704 12144 10864 0
14704 -12144 0
14704 -10864 0
-12304 -11024 0
-14864 12304 11024 0
14864 -12304 0
14864 -11024 0
-12464 -11184 0
-15024 12464 11184 0
15024 -12464 0
15024 -11184 0
-12624 -11344 0
-15184 12624 11344 0
15184 -12624 0
15184 -11344 0
-15344 12784 0
15344 -12784 0
-14224 10384 0
14224 -10384 0
14225 14385 14545 14705 14865 15025 15185 15345 0
-10385 2705 0
-10545 2865 0
-10705 3025 0
-10865 3185 0
-11025 3345 0
-11185 3505 0
-11345 3665 0
-11825 6705 0
-11985 6865 0
-12145 7025 0
-12305 7185 0
-12465 7345 0
-12625 7505 0
-12785 7665 0
-11825 -10545 0
-14385 11825 10545 0
14385 -11825 0
14385 -10545 0
-11985 -10705 0
-14545 11985 10705 0
14545 -11985 0
14545 -10705 0
-12145 -10865 0
-14705 12145 10865 0
14705 -12145 0
14705 -10865 0
-12305 -11025 0
-14865 12305 11025 0
14865 -12305 0
14865 -11025 0
-12465 -11185 0
-15025 12465 11185 0
15025 -12465 0
15025 -11185 0
-12625 -11345 0
-15185 12625 11345 0
15185 -12625 0
15185 -11345 0
-15345 12785 0
15345 -12785 0
-14225 10385 0
14225 -10385 0
14226 14386 14546 14706 14866 15026 15186 15346 0
-10386 2706 0
-10546 2866 0
-10706 3026 0
-10866 3186 0
-11026 3346 0
-11186 3506 0
-11346 3666 0
-11826 6706 0
-11986 6866 0
-12146 7026 0
-12306 7186 0
-12466 7346 0
-12626 7506 0
-12786 7666 0
-11826 -10546 0
-14386 11826 10546 0
14386 -11826 0
14386 -10546 0
-11986 -10706 0
-14546 11986 10706 0
14546 -11986 0
14546 -10706 0
-12146 -10866 0
-14706 12146 10866 0
14706 -12146 0
14706 -10866 0
-12306 -11026 0
-14866 12306 11026 0
14866 -12306 0
14866 -11026 0
-12466 -11186 0
-15026 12466 11186 0
15026 -12466 0
15026 -11186 0
-12626 -11346 0
-15186 12626 11346 0
15186 -12626 0
15186 -11346 0
-15346 12786 0
15346 -12786 0
-14226 10386 0
14226 -10386 0
14227 14387 14547 14707 14867 15027 15187 15347 0
-10387 2707 0
-10547 2867 0
-10707 3027 0
-10867 3187 0
-11027 3347 0
-11187 3507 0
-11347 3667 0
-11827 6707 0
-11987 6867 0
-12147 7027 0
-12307 7187 0
-12467 7347 0
-12627 7507 0
-12787 7667 0
-11827 -10547 0
-14387 11827 10547 0
14387 -11827 0
14387 -10547 0
-11987 -10707 0
-14547 11987 10707 0
14547 -11987 0
14547 -10707 0
-12147 -10867 0
-14707 12147 10867 0
14707 -12147 0
14707 -10867 0
-12307 -11027 0
-14867 12307 11027 0
14867 -12307 0
14867 -11027 0
-12467 -11187 0
-15027 12467 11187 0
15027 -12467 0
15027 -11187 0
-12627 -11347 0
-15187 12627 11347 0
15187 -12627 0
15187 -11347 0
-15347 12787 0
15347 -12787 0
-14227 10387 0
14227 -10387 0
14228 14388 14548 14708 14868 15028 15188 15348 0
-10388 2708 0
-10548 2868 0
-10708 3028 0
-10868 3188 0
-11028 3348 0
-11188 3508 0
-11348 3668 0
-11828 6708 0
-11988 6868 0
-12148 7028 0
-12308 7188 0
-12468 7348 0
-12628 7508 0
-12788 7668 0
-11828 -10548 0
-14388 11828 10548 0
14388 -11828 0
14388 -10548 0
-11988 -10708 0
-14548 11988 10708 0
14548 -11988 0
14548 -10708 0
-12148 -10868 0
-14708 12148 10868 0
14708 -12148 0
14708 -10868 0
-12308 -11028 0
-14868 12308 11028 0
14868 -12308 0
14868 -11028 0
-12468 -11188 0
-15028 12468 11188 0
15028 -12468 0
15028 -11188 0
-12628 -11348 0
-15188 12628 11348 0
15188 -12628 0
15188 -11348 0
-15348 12788 0
15348 -12788 0
-14228 10388 0
14228 -10388 0
14229 14389 14549 14709 14869 15029 15189 15349 0
-10389 2709 0
-10549 2869 0
-10709 3029 0
-10869 3189 0
-11029 3349 0
-11189 3509 0
-11349 3669 0
-11829 6709 0
-11989 6869 0
-12149 7029 0
-12309 7189 0
-12469 7349 0
-12629 7509 0
-12789 7669 0
-11829 -10549 0
-14389 11829 10549 0
14389 -11829 0
14389 -10549 0
-11989 -10709 0
-14549 11989 10709 0
14549 -11989 0
14549 -10709 0
-12149 -10869 0
-14709 12149 10869 0
14709 -12149 0
14709 -10869 0
-12309 -11029 0
-14869 12309 11029 0
14869 -12309 0
14869 -11029 0
-12469 -11189 0
-15029 12469 11189 0
15029 -12469 0
15029 -11189 0
-12629 -11349 0
-15189 12629 11349 0
15189 -12629 0
15189 -11349 0
-15349 12789 0
15349 -12789 0
-14229 10389 0
14229 -10389 0
14230 14390 14550 14710 14870 15030 15190 15350 0
-10390 2710 0
-10550 2870 0
-10710 3030 0
-10870 3190 0
-11030 3350 0
-11190 3510 0
-11350 3670 0
-11830 6710 0
-11990 6870 0
-12150 7030 0
-12310 7190 0
-12470 7350 0
-12630 7510 0
-12790 7670 0
-11830 -10550 0
-14390 11830 10550 0
14390 -11830 0
14390 -10550 0
-11990 -10710 0
-14550 11990 10710 0
14550 -11990 0
14550 -10710 0
-12150 -10870 0
-14710 12150 10870 0
14710 -12150 0
14710 -10870 0
-12310 -11030 0
-14870 12310 11030 0
14870 -12310 0
14870 -11030 0
-12470 -11190 0
-15030 12470 11190 0
15030 -12470 0
15030 -11190 0
-12630 -11350 0
-15190 12630 11350 0
15190 -12630 0
15190 -11350 0
-15350 12790 0
15350 -12790 0
-14230 10390 0
14230 -10390 0
14231 14391 14551 14711 14871 15031 15191 15351 0
-10391 2711 0
-10551 2871 0
-10711 3031 0
-10871 3191 0
-11031 3351 0
-11191 3511 0
-11351 3671 0
-11831 6711 0
-11991 6871 0
-12151 7031 0
-12311 7191 0
-12471 7351 0
-12631 7511 0
-12791 7671 0
-11831 -10551 0
-14391 11831 10551 0
14391 -11831 0
14391 -10551 0
-11991 -10711 0
-14551 11991 10711 0
14551 -11991 0
14551 -10711 0
-12151 -10871 0
-14711 12151 10871 0
14711 -12151 0
14711 -10871 0
-12311 -11031 0
-14871 12311 11031 0
14871 -12311 0
14871 -11031 0
-12471 -11191 0
-15031 12471 11191 0
15031 -12471 0
15031 -11191 0
-12631 -11351 0
-15191 12631 11351 0
15191 -12631 0
15191 -11351 0
-15351 12791 0
15351 -12791 0
-14231 10391 0
14231 -10391 0
14232 14392 14552 14712 14872 15032 15192 15352 0
-10392 2712 0
-10552 2872 0
-10712 3032 0
-10872 3192 0
-11032 3352 0
-11192 3512 0
-11352 3672 0
-11832 6712 0
-11992 6872 0
-12152 7032 0
-12312 7192 0
-12472 7352 0
-12632 7512 0
-12792 7672 0
-11832 -10552 0
-14392 11832 10552 0
14392 -11832 0
14392 -10552 0
-11992 -10712 0
-14552 11992 10712 0
14552 -11992 0
14552 -10712 0
-12152 -10872 0
-14712 12152 10872 0
14712 -12152 0
14712 -10872 0
-12312 -11032 0
-14872 12312 11032 0
14872 -12312 0
14872 -11032 0
-12472 -11192 0
-15032 12472 11192 0
15032 -12472 0
15032 -11192 0
-12632 -11352 0
-15192 12632 11352 0
15192 -12632 0
15192 -11352 0
-15352 12792 0
15352 -12792 0
-14232 10392 0
14232 -10392 0
14233 14393 14553 14713 14873 15033 15193 15353 0
-10393 2713 0
-10553 2873 0
-10713 3033 0
-10873 3193 0
-11033 3353 0
-11193 3513 0
-11353 3673 0
-11833 6713 0
-11993 6873 0
-12153 7033 0
-12313 7193 0
-12473 7353 0
-12633 7513 0
-12793 7673 0
-11833 -10553 0
-14393 11833 10553 0
14393 -11833 0
14393 -10553 0
-11993 -10713 0
-14553 11993 10713 0
14553 -11993 0
14553 -10713 0
-12153 -10873 0
-14713 12153 10873 0
14713 -12153 0
14713 -10873 0
-12313 -11033 0
-14873 12313 11033 0
14873 -12313 0
14873 -11033 0
-12473 -11193 0
-15033 12473 11193 0
15033 -12473 0
15033 -11193 0
-12633 -11353 0
-15193 12633 11353 0
15193 -12633 0
15193 -11353 0
-15353 12793 0
15353 -12793 0
-14233 10393 0
14233 -10393 0
14234 14394 14554 14714 14874 15034 15194 15354 0
-10394 2714 0
-10554 2874 0
-10714 3034 0
-10874 3194 0
-11034 3354 0
-11194 3514 0
-11354 3674 0
-11834 6714 0
-11994 6874 0
-12154 7034 0
-12314 7194 0
-12474 7354 0
-12634 7514 0
-12794 7674 0
-11834 -10554 0
-14394 11834 10554 0
14394 -11834 0
14394 -10554 0
-11994 -10714 0
-14554 11994 10714 0
14554 -11994 0
14554 -10714 0
-12154 -10874 0
-14714 12154 10874 0
14714 -12154 0
14714 -10874 0
-12314 -11034 0
-14874 12314 11034 0
14874 -12314 0
14874 -11034 0
-12474 -11194 0
-15034 12474 11194 0
15034 -12474 0
15034 -11194 0
-12634 -11354 0
-15194 12634 11354 0
15194 -12634 0
15194 -11354 0
-15354 12794 0
15354 -12794 0
-14234 10394 0
14234 -10394 0
14235 14395 14555 14715 14875 15035 15195 15355 0
-10395 2715 0
-10555 2875 0
-10715 3035 0
-10875 3195 0
-11035 3355 0
-11195 3515 0
-11355 3675 0
-11835 6715 0
-11995 6875 0
-12155 7035 0
-12315 7195 0
-12475 7355 0
-12635 7515 0
-12795 7675 0
-11835 -10555 0
-14395 11835 10555 0
14395 -11835 0
14395 -10555 0
-11995 -10715 0
-14555 11995 10715 0
14555 -11995 0
14555 -10715 0
-12155 -10875 0
-14715 12155 10875 0
14715 -12155 0
14715 -10875 0
-12315 -11035 0
-14875 12315 11035 0
14875 -12315 0
14875 -11035 0
-12475 -11195 0
-15035 12475 11195 0
15035 -12475 0
15035 -11195 0
-12635 -11355 0
-15195 12635 11355 0
15195 -12635 0
15195 -11355 0
-15355 12795 0
15355 -12795 0
-14235 10395 0
14235 -10395 0
14236 14396 14556 14716 14876 15036 15196 15356 0
-10396 2716 0
-10556 2876 0
-10716 3036 0
-10876 3196 0
-11036 3356 0
-11196 3516 0
-11356 3676 0
-11836 6716 0
-11996 6876 0
-12156 7036 0
-12316 7196 0
-12476 7356 0
-12636 7516 0
-12796 7676 0
-11836 -10556 0
-14396 11836 10556 0
14396 -11836 0
14396 -10556 0
-11996 -10716 0
-14556 11996 10716 0
14556 -11996 0
14556 -10716 0
-12156 -10876 0
-14716 12156 10876 0
14716 -12156 0
14716 -10876 0
-12316 -11036 0
-14876 12316 11036 0
14876 -12316 0
14876 -11036 0
-12476 -11196 0
-15036 12476 11196 0
15036 -12476 0
15036 -11196 0
-12636 -11356 0
-15196 12636 11356 0
15196 -12636 0
15196 -11356 0
-15356 12796 0
15356 -12796 0
-14236 10396 0
14236 -10396 0
14237 14397 14557 14717 14877 15037 15197 15357 0
-10397 2717 0
-10557 2877 0
-10717 3037 0
-10877 3197 0
-11037 3357 0
-11197 3517 0
-11357 3677 0
-11837 6717 0
-11997 6877 0
-12157 7037 0
-12317 7197 0
-12477 7357 0
-12637 7517 0
-12797 7677 0
-11837 -10557 0
-14397 11837 10557 0
14397 -11837 0
14397 -10557 0
-11997 -10717 0
-14557 11997 10717 0
14557 -11997 0
14557 -10717 0
-12157 -10877 0
-14717 12157 10877 0
14717 -12157 0
14717 -10877 0
-12317 -11037 0
-14877 12317 11037 0
14877 -12317 0
14877 -11037 0
-12477 -11197 0
-15037 12477 11197 0
15037 -12477 0
15037 -11197 0
-12637 -11357 0
-15197 12637 11357 0
15197 -12637 0
15197 -11357 0
-15357 12797 0
15357 -12797 0
-14237 10397 0
14237 -10397 0
14238 14398 14558 14718 14878 15038 15198 15358 0
-10398 2718 0
-10558 2878 0
-10718 3038 0
-10878 3198 0
-11038 3358 0
-11198 3518 0
-11358 3678 0
-11838 6718 0
-11998 6878 0
-12158 7038 0
-12318 7198 0
-12478 7358 0
-12638 7518 0
-12798 7678 0
-11838 -10558 0
-14398 11838 10558 0
14398 -11838 0
14398 -10558 0
-11998 -10718 0
-14558 11998 10718 0
14558 -11998 0
14558 -10718 0
-12158 -10878 0
-14718 12158 10878 0
14718 -12158 0
14718 -10878 0
-12318 -11038 0
-14878 12318 11038 0
14878 -12318 0
14878 -11038 0
-12478 -11198 0
-15038 12478 11198 0
15038 -12478 0
15038 -11198 0
-12638 -11358 0
-15198 12638 11358 0
15198 -12638 0
15198 -11358 0
-15358 12798 0
15358 -12798 0
-14238 10398 0
14238 -10398 0
14239 14399 14559 14719 14879 15039 15199 15359 0
-10399 2719 0
-10559 2879 0
-10719 3039 0
-10879 3199 0
-11039 3359 0
-11199 3519 0
-11359 3679 0
-11839 6719 0
-11999 6879 0
-12159 7039 0
-12319 7199 0
-12479 7359 0
-12639 7519 0
-12799 7679 0
-11839 -10559 0
-14399 11839 10559 0
14399 -11839 0
14399 -10559 0
-11999 -10719 0
-14559 11999 10719 0
14559 -11999 0
14559 -10719 0
-12159 -10879 0
-14719 12159 10879 0
14719 -12159 0
14719 -10879 0
-12319 -11039 0
-14879 12319 11039 0
14879 -12319 0
14879 -11039 0
-12479 -11199 0
-15039 12479 11199 0
15039 -12479 0
15039 -11199 0
-12639 -11359 0
-15199 12639 11359 0
15199 -12639 0
15199 -11359 0
-15359 12799 0
15359 -12799 0
-14239 10399 0
14239 -10399 0
12960 15360 0
13120 15360 0
12960 13120 15361 0
13280 15362 0
13440 15362 0
13280 13440 15363 0
-15360 15364 0
-15362 15364 0
-15360 -15362 15365 0
-15361 15366 0
-15363 15366 0
-15361 -15363 15367 0
-15365 15368 0
-15366 15368 0
-15365 -15366 15369 0
13600 15370 0
13760 15370 0
13600 13760 15371 0
13920 15372 0
14080 15372 0
13920 14080 15373 0
-15370 15374 0
-15372 15374 0
-15370 -15372 15375 0
-15371 15376 0
-15373 15376 0
-15371 -15373 15377 0
-15375 15378 0
-15376 15378 0
-15375 -15376 15379 0
-15364 15380 0
-15374 15380 0
-15364 -15374 15381 0
-15369 15382 0
-15379 15382 0
-15369 -15379 15383 0
-15381 15384 0
-15382 15384 0
-15381 -15382 15385 0
-15368 15386 0
-15378 15386 0
-15368 -15378 15387 0
-15367 15388 0
-15377 15388 0
-15367 -15377 15389 0
-15387 15390 0
-15388 15390 0
-15387 -15388 15391 0
-15384 15392 0
-15386 15392 0
-15384 -15386 15393 0
-15385 15394 0
-15390 15394 0
-15385 -15390 15395 0
-15383 15396 0
-15391 15396 0
-15383 -15391 15397 0
-15397 0
