p cnf 10981 29456
5501 -1 2 0
5501 1 -2 0
5501 -501 502 0
5501 501 -502 0
5601 -101 102 0
5601 101 -102 0
5601 -601 602 0
5601 601 -602 0
5701 -201 202 0
5701 201 -202 0
5701 -701 702 0
5701 701 -702 0
5801 -301 302 0
5801 301 -302 0
5801 -801 802 0
5801 801 -802 0
5901 -401 402 0
5901 401 -402 0
5901 -901 902 0
5901 901 -902 0
-1 -4001 -2 0
1 -4001 2 0
-4101 -602 0
-101 -4101 102 0
101 -4101 -102 0
-4601 602 0
-4201 -702 0
-201 -4201 202 0
201 -4201 -202 0
-4701 702 0
-4301 -802 0
-301 -4301 302 0
301 -4301 -302 0
-4801 802 0
-101 -4601 -102 0
101 -4601 102 0
-201 -4701 -202 0
201 -4701 202 0
-301 -4801 -302 0
301 -4801 302 0
-401 -4901 -402 0
401 -4901 402 0
5502 -2 3 0
5502 2 -3 0
5502 -502 503 0
5502 502 -503 0
5602 -102 103 0
5602 102 -103 0
5602 -602 603 0
5602 602 -603 0
5702 -202 203 0
5702 202 -203 0
5702 -702 703 0
5702 702 -703 0
5802 -302 303 0
5802 302 -303 0
5802 -802 803 0
5802 802 -803 0
5902 -402 403 0
5902 402 -403 0
5902 -902 903 0
5902 902 -903 0
-2 -4002 -3 0
2 -4002 3 0
-4102 -603 0
-102 -4102 103 0
102 -4102 -103 0
-4602 603 0
-4202 -703 0
-202 -4202 203 0
202 -4202 -203 0
-4702 703 0
-4302 -803 0
-302 -4302 303 0
302 -4302 -303 0
-4802 803 0
-102 -4602 -103 0
102 -4602 103 0
-202 -4702 -203 0
202 -4702 203 0
-302 -4802 -303 0
302 -4802 303 0
-402 -4902 -403 0
402 -4902 403 0
5503 -3 4 0
5503 3 -4 0
5503 -503 504 0
5503 503 -504 0
5603 -103 104 0
5603 103 -104 0
5603 -603 604 0
5603 603 -604 0
5703 -203 204 0
5703 203 -204 0
5703 -703 704 0
5703 703 -704 0
5803 -303 304 0
5803 303 -304 0
5803 -803 804 0
5803 803 -804 0
5903 -403 404 0
5903 403 -404 0
5903 -903 904 0
5903 903 -904 0
-3 -4003 -4 0
3 -4003 4 0
-4103 -604 0
-103 -4103 104 0
103 -4103 -104 0
-4603 604 0
-4203 -704 0
-203 -4203 204 0
203 -4203 -204 0
-4703 704 0
-4303 -804 0
-303 -4303 304 0
303 -4303 -304 0
-4803 804 0
-103 -4603 -104 0
103 -4603 104 0
-203 -4703 -204 0
203 -4703 204 0
-303 -4803 -304 0
303 -4803 304 0
-403 -4903 -404 0
403 -4903 404 0
5504 -4 5 0
5504 4 -5 0
5504 -504 505 0
5504 504 -505 0
5604 -104 105 0
5604 104 -105 0
5604 -604 605 0
5604 604 -605 0
5704 -204 205 0
5704 204 -205 0
5704 -704 705 0
5704 704 -705 0
5804 -304 305 0
5804 304 -305 0
5804 -804 805 0
5804 804 -805 0
5904 -404 405 0
5904 404 -405 0
5904 -904 905 0
5904 904 -905 0
-4 -4004 -5 0
4 -4004 5 0
-4104 -605 0
-104 -4104 105 0
104 -4104 -105 0
-4604 605 0
-4204 -705 0
-204 -4204 205 0
204 -4204 -205 0
-4704 705 0
-4304 -805 0
-304 -4304 305 0
304 -4304 -305 0
-4804 805 0
-104 -4604 -105 0
104 -4604 105 0
-204 -4704 -205 0
204 -4704 205 0
-304 -4804 -305 0
304 -4804 305 0
-404 -4904 -405 0
404 -4904 405 0
5505 -5 6 0
5505 5 -6 0
5505 -505 506 0
5505 505 -506 0
5605 -105 106 0
5605 105 -106 0
5605 -605 606 0
5605 605 -606 0
5705 -205 206 0
5705 205 -206 0
5705 -705 706 0
5705 705 -706 0
5805 -305 306 0
5805 305 -306 0
5805 -805 806 0
5805 805 -806 0
5905 -405 406 0
5905 405 -406 0
5905 -905 906 0
5905 905 -906 0
-5 -4005 -6 0
5 -4005 6 0
-4105 -606 0
-105 -4105 106 0
105 -4105 -106 0
-4605 606 0
-4205 -706 0
-205 -4205 206 0
205 -4205 -206 0
-4705 706 0
-4305 -806 0
-305 -4305 306 0
305 -4305 -306 0
-4805 806 0
-105 -4605 -106 0
105 -4605 106 0
-205 -4705 -206 0
205 -4705 206 0
-305 -4805 -306 0
305 -4805 306 0
-405 -4905 -406 0
405 -4905 406 0
5506 -6 7 0
5506 6 -7 0
5506 -506 507 0
5506 506 -507 0
5606 -106 107 0
5606 106 -107 0
5606 -606 607 0
5606 606 -607 0
5706 -206 207 0
5706 206 -207 0
5706 -706 707 0
5706 706 -707 0
5806 -306 307 0
5806 306 -307 0
5806 -806 807 0
5806 806 -807 0
5906 -406 407 0
5906 406 -407 0
5906 -906 907 0
5906 906 -907 0
-6 -4006 -7 0
6 -4006 7 0
-4106 -607 0
-106 -4106 107 0
106 -4106 -107 0
-4606 607 0
-4206 -707 0
-206 -4206 207 0
206 -4206 -207 0
-4706 707 0
-4306 -807 0
-306 -4306 307 0
306 -4306 -307 0
-4806 807 0
-106 -4606 -107 0
106 -4606 107 0
-206 -4706 -207 0
206 -4706 207 0
-306 -4806 -307 0
306 -4806 307 0
-406 -4906 -407 0
406 -4906 407 0
5507 -7 8 0
5507 7 -8 0
5507 -507 508 0
5507 507 -508 0
5607 -107 108 0
5607 107 -108 0
5607 -607 608 0
5607 607 -608 0
5707 -207 208 0
5707 207 -208 0
5707 -707 708 0
5707 707 -708 0
5807 -307 308 0
5807 307 -308 0
5807 -807 808 0
5807 807 -808 0
5907 -407 408 0
5907 407 -408 0
5907 -907 908 0
5907 907 -908 0
-7 -4007 -8 0
7 -4007 8 0
-4107 -608 0
-107 -4107 108 0
107 -4107 -108 0
-4607 608 0
-4207 -708 0
-207 -4207 208 0
207 -4207 -208 0
-4707 708 0
-4307 -808 0
-307 -4307 308 0
307 -4307 -308 0
-4807 808 0
-107 -4607 -108 0
107 -4607 108 0
-207 -4707 -208 0
207 -4707 208 0
-307 -4807 -308 0
307 -4807 308 0
-407 -4907 -408 0
407 -4907 408 0
5508 -8 9 0
5508 8 -9 0
5508 -508 509 0
5508 508 -509 0
5608 -108 109 0
5608 108 -109 0
5608 -608 609 0
5608 608 -609 0
5708 -208 209 0
5708 208 -209 0
5708 -708 709 0
5708 708 -709 0
5808 -308 309 0
5808 308 -309 0
5808 -808 809 0
5808 808 -809 0
5908 -408 409 0
5908 408 -409 0
5908 -908 909 0
5908 908 -909 0
-8 -4008 -9 0
8 -4008 9 0
-4108 -609 0
-108 -4108 109 0
108 -4108 -109 0
-4608 609 0
-4208 -709 0
-208 -4208 209 0
208 -4208 -209 0
-4708 709 0
-4308 -809 0
-308 -4308 309 0
308 -4308 -309 0
-4808 809 0
-108 -4608 -109 0
108 -4608 109 0
-208 -4708 -209 0
208 -4708 209 0
-308 -4808 -309 0
308 -4808 309 0
-408 -4908 -409 0
408 -4908 409 0
5509 -9 10 0
5509 9 -10 0
5509 -509 510 0
5509 509 -510 0
5609 -109 110 0
5609 109 -110 0
5609 -609 610 0
5609 609 -610 0
5709 -209 210 0
5709 209 -210 0
5709 -709 710 0
5709 709 -710 0
5809 -309 310 0
5809 309 -310 0
5809 -809 810 0
5809 809 -810 0
5909 -409 410 0
5909 409 -410 0
5909 -909 910 0
5909 909 -910 0
-9 -4009 -10 0
9 -4009 10 0
-4109 -610 0
-109 -4109 110 0
109 -4109 -110 0
-4609 610 0
-4209 -710 0
-209 -4209 210 0
209 -4209 -210 0
-4709 710 0
-4309 -810 0
-309 -4309 310 0
309 -4309 -310 0
-4809 810 0
-109 -4609 -110 0
109 -4609 110 0
-209 -4709 -210 0
209 -4709 210 0
-309 -4809 -310 0
309 -4809 310 0
-409 -4909 -410 0
409 -4909 410 0
5510 -10 11 0
5510 10 -11 0
5510 -510 511 0
5510 510 -511 0
5610 -110 111 0
5610 110 -111 0
5610 -610 611 0
5610 610 -611 0
5710 -210 211 0
5710 210 -211 0
5710 -710 711 0
5710 710 -711 0
5810 -310 311 0
5810 310 -311 0
5810 -810 811 0
5810 810 -811 0
5910 -410 411 0
5910 410 -411 0
5910 -910 911 0
5910 910 -911 0
-10 -4010 -11 0
10 -4010 11 0
-4110 -611 0
-110 -4110 111 0
110 -4110 -111 0
-4610 611 0
-4210 -711 0
-210 -4210 211 0
210 -4210 -211 0
-4710 711 0
-4310 -811 0
-310 -4310 311 0
310 -4310 -311 0
-4810 811 0
-110 -4610 -111 0
110 -4610 111 0
-210 -4710 -211 0
210 -4710 211 0
-310 -4810 -311 0
310 -4810 311 0
-410 -4910 -411 0
410 -4910 411 0
5511 -11 12 0
5511 11 -12 0
5511 -511 512 0
5511 511 -512 0
5611 -111 112 0
5611 111 -112 0
5611 -611 612 0
5611 611 -612 0
5711 -211 212 0
5711 211 -212 0
5711 -711 712 0
5711 711 -712 0
5811 -311 312 0
5811 311 -312 0
5811 -811 812 0
5811 811 -812 0
5911 -411 412 0
5911 411 -412 0
5911 -911 912 0
5911 911 -912 0
-11 -4011 -12 0
11 -4011 12 0
-4111 -612 0
-111 -4111 112 0
111 -4111 -112 0
-4611 612 0
-4211 -712 0
-211 -4211 212 0
211 -4211 -212 0
-4711 712 0
-4311 -812 0
-311 -4311 312 0
311 -4311 -312 0
-4811 812 0
-111 -4611 -112 0
111 -4611 112 0
-211 -4711 -212 0
211 -4711 212 0
-311 -4811 -312 0
311 -4811 312 0
-411 -4911 -412 0
411 -4911 412 0
5512 -12 13 0
5512 12 -13 0
5512 -512 513 0
5512 512 -513 0
5612 -112 113 0
5612 112 -113 0
5612 -612 613 0
5612 612 -613 0
5712 -212 213 0
5712 212 -213 0
5712 -712 713 0
5712 712 -713 0
5812 -312 313 0
5812 312 -313 0
5812 -812 813 0
5812 812 -813 0
5912 -412 413 0
5912 412 -413 0
5912 -912 913 0
5912 912 -913 0
-12 -4012 -13 0
12 -4012 13 0
-4112 -613 0
-112 -4112 113 0
112 -4112 -113 0
-4612 613 0
-4212 -713 0
-212 -4212 213 0
212 -4212 -213 0
-4712 713 0
-4312 -813 0
-312 -4312 313 0
312 -4312 -313 0
-4812 813 0
-112 -4612 -113 0
112 -4612 113 0
-212 -4712 -213 0
212 -4712 213 0
-312 -4812 -313 0
312 -4812 313 0
-412 -4912 -413 0
412 -4912 413 0
5513 -13 14 0
5513 13 -14 0
5513 -513 514 0
5513 513 -514 0
5613 -113 114 0
5613 113 -114 0
5613 -613 614 0
5613 613 -614 0
5713 -213 214 0
5713 213 -214 0
5713 -713 714 0
5713 713 -714 0
5813 -313 314 0
5813 313 -314 0
5813 -813 814 0
5813 813 -814 0
5913 -413 414 0
5913 413 -414 0
5913 -913 914 0
5913 913 -914 0
-13 -4013 -14 0
13 -4013 14 0
-4113 -614 0
-113 -4113 114 0
113 -4113 -114 0
-4613 614 0
-4213 -714 0
-213 -4213 214 0
213 -4213 -214 0
-4713 714 0
-4313 -814 0
-313 -4313 314 0
313 -4313 -314 0
-4813 814 0
-113 -4613 -114 0
113 -4613 114 0
-213 -4713 -214 0
213 -4713 214 0
-313 -4813 -314 0
313 -4813 314 0
-413 -4913 -414 0
413 -4913 414 0
5514 -14 15 0
5514 14 -15 0
5514 -514 515 0
5514 514 -515 0
5614 -114 115 0
5614 114 -115 0
5614 -614 615 0
5614 614 -615 0
5714 -214 215 0
5714 214 -215 0
5714 -714 715 0
5714 714 -715 0
5814 -314 315 0
5814 314 -315 0
5814 -814 815 0
5814 814 -815 0
5914 -414 415 0
5914 414 -415 0
5914 -914 915 0
5914 914 -915 0
-14 -4014 -15 0
14 -4014 15 0
-4114 -615 0
-114 -4114 115 0
114 -4114 -115 0
-4614 615 0
-4214 -715 0
-214 -4214 215 0
214 -4214 -215 0
-4714 715 0
-4314 -815 0
-314 -4314 315 0
314 -4314 -315 0
-4814 815 0
-114 -4614 -115 0
114 -4614 115 0
-214 -4714 -215 0
214 -4714 215 0
-314 -4814 -315 0
314 -4814 315 0
-414 -4914 -415 0
414 -4914 415 0
5515 -15 16 0
5515 15 -16 0
5515 -515 516 0
5515 515 -516 0
5615 -115 116 0
5615 115 -116 0
5615 -615 616 0
5615 615 -616 0
5715 -215 216 0
5715 215 -216 0
5715 -715 716 0
5715 715 -716 0
5815 -315 316 0
5815 315 -316 0
5815 -815 816 0
5815 815 -816 0
5915 -415 416 0
5915 415 -416 0
5915 -915 916 0
5915 915 -916 0
-15 -4015 -16 0
15 -4015 16 0
-4115 -616 0
-115 -4115 116 0
115 -4115 -116 0
-4615 616 0
-4215 -716 0
-215 -4215 216 0
215 -4215 -216 0
-4715 716 0
-4315 -816 0
-315 -4315 316 0
315 -4315 -316 0
-4815 816 0
-115 -4615 -116 0
115 -4615 116 0
-215 -4715 -216 0
215 -4715 216 0
-315 -4815 -316 0
315 -4815 316 0
-415 -4915 -416 0
415 -4915 416 0
5516 -16 17 0
5516 16 -17 0
5516 -516 517 0
5516 516 -517 0
5616 -116 117 0
5616 116 -117 0
5616 -616 617 0
5616 616 -617 0
5716 -216 217 0
5716 216 -217 0
5716 -716 717 0
5716 716 -717 0
5816 -316 317 0
5816 316 -317 0
5816 -816 817 0
5816 816 -817 0
5916 -416 417 0
5916 416 -417 0
5916 -916 917 0
5916 916 -917 0
-16 -4016 -17 0
16 -4016 17 0
-4116 -617 0
-116 -4116 117 0
116 -4116 -117 0
-4616 617 0
-4216 -717 0
-216 -4216 217 0
216 -4216 -217 0
-4716 717 0
-4316 -817 0
-316 -4316 317 0
316 -4316 -317 0
-4816 817 0
-116 -4616 -117 0
116 -4616 117 0
-216 -4716 -217 0
216 -4716 217 0
-316 -4816 -317 0
316 -4816 317 0
-416 -4916 -417 0
416 -4916 417 0
5517 -17 18 0
5517 17 -18 0
5517 -517 518 0
5517 517 -518 0
5617 -117 118 0
5617 117 -118 0
5617 -617 618 0
5617 617 -618 0
5717 -217 218 0
5717 217 -218 0
5717 -717 718 0
5717 717 -718 0
5817 -317 318 0
5817 317 -318 0
5817 -817 818 0
5817 817 -818 0
5917 -417 418 0
5917 417 -418 0
5917 -917 918 0
5917 917 -918 0
-17 -4017 -18 0
17 -4017 18 0
-4117 -618 0
-117 -4117 118 0
117 -4117 -118 0
-4617 618 0
-4217 -718 0
-217 -4217 218 0
217 -4217 -218 0
-4717 718 0
-4317 -818 0
-317 -4317 318 0
317 -4317 -318 0
-4817 818 0
-117 -4617 -118 0
117 -4617 118 0
-217 -4717 -218 0
217 -4717 218 0
-317 -4817 -318 0
317 -4817 318 0
-417 -4917 -418 0
417 -4917 418 0
5518 -18 19 0
5518 18 -19 0
5518 -518 519 0
5518 518 -519 0
5618 -118 119 0
5618 118 -119 0
5618 -618 619 0
5618 618 -619 0
5718 -218 219 0
5718 218 -219 0
5718 -718 719 0
5718 718 -719 0
5818 -318 319 0
5818 318 -319 0
5818 -818 819 0
5818 818 -819 0
5918 -418 419 0
5918 418 -419 0
5918 -918 919 0
5918 918 -919 0
-18 -4018 -19 0
18 -4018 19 0
-4118 -619 0
-118 -4118 119 0
118 -4118 -119 0
-4618 619 0
-4218 -719 0
-218 -4218 219 0
218 -4218 -219 0
-4718 719 0
-4318 -819 0
-318 -4318 319 0
318 -4318 -319 0
-4818 819 0
-118 -4618 -119 0
118 -4618 119 0
-218 -4718 -219 0
218 -4718 219 0
-318 -4818 -319 0
318 -4818 319 0
-418 -4918 -419 0
418 -4918 419 0
5519 -19 20 0
5519 19 -20 0
5519 -519 520 0
5519 519 -520 0
5619 -119 120 0
5619 119 -120 0
5619 -619 620 0
5619 619 -620 0
5719 -219 220 0
5719 219 -220 0
5719 -719 720 0
5719 719 -720 0
5819 -319 320 0
5819 319 -320 0
5819 -819 820 0
5819 819 -820 0
5919 -419 420 0
5919 419 -420 0
5919 -919 920 0
5919 919 -920 0
-19 -4019 -20 0
19 -4019 20 0
-4119 -620 0
-119 -4119 120 0
119 -4119 -120 0
-4619 620 0
-4219 -720 0
-219 -4219 220 0
219 -4219 -220 0
-4719 720 0
-4319 -820 0
-319 -4319 320 0
319 -4319 -320 0
-4819 820 0
-119 -4619 -120 0
119 -4619 120 0
-219 -4719 -220 0
219 -4719 220 0
-319 -4819 -320 0
319 -4819 320 0
-419 -4919 -420 0
419 -4919 420 0
5520 -20 21 0
5520 20 -21 0
5520 -520 521 0
5520 520 -521 0
5620 -120 121 0
5620 120 -121 0
5620 -620 621 0
5620 620 -621 0
5720 -220 221 0
5720 220 -221 0
5720 -720 721 0
5720 720 -721 0
5820 -320 321 0
5820 320 -321 0
5820 -820 821 0
5820 820 -821 0
5920 -420 421 0
5920 420 -421 0
5920 -920 921 0
5920 920 -921 0
-20 -4020 -21 0
20 -4020 21 0
-4120 -621 0
-120 -4120 121 0
120 -4120 -121 0
-4620 621 0
-4220 -721 0
-220 -4220 221 0
220 -4220 -221 0
-4720 721 0
-4320 -821 0
-320 -4320 321 0
320 -4320 -321 0
-4820 821 0
-120 -4620 -121 0
120 -4620 121 0
-220 -4720 -221 0
220 -4720 221 0
-320 -4820 -321 0
320 -4820 321 0
-420 -4920 -421 0
420 -4920 421 0
5521 -21 22 0
5521 21 -22 0
5521 -521 522 0
5521 521 -522 0
5621 -121 122 0
5621 121 -122 0
5621 -621 622 0
5621 621 -622 0
5721 -221 222 0
5721 221 -222 0
5721 -721 722 0
5721 721 -722 0
5821 -321 322 0
5821 321 -322 0
5821 -821 822 0
5821 821 -822 0
5921 -421 422 0
5921 421 -422 0
5921 -921 922 0
5921 921 -922 0
-21 -4021 -22 0
21 -4021 22 0
-4121 -622 0
-121 -4121 122 0
121 -4121 -122 0
-4621 622 0
-4221 -722 0
-221 -4221 222 0
221 -4221 -222 0
-4721 722 0
-4321 -822 0
-321 -4321 322 0
321 -4321 -322 0
-4821 822 0
-121 -4621 -122 0
121 -4621 122 0
-221 -4721 -222 0
221 -4721 222 0
-321 -4821 -322 0
321 -4821 322 0
-421 -4921 -422 0
421 -4921 422 0
5522 -22 23 0
5522 22 -23 0
5522 -522 523 0
5522 522 -523 0
5622 -122 123 0
5622 122 -123 0
5622 -622 623 0
5622 622 -623 0
5722 -222 223 0
5722 222 -223 0
5722 -722 723 0
5722 722 -723 0
5822 -322 323 0
5822 322 -323 0
5822 -822 823 0
5822 822 -823 0
5922 -422 423 0
5922 422 -423 0
5922 -922 923 0
5922 922 -923 0
-22 -4022 -23 0
22 -4022 23 0
-4122 -623 0
-122 -4122 123 0
122 -4122 -123 0
-4622 623 0
-4222 -723 0
-222 -4222 223 0
222 -4222 -223 0
-4722 723 0
-4322 -823 0
-322 -4322 323 0
322 -4322 -323 0
-4822 823 0
-122 -4622 -123 0
122 -4622 123 0
-222 -4722 -223 0
222 -4722 223 0
-322 -4822 -323 0
322 -4822 323 0
-422 -4922 -423 0
422 -4922 423 0
5523 -23 24 0
5523 23 -24 0
5523 -523 524 0
5523 523 -524 0
5623 -123 124 0
5623 123 -124 0
5623 -623 624 0
5623 623 -624 0
5723 -223 224 0
5723 223 -224 0
5723 -723 724 0
5723 723 -724 0
5823 -323 324 0
5823 323 -324 0
5823 -823 824 0
5823 823 -824 0
5923 -423 424 0
5923 423 -424 0
5923 -923 924 0
5923 923 -924 0
-23 -4023 -24 0
23 -4023 24 0
-4123 -624 0
-123 -4123 124 0
123 -4123 -124 0
-4623 624 0
-4223 -724 0
-223 -4223 224 0
223 -4223 -224 0
-4723 724 0
-4323 -824 0
-323 -4323 324 0
323 -4323 -324 0
-4823 824 0
-123 -4623 -124 0
123 -4623 124 0
-223 -4723 -224 0
223 -4723 224 0
-323 -4823 -324 0
323 -4823 324 0
-423 -4923 -424 0
423 -4923 424 0
5524 -24 25 0
5524 24 -25 0
5524 -524 525 0
5524 524 -525 0
5624 -124 125 0
5624 124 -125 0
5624 -624 625 0
5624 624 -625 0
5724 -224 225 0
5724 224 -225 0
5724 -724 725 0
5724 724 -725 0
5824 -324 325 0
5824 324 -325 0
5824 -824 825 0
5824 824 -825 0
5924 -424 425 0
5924 424 -425 0
5924 -924 925 0
5924 924 -925 0
-24 -4024 -25 0
24 -4024 25 0
-4124 -625 0
-124 -4124 125 0
124 -4124 -125 0
-4624 625 0
-4224 -725 0
-224 -4224 225 0
224 -4224 -225 0
-4724 725 0
-4324 -825 0
-324 -4324 325 0
324 -4324 -325 0
-4824 825 0
-124 -4624 -125 0
124 -4624 125 0
-224 -4724 -225 0
224 -4724 225 0
-324 -4824 -325 0
324 -4824 325 0
-424 -4924 -425 0
424 -4924 425 0
5525 -25 26 0
5525 25 -26 0
5525 -525 526 0
5525 525 -526 0
5625 -125 126 0
5625 125 -126 0
5625 -625 626 0
5625 625 -626 0
5725 -225 226 0
5725 225 -226 0
5725 -725 726 0
5725 725 -726 0
5825 -325 326 0
5825 325 -326 0
5825 -825 826 0
5825 825 -826 0
5925 -425 426 0
5925 425 -426 0
5925 -925 926 0
5925 925 -926 0
-25 -4025 -26 0
25 -4025 26 0
-4125 -626 0
-125 -4125 126 0
125 -4125 -126 0
-4625 626 0
-4225 -726 0
-225 -4225 226 0
225 -4225 -226 0
-4725 726 0
-4325 -826 0
-325 -4325 326 0
325 -4325 -326 0
-4825 826 0
-125 -4625 -126 0
125 -4625 126 0
-225 -4725 -226 0
225 -4725 226 0
-325 -4825 -326 0
325 -4825 326 0
-425 -4925 -426 0
425 -4925 426 0
5526 -26 27 0
5526 26 -27 0
5526 -526 527 0
5526 526 -527 0
5626 -126 127 0
5626 126 -127 0
5626 -626 627 0
5626 626 -627 0
5726 -226 227 0
5726 226 -227 0
5726 -726 727 0
5726 726 -727 0
5826 -326 327 0
5826 326 -327 0
5826 -826 827 0
5826 826 -827 0
5926 -426 427 0
5926 426 -427 0
5926 -926 927 0
5926 926 -927 0
-26 -4026 -27 0
26 -4026 27 0
-4126 -627 0
-126 -4126 127 0
126 -4126 -127 0
-4626 627 0
-4226 -727 0
-226 -4226 227 0
226 -4226 -227 0
-4726 727 0
-4326 -827 0
-326 -4326 327 0
326 -4326 -327 0
-4826 827 0
-126 -4626 -127 0
126 -4626 127 0
-226 -4726 -227 0
226 -4726 227 0
-326 -4826 -327 0
326 -4826 327 0
-426 -4926 -427 0
426 -4926 427 0
5527 -27 28 0
5527 27 -28 0
5527 -527 528 0
5527 527 -528 0
5627 -127 128 0
5627 127 -128 0
5627 -627 628 0
5627 627 -628 0
5727 -227 228 0
5727 227 -228 0
5727 -727 728 0
5727 727 -728 0
5827 -327 328 0
5827 327 -328 0
5827 -827 828 0
5827 827 -828 0
5927 -427 428 0
5927 427 -428 0
5927 -927 928 0
5927 927 -928 0
-27 -4027 -28 0
27 -4027 28 0
-4127 -628 0
-127 -4127 128 0
127 -4127 -128 0
-4627 628 0
-4227 -728 0
-227 -4227 228 0
227 -4227 -228 0
-4727 728 0
-4327 -828 0
-327 -4327 328 0
327 -4327 -328 0
-4827 828 0
-127 -4627 -128 0
127 -4627 128 0
-227 -4727 -228 0
227 -4727 228 0
-327 -4827 -328 0
327 -4827 328 0
-427 -4927 -428 0
427 -4927 428 0
5528 -28 29 0
5528 28 -29 0
5528 -528 529 0
5528 528 -529 0
5628 -128 129 0
5628 128 -129 0
5628 -628 629 0
5628 628 -629 0
5728 -228 229 0
5728 228 -229 0
5728 -728 729 0
5728 728 -729 0
5828 -328 329 0
5828 328 -329 0
5828 -828 829 0
5828 828 -829 0
5928 -428 429 0
5928 428 -429 0
5928 -928 929 0
5928 928 -929 0
-28 -4028 -29 0
28 -4028 29 0
-4128 -629 0
-128 -4128 129 0
128 -4128 -129 0
-4628 629 0
-4228 -729 0
-228 -4228 229 0
228 -4228 -229 0
-4728 729 0
-4328 -829 0
-328 -4328 329 0
328 -4328 -329 0
-4828 829 0
-128 -4628 -129 0
128 -4628 129 0
-228 -4728 -229 0
228 -4728 229 0
-328 -4828 -329 0
328 -4828 329 0
-428 -4928 -429 0
428 -4928 429 0
5529 -29 30 0
5529 29 -30 0
5529 -529 530 0
5529 529 -530 0
5629 -129 130 0
5629 129 -130 0
5629 -629 630 0
5629 629 -630 0
5729 -229 230 0
5729 229 -230 0
5729 -729 730 0
5729 729 -730 0
5829 -329 330 0
5829 329 -330 0
5829 -829 830 0
5829 829 -830 0
5929 -429 430 0
5929 429 -430 0
5929 -929 930 0
5929 929 -930 0
-29 -4029 -30 0
29 -4029 30 0
-4129 -630 0
-129 -4129 130 0
129 -4129 -130 0
-4629 630 0
-4229 -730 0
-229 -4229 230 0
229 -4229 -230 0
-4729 730 0
-4329 -830 0
-329 -4329 330 0
329 -4329 -330 0
-4829 830 0
-129 -4629 -130 0
129 -4629 130 0
-229 -4729 -230 0
229 -4729 230 0
-329 -4829 -330 0
329 -4829 330 0
-429 -4929 -430 0
429 -4929 430 0
5530 -30 31 0
5530 30 -31 0
5530 -530 531 0
5530 530 -531 0
5630 -130 131 0
5630 130 -131 0
5630 -630 631 0
5630 630 -631 0
5730 -230 231 0
5730 230 -231 0
5730 -730 731 0
5730 730 -731 0
5830 -330 331 0
5830 330 -331 0
5830 -830 831 0
5830 830 -831 0
5930 -430 431 0
5930 430 -431 0
5930 -930 931 0
5930 930 -931 0
-30 -4030 -31 0
30 -4030 31 0
-4130 -631 0
-130 -4130 131 0
130 -4130 -131 0
-4630 631 0
-4230 -731 0
-230 -4230 231 0
230 -4230 -231 0
-4730 731 0
-4330 -831 0
-330 -4330 331 0
330 -4330 -331 0
-4830 831 0
-130 -4630 -131 0
130 -4630 131 0
-230 -4730 -231 0
230 -4730 231 0
-330 -4830 -331 0
330 -4830 331 0
-430 -4930 -431 0
430 -4930 431 0
5531 -31 32 0
5531 31 -32 0
5531 -531 532 0
5531 531 -532 0
5631 -131 132 0
5631 131 -132 0
5631 -631 632 0
5631 631 -632 0
5731 -231 232 0
5731 231 -232 0
5731 -731 732 0
5731 731 -732 0
5831 -331 332 0
5831 331 -332 0
5831 -831 832 0
5831 831 -832 0
5931 -431 432 0
5931 431 -432 0
5931 -931 932 0
5931 931 -932 0
-31 -4031 -32 0
31 -4031 32 0
-4131 -632 0
-131 -4131 132 0
131 -4131 -132 0
-4631 632 0
-4231 -732 0
-231 -4231 232 0
231 -4231 -232 0
-4731 732 0
-4331 -832 0
-331 -4331 332 0
331 -4331 -332 0
-4831 832 0
-131 -4631 -132 0
131 -4631 132 0
-231 -4731 -232 0
231 -4731 232 0
-331 -4831 -332 0
331 -4831 332 0
-431 -4931 -432 0
431 -4931 432 0
5532 -32 33 0
5532 32 -33 0
5532 -532 533 0
5532 532 -533 0
5632 -132 133 0
5632 132 -133 0
5632 -632 633 0
5632 632 -633 0
5732 -232 233 0
5732 232 -233 0
5732 -732 733 0
5732 732 -733 0
5832 -332 333 0
5832 332 -333 0
5832 -832 833 0
5832 832 -833 0
5932 -432 433 0
5932 432 -433 0
5932 -932 933 0
5932 932 -933 0
-32 -4032 -33 0
32 -4032 33 0
-4132 -633 0
-132 -4132 133 0
132 -4132 -133 0
-4632 633 0
-4232 -733 0
-232 -4232 233 0
232 -4232 -233 0
-4732 733 0
-4332 -833 0
-332 -4332 333 0
332 -4332 -333 0
-4832 833 0
-132 -4632 -133 0
132 -4632 133 0
-232 -4732 -233 0
232 -4732 233 0
-332 -4832 -333 0
332 -4832 333 0
-432 -4932 -433 0
432 -4932 433 0
5533 -33 34 0
5533 33 -34 0
5533 -533 534 0
5533 533 -534 0
5633 -133 134 0
5633 133 -134 0
5633 -633 634 0
5633 633 -634 0
5733 -233 234 0
5733 233 -234 0
5733 -733 734 0
5733 733 -734 0
5833 -333 334 0
5833 333 -334 0
5833 -833 834 0
5833 833 -834 0
5933 -433 434 0
5933 433 -434 0
5933 -933 934 0
5933 933 -934 0
-33 -4033 -34 0
33 -4033 34 0
-4133 -634 0
-133 -4133 134 0
133 -4133 -134 0
-4633 634 0
-4233 -734 0
-233 -4233 234 0
233 -4233 -234 0
-4733 734 0
-4333 -834 0
-333 -4333 334 0
333 -4333 -334 0
-4833 834 0
-133 -4633 -134 0
133 -4633 134 0
-233 -4733 -234 0
233 -4733 234 0
-333 -4833 -334 0
333 -4833 334 0
-433 -4933 -434 0
433 -4933 434 0
5534 -34 35 0
5534 34 -35 0
5534 -534 535 0
5534 534 -535 0
5634 -134 135 0
5634 134 -135 0
5634 -634 635 0
5634 634 -635 0
5734 -234 235 0
5734 234 -235 0
5734 -734 735 0
5734 734 -735 0
5834 -334 335 0
5834 334 -335 0
5834 -834 835 0
5834 834 -835 0
5934 -434 435 0
5934 434 -435 0
5934 -934 935 0
5934 934 -935 0
-34 -4034 -35 0
34 -4034 35 0
-4134 -635 0
-134 -4134 135 0
134 -4134 -135 0
-4634 635 0
-4234 -735 0
-234 -4234 235 0
234 -4234 -235 0
-4734 735 0
-4334 -835 0
-334 -4334 335 0
334 -4334 -335 0
-4834 835 0
-134 -4634 -135 0
134 -4634 135 0
-234 -4734 -235 0
234 -4734 235 0
-334 -4834 -335 0
334 -4834 335 0
-434 -4934 -435 0
434 -4934 435 0
5535 -35 36 0
5535 35 -36 0
5535 -535 536 0
5535 535 -536 0
5635 -135 136 0
5635 135 -136 0
5635 -635 636 0
5635 635 -636 0
5735 -235 236 0
5735 235 -236 0
5735 -735 736 0
5735 735 -736 0
5835 -335 336 0
5835 335 -336 0
5835 -835 836 0
5835 835 -836 0
5935 -435 436 0
5935 435 -436 0
5935 -935 936 0
5935 935 -936 0
-35 -4035 -36 0
35 -4035 36 0
-4135 -636 0
-135 -4135 136 0
135 -4135 -136 0
-4635 636 0
-4235 -736 0
-235 -4235 236 0
235 -4235 -236 0
-4735 736 0
-4335 -836 0
-335 -4335 336 0
335 -4335 -336 0
-4835 836 0
-135 -4635 -136 0
135 -4635 136 0
-235 -4735 -236 0
235 -4735 236 0
-335 -4835 -336 0
335 -4835 336 0
-435 -4935 -436 0
435 -4935 436 0
5536 -36 37 0
5536 36 -37 0
5536 -536 537 0
5536 536 -537 0
5636 -136 137 0
5636 136 -137 0
5636 -636 637 0
5636 636 -637 0
5736 -236 237 0
5736 236 -237 0
5736 -736 737 0
5736 736 -737 0
5836 -336 337 0
5836 336 -337 0
5836 -836 837 0
5836 836 -837 0
5936 -436 437 0
5936 436 -437 0
5936 -936 937 0
5936 936 -937 0
-36 -4036 -37 0
36 -4036 37 0
-4136 -637 0
-136 -4136 137 0
136 -4136 -137 0
-4636 637 0
-4236 -737 0
-236 -4236 237 0
236 -4236 -237 0
-4736 737 0
-4336 -837 0
-336 -4336 337 0
336 -4336 -337 0
-4836 837 0
-136 -4636 -137 0
136 -4636 137 0
-236 -4736 -237 0
236 -4736 237 0
-336 -4836 -337 0
336 -4836 337 0
-436 -4936 -437 0
436 -4936 437 0
5537 -37 38 0
5537 37 -38 0
5537 -537 538 0
5537 537 -538 0
5637 -137 138 0
5637 137 -138 0
5637 -637 638 0
5637 637 -638 0
5737 -237 238 0
5737 237 -238 0
5737 -737 738 0
5737 737 -738 0
5837 -337 338 0
5837 337 -338 0
5837 -837 838 0
5837 837 -838 0
5937 -437 438 0
5937 437 -438 0
5937 -937 938 0
5937 937 -938 0
-37 -4037 -38 0
37 -4037 38 0
-4137 -638 0
-137 -4137 138 0
137 -4137 -138 0
-4637 638 0
-4237 -738 0
-237 -4237 238 0
237 -4237 -238 0
-4737 738 0
-4337 -838 0
-337 -4337 338 0
337 -4337 -338 0
-4837 838 0
-137 -4637 -138 0
137 -4637 138 0
-237 -4737 -238 0
237 -4737 238 0
-337 -4837 -338 0
337 -4837 338 0
-437 -4937 -438 0
437 -4937 438 0
5538 -38 39 0
5538 38 -39 0
5538 -538 539 0
5538 538 -539 0
5638 -138 139 0
5638 138 -139 0
5638 -638 639 0
5638 638 -639 0
5738 -238 239 0
5738 238 -239 0
5738 -738 739 0
5738 738 -739 0
5838 -338 339 0
5838 338 -339 0
5838 -838 839 0
5838 838 -839 0
5938 -438 439 0
5938 438 -439 0
5938 -938 939 0
5938 938 -939 0
-38 -4038 -39 0
38 -4038 39 0
-4138 -639 0
-138 -4138 139 0
138 -4138 -139 0
-4638 639 0
-4238 -739 0
-238 -4238 239 0
238 -4238 -239 0
-4738 739 0
-4338 -839 0
-338 -4338 339 0
338 -4338 -339 0
-4838 839 0
-138 -4638 -139 0
138 -4638 139 0
-238 -4738 -239 0
238 -4738 239 0
-338 -4838 -339 0
338 -4838 339 0
-438 -4938 -439 0
438 -4938 439 0
5539 -39 40 0
5539 39 -40 0
5539 -539 540 0
5539 539 -540 0
5639 -139 140 0
5639 139 -140 0
5639 -639 640 0
5639 639 -640 0
5739 -239 240 0
5739 239 -240 0
5739 -739 740 0
5739 739 -740 0
5839 -339 340 0
5839 339 -340 0
5839 -839 840 0
5839 839 -840 0
5939 -439 440 0
5939 439 -440 0
5939 -939 940 0
5939 939 -940 0
-39 -4039 -40 0
39 -4039 40 0
-4139 -640 0
-139 -4139 140 0
139 -4139 -140 0
-4639 640 0
-4239 -740 0
-239 -4239 240 0
239 -4239 -240 0
-4739 740 0
-4339 -840 0
-339 -4339 340 0
339 -4339 -340 0
-4839 840 0
-139 -4639 -140 0
139 -4639 140 0
-239 -4739 -240 0
239 -4739 240 0
-339 -4839 -340 0
339 -4839 340 0
-439 -4939 -440 0
439 -4939 440 0
5540 -40 41 0
5540 40 -41 0
5540 -540 541 0
5540 540 -541 0
5640 -140 141 0
5640 140 -141 0
5640 -640 641 0
5640 640 -641 0
5740 -240 241 0
5740 240 -241 0
5740 -740 741 0
5740 740 -741 0
5840 -340 341 0
5840 340 -341 0
5840 -840 841 0
5840 840 -841 0
5940 -440 441 0
5940 440 -441 0
5940 -940 941 0
5940 940 -941 0
-40 -4040 -41 0
40 -4040 41 0
-4140 -641 0
-140 -4140 141 0
140 -4140 -141 0
-4640 641 0
-4240 -741 0
-240 -4240 241 0
240 -4240 -241 0
-4740 741 0
-4340 -841 0
-340 -4340 341 0
340 -4340 -341 0
-4840 841 0
-140 -4640 -141 0
140 -4640 141 0
-240 -4740 -241 0
240 -4740 241 0
-340 -4840 -341 0
340 -4840 341 0
-440 -4940 -441 0
440 -4940 441 0
5541 -41 42 0
5541 41 -42 0
5541 -541 542 0
5541 541 -542 0
5641 -141 142 0
5641 141 -142 0
5641 -641 642 0
5641 641 -642 0
5741 -241 242 0
5741 241 -242 0
5741 -741 742 0
5741 741 -742 0
5841 -341 342 0
5841 341 -342 0
5841 -841 842 0
5841 841 -842 0
5941 -441 442 0
5941 441 -442 0
5941 -941 942 0
5941 941 -942 0
-41 -4041 -42 0
41 -4041 42 0
-4141 -642 0
-141 -4141 142 0
141 -4141 -142 0
-4641 642 0
-4241 -742 0
-241 -4241 242 0
241 -4241 -242 0
-4741 742 0
-4341 -842 0
-341 -4341 342 0
341 -4341 -342 0
-4841 842 0
-141 -4641 -142 0
141 -4641 142 0
-241 -4741 -242 0
241 -4741 242 0
-341 -4841 -342 0
341 -4841 342 0
-441 -4941 -442 0
441 -4941 442 0
5542 -42 43 0
5542 42 -43 0
5542 -542 543 0
5542 542 -543 0
5642 -142 143 0
5642 142 -143 0
5642 -642 643 0
5642 642 -643 0
5742 -242 243 0
5742 242 -243 0
5742 -742 743 0
5742 742 -743 0
5842 -342 343 0
5842 342 -343 0
5842 -842 843 0
5842 842 -843 0
5942 -442 443 0
5942 442 -443 0
5942 -942 943 0
5942 942 -943 0
-42 -4042 -43 0
42 -4042 43 0
-4142 -643 0
-142 -4142 143 0
142 -4142 -143 0
-4642 643 0
-4242 -743 0
-242 -4242 243 0
242 -4242 -243 0
-4742 743 0
-4342 -843 0
-342 -4342 343 0
342 -4342 -343 0
-4842 843 0
-142 -4642 -143 0
142 -4642 143 0
-242 -4742 -243 0
242 -4742 243 0
-342 -4842 -343 0
342 -4842 343 0
-442 -4942 -443 0
442 -4942 443 0
5543 -43 44 0
5543 43 -44 0
5543 -543 544 0
5543 543 -544 0
5643 -143 144 0
5643 143 -144 0
5643 -643 644 0
5643 643 -644 0
5743 -243 244 0
5743 243 -244 0
5743 -743 744 0
5743 743 -744 0
5843 -343 344 0
5843 343 -344 0
5843 -843 844 0
5843 843 -844 0
5943 -443 444 0
5943 443 -444 0
5943 -943 944 0
5943 943 -944 0
-43 -4043 -44 0
43 -4043 44 0
-4143 -644 0
-143 -4143 144 0
143 -4143 -144 0
-4643 644 0
-4243 -744 0
-243 -4243 244 0
243 -4243 -244 0
-4743 744 0
-4343 -844 0
-343 -4343 344 0
343 -4343 -344 0
-4843 844 0
-143 -4643 -144 0
143 -4643 144 0
-243 -4743 -244 0
243 -4743 244 0
-343 -4843 -344 0
343 -4843 344 0
-443 -4943 -444 0
443 -4943 444 0
5544 -44 45 0
5544 44 -45 0
5544 -544 545 0
5544 544 -545 0
5644 -144 145 0
5644 144 -145 0
5644 -644 645 0
5644 644 -645 0
5744 -244 245 0
5744 244 -245 0
5744 -744 745 0
5744 744 -745 0
5844 -344 345 0
5844 344 -345 0
5844 -844 845 0
5844 844 -845 0
5944 -444 445 0
5944 444 -445 0
5944 -944 945 0
5944 944 -945 0
-44 -4044 -45 0
44 -4044 45 0
-4144 -645 0
-144 -4144 145 0
144 -4144 -145 0
-4644 645 0
-4244 -745 0
-244 -4244 245 0
244 -4244 -245 0
-4744 745 0
-4344 -845 0
-344 -4344 345 0
344 -4344 -345 0
-4844 845 0
-144 -4644 -145 0
144 -4644 145 0
-244 -4744 -245 0
244 -4744 245 0
-344 -4844 -345 0
344 -4844 345 0
-444 -4944 -445 0
444 -4944 445 0
5545 -45 46 0
5545 45 -46 0
5545 -545 546 0
5545 545 -546 0
5645 -145 146 0
5645 145 -146 0
5645 -645 646 0
5645 645 -646 0
5745 -245 246 0
5745 245 -246 0
5745 -745 746 0
5745 745 -746 0
5845 -345 346 0
5845 345 -346 0
5845 -845 846 0
5845 845 -846 0
5945 -445 446 0
5945 445 -446 0
5945 -945 946 0
5945 945 -946 0
-45 -4045 -46 0
45 -4045 46 0
-4145 -646 0
-145 -4145 146 0
145 -4145 -146 0
-4645 646 0
-4245 -746 0
-245 -4245 246 0
245 -4245 -246 0
-4745 746 0
-4345 -846 0
-345 -4345 346 0
345 -4345 -346 0
-4845 846 0
-145 -4645 -146 0
145 -4645 146 0
-245 -4745 -246 0
245 -4745 246 0
-345 -4845 -346 0
345 -4845 346 0
-445 -4945 -446 0
445 -4945 446 0
5546 -46 47 0
5546 46 -47 0
5546 -546 547 0
5546 546 -547 0
5646 -146 147 0
5646 146 -147 0
5646 -646 647 0
5646 646 -647 0
5746 -246 247 0
5746 246 -247 0
5746 -746 747 0
5746 746 -747 0
5846 -346 347 0
5846 346 -347 0
5846 -846 847 0
5846 846 -847 0
5946 -446 447 0
5946 446 -447 0
5946 -946 947 0
5946 946 -947 0
-46 -4046 -47 0
46 -4046 47 0
-4146 -647 0
-146 -4146 147 0
146 -4146 -147 0
-4646 647 0
-4246 -747 0
-246 -4246 247 0
246 -4246 -247 0
-4746 747 0
-4346 -847 0
-346 -4346 347 0
346 -4346 -347 0
-4846 847 0
-146 -4646 -147 0
146 -4646 147 0
-246 -4746 -247 0
246 -4746 247 0
-346 -4846 -347 0
346 -4846 347 0
-446 -4946 -447 0
446 -4946 447 0
5547 -47 48 0
5547 47 -48 0
5547 -547 548 0
5547 547 -548 0
5647 -147 148 0
5647 147 -148 0
5647 -647 648 0
5647 647 -648 0
5747 -247 248 0
5747 247 -248 0
5747 -747 748 0
5747 747 -748 0
5847 -347 348 0
5847 347 -348 0
5847 -847 848 0
5847 847 -848 0
5947 -447 448 0
5947 447 -448 0
5947 -947 948 0
5947 947 -948 0
-47 -4047 -48 0
47 -4047 48 0
-4147 -648 0
-147 -4147 148 0
147 -4147 -148 0
-4647 648 0
-4247 -748 0
-247 -4247 248 0
247 -4247 -248 0
-4747 748 0
-4347 -848 0
-347 -4347 348 0
347 -4347 -348 0
-4847 848 0
-147 -4647 -148 0
147 -4647 148 0
-247 -4747 -248 0
247 -4747 248 0
-347 -4847 -348 0
347 -4847 348 0
-447 -4947 -448 0
447 -4947 448 0
5548 -48 49 0
5548 48 -49 0
5548 -548 549 0
5548 548 -549 0
5648 -148 149 0
5648 148 -149 0
5648 -648 649 0
5648 648 -649 0
5748 -248 249 0
5748 248 -249 0
5748 -748 749 0
5748 748 -749 0
5848 -348 349 0
5848 348 -349 0
5848 -848 849 0
5848 848 -849 0
5948 -448 449 0
5948 448 -449 0
5948 -948 949 0
5948 948 -949 0
-48 -4048 -49 0
48 -4048 49 0
-4148 -649 0
-148 -4148 149 0
148 -4148 -149 0
-4648 649 0
-4248 -749 0
-248 -4248 249 0
248 -4248 -249 0
-4748 749 0
-4348 -849 0
-348 -4348 349 0
348 -4348 -349 0
-4848 849 0
-148 -4648 -149 0
148 -4648 149 0
-248 -4748 -249 0
248 -4748 249 0
-348 -4848 -349 0
348 -4848 349 0
-448 -4948 -449 0
448 -4948 449 0
5549 -49 50 0
5549 49 -50 0
5549 -549 550 0
5549 549 -550 0
5649 -149 150 0
5649 149 -150 0
5649 -649 650 0
5649 649 -650 0
5749 -249 250 0
5749 249 -250 0
5749 -749 750 0
5749 749 -750 0
5849 -349 350 0
5849 349 -350 0
5849 -849 850 0
5849 849 -850 0
5949 -449 450 0
5949 449 -450 0
5949 -949 950 0
5949 949 -950 0
-49 -4049 -50 0
49 -4049 50 0
-4149 -650 0
-149 -4149 150 0
149 -4149 -150 0
-4649 650 0
-4249 -750 0
-249 -4249 250 0
249 -4249 -250 0
-4749 750 0
-4349 -850 0
-349 -4349 350 0
349 -4349 -350 0
-4849 850 0
-149 -4649 -150 0
149 -4649 150 0
-249 -4749 -250 0
249 -4749 250 0
-349 -4849 -350 0
349 -4849 350 0
-449 -4949 -450 0
449 -4949 450 0
5550 -50 51 0
5550 50 -51 0
5550 -550 551 0
5550 550 -551 0
5650 -150 151 0
5650 150 -151 0
5650 -650 651 0
5650 650 -651 0
5750 -250 251 0
5750 250 -251 0
5750 -750 751 0
5750 750 -751 0
5850 -350 351 0
5850 350 -351 0
5850 -850 851 0
5850 850 -851 0
5950 -450 451 0
5950 450 -451 0
5950 -950 951 0
5950 950 -951 0
-50 -4050 -51 0
50 -4050 51 0
-4150 -651 0
-150 -4150 151 0
150 -4150 -151 0
-4650 651 0
-4250 -751 0
-250 -4250 251 0
250 -4250 -251 0
-4750 751 0
-4350 -851 0
-350 -4350 351 0
350 -4350 -351 0
-4850 851 0
-150 -4650 -151 0
150 -4650 151 0
-250 -4750 -251 0
250 -4750 251 0
-350 -4850 -351 0
350 -4850 351 0
-450 -4950 -451 0
450 -4950 451 0
5551 -51 52 0
5551 51 -52 0
5551 -551 552 0
5551 551 -552 0
5651 -151 152 0
5651 151 -152 0
5651 -651 652 0
5651 651 -652 0
5751 -251 252 0
5751 251 -252 0
5751 -751 752 0
5751 751 -752 0
5851 -351 352 0
5851 351 -352 0
5851 -851 852 0
5851 851 -852 0
5951 -451 452 0
5951 451 -452 0
5951 -951 952 0
5951 951 -952 0
-51 -4051 -52 0
51 -4051 52 0
-4151 -652 0
-151 -4151 152 0
151 -4151 -152 0
-4651 652 0
-4251 -752 0
-251 -4251 252 0
251 -4251 -252 0
-4751 752 0
-4351 -852 0
-351 -4351 352 0
351 -4351 -352 0
-4851 852 0
-151 -4651 -152 0
151 -4651 152 0
-251 -4751 -252 0
251 -4751 252 0
-351 -4851 -352 0
351 -4851 352 0
-451 -4951 -452 0
451 -4951 452 0
5552 -52 53 0
5552 52 -53 0
5552 -552 553 0
5552 552 -553 0
5652 -152 153 0
5652 152 -153 0
5652 -652 653 0
5652 652 -653 0
5752 -252 253 0
5752 252 -253 0
5752 -752 753 0
5752 752 -753 0
5852 -352 353 0
5852 352 -353 0
5852 -852 853 0
5852 852 -853 0
5952 -452 453 0
5952 452 -453 0
5952 -952 953 0
5952 952 -953 0
-52 -4052 -53 0
52 -4052 53 0
-4152 -653 0
-152 -4152 153 0
152 -4152 -153 0
-4652 653 0
-4252 -753 0
-252 -4252 253 0
252 -4252 -253 0
-4752 753 0
-4352 -853 0
-352 -4352 353 0
352 -4352 -353 0
-4852 853 0
-152 -4652 -153 0
152 -4652 153 0
-252 -4752 -253 0
252 -4752 253 0
-352 -4852 -353 0
352 -4852 353 0
-452 -4952 -453 0
452 -4952 453 0
5553 -53 54 0
5553 53 -54 0
5553 -553 554 0
5553 553 -554 0
5653 -153 154 0
5653 153 -154 0
5653 -653 654 0
5653 653 -654 0
5753 -253 254 0
5753 253 -254 0
5753 -753 754 0
5753 753 -754 0
5853 -353 354 0
5853 353 -354 0
5853 -853 854 0
5853 853 -854 0
5953 -453 454 0
5953 453 -454 0
5953 -953 954 0
5953 953 -954 0
-53 -4053 -54 0
53 -4053 54 0
-4153 -654 0
-153 -4153 154 0
153 -4153 -154 0
-4653 654 0
-4253 -754 0
-253 -4253 254 0
253 -4253 -254 0
-4753 754 0
-4353 -854 0
-353 -4353 354 0
353 -4353 -354 0
-4853 854 0
-153 -4653 -154 0
153 -4653 154 0
-253 -4753 -254 0
253 -4753 254 0
-353 -4853 -354 0
353 -4853 354 0
-453 -4953 -454 0
453 -4953 454 0
5554 -54 55 0
5554 54 -55 0
5554 -554 555 0
5554 554 -555 0
5654 -154 155 0
5654 154 -155 0
5654 -654 655 0
5654 654 -655 0
5754 -254 255 0
5754 254 -255 0
5754 -754 755 0
5754 754 -755 0
5854 -354 355 0
5854 354 -355 0
5854 -854 855 0
5854 854 -855 0
5954 -454 455 0
5954 454 -455 0
5954 -954 955 0
5954 954 -955 0
-54 -4054 -55 0
54 -4054 55 0
-4154 -655 0
-154 -4154 155 0
154 -4154 -155 0
-4654 655 0
-4254 -755 0
-254 -4254 255 0
254 -4254 -255 0
-4754 755 0
-4354 -855 0
-354 -4354 355 0
354 -4354 -355 0
-4854 855 0
-154 -4654 -155 0
154 -4654 155 0
-254 -4754 -255 0
254 -4754 255 0
-354 -4854 -355 0
354 -4854 355 0
-454 -4954 -455 0
454 -4954 455 0
5555 -55 56 0
5555 55 -56 0
5555 -555 556 0
5555 555 -556 0
5655 -155 156 0
5655 155 -156 0
5655 -655 656 0
5655 655 -656 0
5755 -255 256 0
5755 255 -256 0
5755 -755 756 0
5755 755 -756 0
5855 -355 356 0
5855 355 -356 0
5855 -855 856 0
5855 855 -856 0
5955 -455 456 0
5955 455 -456 0
5955 -955 956 0
5955 955 -956 0
-55 -4055 -56 0
55 -4055 56 0
-4155 -656 0
-155 -4155 156 0
155 -4155 -156 0
-4655 656 0
-4255 -756 0
-255 -4255 256 0
255 -4255 -256 0
-4755 756 0
-4355 -856 0
-355 -4355 356 0
355 -4355 -356 0
-4855 856 0
-155 -4655 -156 0
155 -4655 156 0
-255 -4755 -256 0
255 -4755 256 0
-355 -4855 -356 0
355 -4855 356 0
-455 -4955 -456 0
455 -4955 456 0
5556 -56 57 0
5556 56 -57 0
5556 -556 557 0
5556 556 -557 0
5656 -156 157 0
5656 156 -157 0
5656 -656 657 0
5656 656 -657 0
5756 -256 257 0
5756 256 -257 0
5756 -756 757 0
5756 756 -757 0
5856 -356 357 0
5856 356 -357 0
5856 -856 857 0
5856 856 -857 0
5956 -456 457 0
5956 456 -457 0
5956 -956 957 0
5956 956 -957 0
-56 -4056 -57 0
56 -4056 57 0
-4156 -657 0
-156 -4156 157 0
156 -4156 -157 0
-4656 657 0
-4256 -757 0
-256 -4256 257 0
256 -4256 -257 0
-4756 757 0
-4356 -857 0
-356 -4356 357 0
356 -4356 -357 0
-4856 857 0
-156 -4656 -157 0
156 -4656 157 0
-256 -4756 -257 0
256 -4756 257 0
-356 -4856 -357 0
356 -4856 357 0
-456 -4956 -457 0
456 -4956 457 0
5557 -57 58 0
5557 57 -58 0
5557 -557 558 0
5557 557 -558 0
5657 -157 158 0
5657 157 -158 0
5657 -657 658 0
5657 657 -658 0
5757 -257 258 0
5757 257 -258 0
5757 -757 758 0
5757 757 -758 0
5857 -357 358 0
5857 357 -358 0
5857 -857 858 0
5857 857 -858 0
5957 -457 458 0
5957 457 -458 0
5957 -957 958 0
5957 957 -958 0
-57 -4057 -58 0
57 -4057 58 0
-4157 -658 0
-157 -4157 158 0
157 -4157 -158 0
-4657 658 0
-4257 -758 0
-257 -4257 258 0
257 -4257 -258 0
-4757 758 0
-4357 -858 0
-357 -4357 358 0
357 -4357 -358 0
-4857 858 0
-157 -4657 -158 0
157 -4657 158 0
-257 -4757 -258 0
257 -4757 258 0
-357 -4857 -358 0
357 -4857 358 0
-457 -4957 -458 0
457 -4957 458 0
5558 -58 59 0
5558 58 -59 0
5558 -558 559 0
5558 558 -559 0
5658 -158 159 0
5658 158 -159 0
5658 -658 659 0
5658 658 -659 0
5758 -258 259 0
5758 258 -259 0
5758 -758 759 0
5758 758 -759 0
5858 -358 359 0
5858 358 -359 0
5858 -858 859 0
5858 858 -859 0
5958 -458 459 0
5958 458 -459 0
5958 -958 959 0
5958 958 -959 0
-58 -4058 -59 0
58 -4058 59 0
-4158 -659 0
-158 -4158 159 0
158 -4158 -159 0
-4658 659 0
-4258 -759 0
-258 -4258 259 0
258 -4258 -259 0
-4758 759 0
-4358 -859 0
-358 -4358 359 0
358 -4358 -359 0
-4858 859 0
-158 -4658 -159 0
158 -4658 159 0
-258 -4758 -259 0
258 -4758 259 0
-358 -4858 -359 0
358 -4858 359 0
-458 -4958 -459 0
458 -4958 459 0
5559 -59 60 0
5559 59 -60 0
5559 -559 560 0
5559 559 -560 0
5659 -159 160 0
5659 159 -160 0
5659 -659 660 0
5659 659 -660 0
5759 -259 260 0
5759 259 -260 0
5759 -759 760 0
5759 759 -760 0
5859 -359 360 0
5859 359 -360 0
5859 -859 860 0
5859 859 -860 0
5959 -459 460 0
5959 459 -460 0
5959 -959 960 0
5959 959 -960 0
-59 -4059 -60 0
59 -4059 60 0
-4159 -660 0
-159 -4159 160 0
159 -4159 -160 0
-4659 660 0
-4259 -760 0
-259 -4259 260 0
259 -4259 -260 0
-4759 760 0
-4359 -860 0
-359 -4359 360 0
359 -4359 -360 0
-4859 860 0
-159 -4659 -160 0
159 -4659 160 0
-259 -4759 -260 0
259 -4759 260 0
-359 -4859 -360 0
359 -4859 360 0
-459 -4959 -460 0
459 -4959 460 0
5560 -60 61 0
5560 60 -61 0
5560 -560 561 0
5560 560 -561 0
5660 -160 161 0
5660 160 -161 0
5660 -660 661 0
5660 660 -661 0
5760 -260 261 0
5760 260 -261 0
5760 -760 761 0
5760 760 -761 0
5860 -360 361 0
5860 360 -361 0
5860 -860 861 0
5860 860 -861 0
5960 -460 461 0
5960 460 -461 0
5960 -960 961 0
5960 960 -961 0
-60 -4060 -61 0
60 -4060 61 0
-4160 -661 0
-160 -4160 161 0
160 -4160 -161 0
-4660 661 0
-4260 -761 0
-260 -4260 261 0
260 -4260 -261 0
-4760 761 0
-4360 -861 0
-360 -4360 361 0
360 -4360 -361 0
-4860 861 0
-160 -4660 -161 0
160 -4660 161 0
-260 -4760 -261 0
260 -4760 261 0
-360 -4860 -361 0
360 -4860 361 0
-460 -4960 -461 0
460 -4960 461 0
5561 -61 62 0
5561 61 -62 0
5561 -561 562 0
5561 561 -562 0
5661 -161 162 0
5661 161 -162 0
5661 -661 662 0
5661 661 -662 0
5761 -261 262 0
5761 261 -262 0
5761 -761 762 0
5761 761 -762 0
5861 -361 362 0
5861 361 -362 0
5861 -861 862 0
5861 861 -862 0
5961 -461 462 0
5961 461 -462 0
5961 -961 962 0
5961 961 -962 0
-61 -4061 -62 0
61 -4061 62 0
-4161 -662 0
-161 -4161 162 0
161 -4161 -162 0
-4661 662 0
-4261 -762 0
-261 -4261 262 0
261 -4261 -262 0
-4761 762 0
-4361 -862 0
-361 -4361 362 0
361 -4361 -362 0
-4861 862 0
-161 -4661 -162 0
161 -4661 162 0
-261 -4761 -262 0
261 -4761 262 0
-361 -4861 -362 0
361 -4861 362 0
-461 -4961 -462 0
461 -4961 462 0
5562 -62 63 0
5562 62 -63 0
5562 -562 563 0
5562 562 -563 0
5662 -162 163 0
5662 162 -163 0
5662 -662 663 0
5662 662 -663 0
5762 -262 263 0
5762 262 -263 0
5762 -762 763 0
5762 762 -763 0
5862 -362 363 0
5862 362 -363 0
5862 -862 863 0
5862 862 -863 0
5962 -462 463 0
5962 462 -463 0
5962 -962 963 0
5962 962 -963 0
-62 -4062 -63 0
62 -4062 63 0
-4162 -663 0
-162 -4162 163 0
162 -4162 -163 0
-4662 663 0
-4262 -763 0
-262 -4262 263 0
262 -4262 -263 0
-4762 763 0
-4362 -863 0
-362 -4362 363 0
362 -4362 -363 0
-4862 863 0
-162 -4662 -163 0
162 -4662 163 0
-262 -4762 -263 0
262 -4762 263 0
-362 -4862 -363 0
362 -4862 363 0
-462 -4962 -463 0
462 -4962 463 0
5563 -63 64 0
5563 63 -64 0
5563 -563 564 0
5563 563 -564 0
5663 -163 164 0
5663 163 -164 0
5663 -663 664 0
5663 663 -664 0
5763 -263 264 0
5763 263 -264 0
5763 -763 764 0
5763 763 -764 0
5863 -363 364 0
5863 363 -364 0
5863 -863 864 0
5863 863 -864 0
5963 -463 464 0
5963 463 -464 0
5963 -963 964 0
5963 963 -964 0
-63 -4063 -64 0
63 -4063 64 0
-4163 -664 0
-163 -4163 164 0
163 -4163 -164 0
-4663 664 0
-4263 -764 0
-263 -4263 264 0
263 -4263 -264 0
-4763 764 0
-4363 -864 0
-363 -4363 364 0
363 -4363 -364 0
-4863 864 0
-163 -4663 -164 0
163 -4663 164 0
-263 -4763 -264 0
263 -4763 264 0
-363 -4863 -364 0
363 -4863 364 0
-463 -4963 -464 0
463 -4963 464 0
5564 -64 65 0
5564 64 -65 0
5564 -564 565 0
5564 564 -565 0
5664 -164 165 0
5664 164 -165 0
5664 -664 665 0
5664 664 -665 0
5764 -264 265 0
5764 264 -265 0
5764 -764 765 0
5764 764 -765 0
5864 -364 365 0
5864 364 -365 0
5864 -864 865 0
5864 864 -865 0
5964 -464 465 0
5964 464 -465 0
5964 -964 965 0
5964 964 -965 0
-64 -4064 -65 0
64 -4064 65 0
-4164 -665 0
-164 -4164 165 0
164 -4164 -165 0
-4664 665 0
-4264 -765 0
-264 -4264 265 0
264 -4264 -265 0
-4764 765 0
-4364 -865 0
-364 -4364 365 0
364 -4364 -365 0
-4864 865 0
-164 -4664 -165 0
164 -4664 165 0
-264 -4764 -265 0
264 -4764 265 0
-364 -4864 -365 0
364 -4864 365 0
-464 -4964 -465 0
464 -4964 465 0
5565 -65 66 0
5565 65 -66 0
5565 -565 566 0
5565 565 -566 0
5665 -165 166 0
5665 165 -166 0
5665 -665 666 0
5665 665 -666 0
5765 -265 266 0
5765 265 -266 0
5765 -765 766 0
5765 765 -766 0
5865 -365 366 0
5865 365 -366 0
5865 -865 866 0
5865 865 -866 0
5965 -465 466 0
5965 465 -466 0
5965 -965 966 0
5965 965 -966 0
-65 -4065 -66 0
65 -4065 66 0
-4165 -666 0
-165 -4165 166 0
165 -4165 -166 0
-4665 666 0
-4265 -766 0
-265 -4265 266 0
265 -4265 -266 0
-4765 766 0
-4365 -866 0
-365 -4365 366 0
365 -4365 -366 0
-4865 866 0
-165 -4665 -166 0
165 -4665 166 0
-265 -4765 -266 0
265 -4765 266 0
-365 -4865 -366 0
365 -4865 366 0
-465 -4965 -466 0
465 -4965 466 0
5566 -66 67 0
5566 66 -67 0
5566 -566 567 0
5566 566 -567 0
5666 -166 167 0
5666 166 -167 0
5666 -666 667 0
5666 666 -667 0
5766 -266 267 0
5766 266 -267 0
5766 -766 767 0
5766 766 -767 0
5866 -366 367 0
5866 366 -367 0
5866 -866 867 0
5866 866 -867 0
5966 -466 467 0
5966 466 -467 0
5966 -966 967 0
5966 966 -967 0
-66 -4066 -67 0
66 -4066 67 0
-4166 -667 0
-166 -4166 167 0
166 -4166 -167 0
-4666 667 0
-4266 -767 0
-266 -4266 267 0
266 -4266 -267 0
-4766 767 0
-4366 -867 0
-366 -4366 367 0
366 -4366 -367 0
-4866 867 0
-166 -4666 -167 0
166 -4666 167 0
-266 -4766 -267 0
266 -4766 267 0
-366 -4866 -367 0
366 -4866 367 0
-466 -4966 -467 0
466 -4966 467 0
5567 -67 68 0
5567 67 -68 0
5567 -567 568 0
5567 567 -568 0
5667 -167 168 0
5667 167 -168 0
5667 -667 668 0
5667 667 -668 0
5767 -267 268 0
5767 267 -268 0
5767 -767 768 0
5767 767 -768 0
5867 -367 368 0
5867 367 -368 0
5867 -867 868 0
5867 867 -868 0
5967 -467 468 0
5967 467 -468 0
5967 -967 968 0
5967 967 -968 0
-67 -4067 -68 0
67 -4067 68 0
-4167 -668 0
-167 -4167 168 0
167 -4167 -168 0
-4667 668 0
-4267 -768 0
-267 -4267 268 0
267 -4267 -268 0
-4767 768 0
-4367 -868 0
-367 -4367 368 0
367 -4367 -368 0
-4867 868 0
-167 -4667 -168 0
167 -4667 168 0
-267 -4767 -268 0
267 -4767 268 0
-367 -4867 -368 0
367 -4867 368 0
-467 -4967 -468 0
467 -4967 468 0
5568 -68 69 0
5568 68 -69 0
5568 -568 569 0
5568 568 -569 0
5668 -168 169 0
5668 168 -169 0
5668 -668 669 0
5668 668 -669 0
5768 -268 269 0
5768 268 -269 0
5768 -768 769 0
5768 768 -769 0
5868 -368 369 0
5868 368 -369 0
5868 -868 869 0
5868 868 -869 0
5968 -468 469 0
5968 468 -469 0
5968 -968 969 0
5968 968 -969 0
-68 -4068 -69 0
68 -4068 69 0
-4168 -669 0
-168 -4168 169 0
168 -4168 -169 0
-4668 669 0
-4268 -769 0
-268 -4268 269 0
268 -4268 -269 0
-4768 769 0
-4368 -869 0
-368 -4368 369 0
368 -4368 -369 0
-4868 869 0
-168 -4668 -169 0
168 -4668 169 0
-268 -4768 -269 0
268 -4768 269 0
-368 -4868 -369 0
368 -4868 369 0
-468 -4968 -469 0
468 -4968 469 0
5569 -69 70 0
5569 69 -70 0
5569 -569 570 0
5569 569 -570 0
5669 -169 170 0
5669 169 -170 0
5669 -669 670 0
5669 669 -670 0
5769 -269 270 0
5769 269 -270 0
5769 -769 770 0
5769 769 -770 0
5869 -369 370 0
5869 369 -370 0
5869 -869 870 0
5869 869 -870 0
5969 -469 470 0
5969 469 -470 0
5969 -969 970 0
5969 969 -970 0
-69 -4069 -70 0
69 -4069 70 0
-4169 -670 0
-169 -4169 170 0
169 -4169 -170 0
-4669 670 0
-4269 -770 0
-269 -4269 270 0
269 -4269 -270 0
-4769 770 0
-4369 -870 0
-369 -4369 370 0
369 -4369 -370 0
-4869 870 0
-169 -4669 -170 0
169 -4669 170 0
-269 -4769 -270 0
269 -4769 270 0
-369 -4869 -370 0
369 -4869 370 0
-469 -4969 -470 0
469 -4969 470 0
5570 -70 71 0
5570 70 -71 0
5570 -570 571 0
5570 570 -571 0
5670 -170 171 0
5670 170 -171 0
5670 -670 671 0
5670 670 -671 0
5770 -270 271 0
5770 270 -271 0
5770 -770 771 0
5770 770 -771 0
5870 -370 371 0
5870 370 -371 0
5870 -870 871 0
5870 870 -871 0
5970 -470 471 0
5970 470 -471 0
5970 -970 971 0
5970 970 -971 0
-70 -4070 -71 0
70 -4070 71 0
-4170 -671 0
-170 -4170 171 0
170 -4170 -171 0
-4670 671 0
-4270 -771 0
-270 -4270 271 0
270 -4270 -271 0
-4770 771 0
-4370 -871 0
-370 -4370 371 0
370 -4370 -371 0
-4870 871 0
-170 -4670 -171 0
170 -4670 171 0
-270 -4770 -271 0
270 -4770 271 0
-370 -4870 -371 0
370 -4870 371 0
-470 -4970 -471 0
470 -4970 471 0
5571 -71 72 0
5571 71 -72 0
5571 -571 572 0
5571 571 -572 0
5671 -171 172 0
5671 171 -172 0
5671 -671 672 0
5671 671 -672 0
5771 -271 272 0
5771 271 -272 0
5771 -771 772 0
5771 771 -772 0
5871 -371 372 0
5871 371 -372 0
5871 -871 872 0
5871 871 -872 0
5971 -471 472 0
5971 471 -472 0
5971 -971 972 0
5971 971 -972 0
-71 -4071 -72 0
71 -4071 72 0
-4171 -672 0
-171 -4171 172 0
171 -4171 -172 0
-4671 672 0
-4271 -772 0
-271 -4271 272 0
271 -4271 -272 0
-4771 772 0
-4371 -872 0
-371 -4371 372 0
371 -4371 -372 0
-4871 872 0
-171 -4671 -172 0
171 -4671 172 0
-271 -4771 -272 0
271 -4771 272 0
-371 -4871 -372 0
371 -4871 372 0
-471 -4971 -472 0
471 -4971 472 0
5572 -72 73 0
5572 72 -73 0
5572 -572 573 0
5572 572 -573 0
5672 -172 173 0
5672 172 -173 0
5672 -672 673 0
5672 672 -673 0
5772 -272 273 0
5772 272 -273 0
5772 -772 773 0
5772 772 -773 0
5872 -372 373 0
5872 372 -373 0
5872 -872 873 0
5872 872 -873 0
5972 -472 473 0
5972 472 -473 0
5972 -972 973 0
5972 972 -973 0
-72 -4072 -73 0
72 -4072 73 0
-4172 -673 0
-172 -4172 173 0
172 -4172 -173 0
-4672 673 0
-4272 -773 0
-272 -4272 273 0
272 -4272 -273 0
-4772 773 0
-4372 -873 0
-372 -4372 373 0
372 -4372 -373 0
-4872 873 0
-172 -4672 -173 0
172 -4672 173 0
-272 -4772 -273 0
272 -4772 273 0
-372 -4872 -373 0
372 -4872 373 0
-472 -4972 -473 0
472 -4972 473 0
5573 -73 74 0
5573 73 -74 0
5573 -573 574 0
5573 573 -574 0
5673 -173 174 0
5673 173 -174 0
5673 -673 674 0
5673 673 -674 0
5773 -273 274 0
5773 273 -274 0
5773 -773 774 0
5773 773 -774 0
5873 -373 374 0
5873 373 -374 0
5873 -873 874 0
5873 873 -874 0
5973 -473 474 0
5973 473 -474 0
5973 -973 974 0
5973 973 -974 0
-73 -4073 -74 0
73 -4073 74 0
-4173 -674 0
-173 -4173 174 0
173 -4173 -174 0
-4673 674 0
-4273 -774 0
-273 -4273 274 0
273 -4273 -274 0
-4773 774 0
-4373 -874 0
-373 -4373 374 0
373 -4373 -374 0
-4873 874 0
-173 -4673 -174 0
173 -4673 174 0
-273 -4773 -274 0
273 -4773 274 0
-373 -4873 -374 0
373 -4873 374 0
-473 -4973 -474 0
473 -4973 474 0
5574 -74 75 0
5574 74 -75 0
5574 -574 575 0
5574 574 -575 0
5674 -174 175 0
5674 174 -175 0
5674 -674 675 0
5674 674 -675 0
5774 -274 275 0
5774 274 -275 0
5774 -774 775 0
5774 774 -775 0
5874 -374 375 0
5874 374 -375 0
5874 -874 875 0
5874 874 -875 0
5974 -474 475 0
5974 474 -475 0
5974 -974 975 0
5974 974 -975 0
-74 -4074 -75 0
74 -4074 75 0
-4174 -675 0
-174 -4174 175 0
174 -4174 -175 0
-4674 675 0
-4274 -775 0
-274 -4274 275 0
274 -4274 -275 0
-4774 775 0
-4374 -875 0
-374 -4374 375 0
374 -4374 -375 0
-4874 875 0
-174 -4674 -175 0
174 -4674 175 0
-274 -4774 -275 0
274 -4774 275 0
-374 -4874 -375 0
374 -4874 375 0
-474 -4974 -475 0
474 -4974 475 0
5575 -75 76 0
5575 75 -76 0
5575 -575 576 0
5575 575 -576 0
5675 -175 176 0
5675 175 -176 0
5675 -675 676 0
5675 675 -676 0
5775 -275 276 0
5775 275 -276 0
5775 -775 776 0
5775 775 -776 0
5875 -375 376 0
5875 375 -376 0
5875 -875 876 0
5875 875 -876 0
5975 -475 476 0
5975 475 -476 0
5975 -975 976 0
5975 975 -976 0
-75 -4075 -76 0
75 -4075 76 0
-4175 -676 0
-175 -4175 176 0
175 -4175 -176 0
-4675 676 0
-4275 -776 0
-275 -4275 276 0
275 -4275 -276 0
-4775 776 0
-4375 -876 0
-375 -4375 376 0
375 -4375 -376 0
-4875 876 0
-175 -4675 -176 0
175 -4675 176 0
-275 -4775 -276 0
275 -4775 276 0
-375 -4875 -376 0
375 -4875 376 0
-475 -4975 -476 0
475 -4975 476 0
5576 -76 77 0
5576 76 -77 0
5576 -576 577 0
5576 576 -577 0
5676 -176 177 0
5676 176 -177 0
5676 -676 677 0
5676 676 -677 0
5776 -276 277 0
5776 276 -277 0
5776 -776 777 0
5776 776 -777 0
5876 -376 377 0
5876 376 -377 0
5876 -876 877 0
5876 876 -877 0
5976 -476 477 0
5976 476 -477 0
5976 -976 977 0
5976 976 -977 0
-76 -4076 -77 0
76 -4076 77 0
-4176 -677 0
-176 -4176 177 0
176 -4176 -177 0
-4676 677 0
-4276 -777 0
-276 -4276 277 0
276 -4276 -277 0
-4776 777 0
-4376 -877 0
-376 -4376 377 0
376 -4376 -377 0
-4876 877 0
-176 -4676 -177 0
176 -4676 177 0
-276 -4776 -277 0
276 -4776 277 0
-376 -4876 -377 0
376 -4876 377 0
-476 -4976 -477 0
476 -4976 477 0
5577 -77 78 0
5577 77 -78 0
5577 -577 578 0
5577 577 -578 0
5677 -177 178 0
5677 177 -178 0
5677 -677 678 0
5677 677 -678 0
5777 -277 278 0
5777 277 -278 0
5777 -777 778 0
5777 777 -778 0
5877 -377 378 0
5877 377 -378 0
5877 -877 878 0
5877 877 -878 0
5977 -477 478 0
5977 477 -478 0
5977 -977 978 0
5977 977 -978 0
-77 -4077 -78 0
77 -4077 78 0
-4177 -678 0
-177 -4177 178 0
177 -4177 -178 0
-4677 678 0
-4277 -778 0
-277 -4277 278 0
277 -4277 -278 0
-4777 778 0
-4377 -878 0
-377 -4377 378 0
377 -4377 -378 0
-4877 878 0
-177 -4677 -178 0
177 -4677 178 0
-277 -4777 -278 0
277 -4777 278 0
-377 -4877 -378 0
377 -4877 378 0
-477 -4977 -478 0
477 -4977 478 0
5578 -78 79 0
5578 78 -79 0
5578 -578 579 0
5578 578 -579 0
5678 -178 179 0
5678 178 -179 0
5678 -678 679 0
5678 678 -679 0
5778 -278 279 0
5778 278 -279 0
5778 -778 779 0
5778 778 -779 0
5878 -378 379 0
5878 378 -379 0
5878 -878 879 0
5878 878 -879 0
5978 -478 479 0
5978 478 -479 0
5978 -978 979 0
5978 978 -979 0
-78 -4078 -79 0
78 -4078 79 0
-4178 -679 0
-178 -4178 179 0
178 -4178 -179 0
-4678 679 0
-4278 -779 0
-278 -4278 279 0
278 -4278 -279 0
-4778 779 0
-4378 -879 0
-378 -4378 379 0
378 -4378 -379 0
-4878 879 0
-178 -4678 -179 0
178 -4678 179 0
-278 -4778 -279 0
278 -4778 279 0
-378 -4878 -379 0
378 -4878 379 0
-478 -4978 -479 0
478 -4978 479 0
5579 -79 80 0
5579 79 -80 0
5579 -579 580 0
5579 579 -580 0
5679 -179 180 0
5679 179 -180 0
5679 -679 680 0
5679 679 -680 0
5779 -279 280 0
5779 279 -280 0
5779 -779 780 0
5779 779 -780 0
5879 -379 380 0
5879 379 -380 0
5879 -879 880 0
5879 879 -880 0
5979 -479 480 0
5979 479 -480 0
5979 -979 980 0
5979 979 -980 0
-79 -4079 -80 0
79 -4079 80 0
-4179 -680 0
-179 -4179 180 0
179 -4179 -180 0
-4679 680 0
-4279 -780 0
-279 -4279 280 0
279 -4279 -280 0
-4779 780 0
-4379 -880 0
-379 -4379 380 0
379 -4379 -380 0
-4879 880 0
-179 -4679 -180 0
179 -4679 180 0
-279 -4779 -280 0
279 -4779 280 0
-379 -4879 -380 0
379 -4879 380 0
-479 -4979 -480 0
479 -4979 480 0
5580 -80 81 0
5580 80 -81 0
5580 -580 581 0
5580 580 -581 0
5680 -180 181 0
5680 180 -181 0
5680 -680 681 0
5680 680 -681 0
5780 -280 281 0
5780 280 -281 0
5780 -780 781 0
5780 780 -781 0
5880 -380 381 0
5880 380 -381 0
5880 -880 881 0
5880 880 -881 0
5980 -480 481 0
5980 480 -481 0
5980 -980 981 0
5980 980 -981 0
-80 -4080 -81 0
80 -4080 81 0
-4180 -681 0
-180 -4180 181 0
180 -4180 -181 0
-4680 681 0
-4280 -781 0
-280 -4280 281 0
280 -4280 -281 0
-4780 781 0
-4380 -881 0
-380 -4380 381 0
380 -4380 -381 0
-4880 881 0
-180 -4680 -181 0
180 -4680 181 0
-280 -4780 -281 0
280 -4780 281 0
-380 -4880 -381 0
380 -4880 381 0
-480 -4980 -481 0
480 -4980 481 0
5581 -81 82 0
5581 81 -82 0
5581 -581 582 0
5581 581 -582 0
5681 -181 182 0
5681 181 -182 0
5681 -681 682 0
5681 681 -682 0
5781 -281 282 0
5781 281 -282 0
5781 -781 782 0
5781 781 -782 0
5881 -381 382 0
5881 381 -382 0
5881 -881 882 0
5881 881 -882 0
5981 -481 482 0
5981 481 -482 0
5981 -981 982 0
5981 981 -982 0
-81 -4081 -82 0
81 -4081 82 0
-4181 -682 0
-181 -4181 182 0
181 -4181 -182 0
-4681 682 0
-4281 -782 0
-281 -4281 282 0
281 -4281 -282 0
-4781 782 0
-4381 -882 0
-381 -4381 382 0
381 -4381 -382 0
-4881 882 0
-181 -4681 -182 0
181 -4681 182 0
-281 -4781 -282 0
281 -4781 282 0
-381 -4881 -382 0
381 -4881 382 0
-481 -4981 -482 0
481 -4981 482 0
5582 -82 83 0
5582 82 -83 0
5582 -582 583 0
5582 582 -583 0
5682 -182 183 0
5682 182 -183 0
5682 -682 683 0
5682 682 -683 0
5782 -282 283 0
5782 282 -283 0
5782 -782 783 0
5782 782 -783 0
5882 -382 383 0
5882 382 -383 0
5882 -882 883 0
5882 882 -883 0
5982 -482 483 0
5982 482 -483 0
5982 -982 983 0
5982 982 -983 0
-82 -4082 -83 0
82 -4082 83 0
-4182 -683 0
-182 -4182 183 0
182 -4182 -183 0
-4682 683 0
-4282 -783 0
-282 -4282 283 0
282 -4282 -283 0
-4782 783 0
-4382 -883 0
-382 -4382 383 0
382 -4382 -383 0
-4882 883 0
-182 -4682 -183 0
182 -4682 183 0
-282 -4782 -283 0
282 -4782 283 0
-382 -4882 -383 0
382 -4882 383 0
-482 -4982 -483 0
482 -4982 483 0
5583 -83 84 0
5583 83 -84 0
5583 -583 584 0
5583 583 -584 0
5683 -183 184 0
5683 183 -184 0
5683 -683 684 0
5683 683 -684 0
5783 -283 284 0
5783 283 -284 0
5783 -783 784 0
5783 783 -784 0
5883 -383 384 0
5883 383 -384 0
5883 -883 884 0
5883 883 -884 0
5983 -483 484 0
5983 483 -484 0
5983 -983 984 0
5983 983 -984 0
-83 -4083 -84 0
83 -4083 84 0
-4183 -684 0
-183 -4183 184 0
183 -4183 -184 0
-4683 684 0
-4283 -784 0
-283 -4283 284 0
283 -4283 -284 0
-4783 784 0
-4383 -884 0
-383 -4383 384 0
383 -4383 -384 0
-4883 884 0
-183 -4683 -184 0
183 -4683 184 0
-283 -4783 -284 0
283 -4783 284 0
-383 -4883 -384 0
383 -4883 384 0
-483 -4983 -484 0
483 -4983 484 0
5584 -84 85 0
5584 84 -85 0
5584 -584 585 0
5584 584 -585 0
5684 -184 185 0
5684 184 -185 0
5684 -684 685 0
5684 684 -685 0
5784 -284 285 0
5784 284 -285 0
5784 -784 785 0
5784 784 -785 0
5884 -384 385 0
5884 384 -385 0
5884 -884 885 0
5884 884 -885 0
5984 -484 485 0
5984 484 -485 0
5984 -984 985 0
5984 984 -985 0
-84 -4084 -85 0
84 -4084 85 0
-4184 -685 0
-184 -4184 185 0
184 -4184 -185 0
-4684 685 0
-4284 -785 0
-284 -4284 285 0
284 -4284 -285 0
-4784 785 0
-4384 -885 0
-384 -4384 385 0
384 -4384 -385 0
-4884 885 0
-184 -4684 -185 0
184 -4684 185 0
-284 -4784 -285 0
284 -4784 285 0
-384 -4884 -385 0
384 -4884 385 0
-484 -4984 -485 0
484 -4984 485 0
5585 -85 86 0
5585 85 -86 0
5585 -585 586 0
5585 585 -586 0
5685 -185 186 0
5685 185 -186 0
5685 -685 686 0
5685 685 -686 0
5785 -285 286 0
5785 285 -286 0
5785 -785 786 0
5785 785 -786 0
5885 -385 386 0
5885 385 -386 0
5885 -885 886 0
5885 885 -886 0
5985 -485 486 0
5985 485 -486 0
5985 -985 986 0
5985 985 -986 0
-85 -4085 -86 0
85 -4085 86 0
-4185 -686 0
-185 -4185 186 0
185 -4185 -186 0
-4685 686 0
-4285 -786 0
-285 -4285 286 0
285 -4285 -286 0
-4785 786 0
-4385 -886 0
-385 -4385 386 0
385 -4385 -386 0
-4885 886 0
-185 -4685 -186 0
185 -4685 186 0
-285 -4785 -286 0
285 -4785 286 0
-385 -4885 -386 0
385 -4885 386 0
-485 -4985 -486 0
485 -4985 486 0
5586 -86 87 0
5586 86 -87 0
5586 -586 587 0
5586 586 -587 0
5686 -186 187 0
5686 186 -187 0
5686 -686 687 0
5686 686 -687 0
5786 -286 287 0
5786 286 -287 0
5786 -786 787 0
5786 786 -787 0
5886 -386 387 0
5886 386 -387 0
5886 -886 887 0
5886 886 -887 0
5986 -486 487 0
5986 486 -487 0
5986 -986 987 0
5986 986 -987 0
-86 -4086 -87 0
86 -4086 87 0
-4186 -687 0
-186 -4186 187 0
186 -4186 -187 0
-4686 687 0
-4286 -787 0
-286 -4286 287 0
286 -4286 -287 0
-4786 787 0
-4386 -887 0
-386 -4386 387 0
386 -4386 -387 0
-4886 887 0
-186 -4686 -187 0
186 -4686 187 0
-286 -4786 -287 0
286 -4786 287 0
-386 -4886 -387 0
386 -4886 387 0
-486 -4986 -487 0
486 -4986 487 0
5587 -87 88 0
5587 87 -88 0
5587 -587 588 0
5587 587 -588 0
5687 -187 188 0
5687 187 -188 0
5687 -687 688 0
5687 687 -688 0
5787 -287 288 0
5787 287 -288 0
5787 -787 788 0
5787 787 -788 0
5887 -387 388 0
5887 387 -388 0
5887 -887 888 0
5887 887 -888 0
5987 -487 488 0
5987 487 -488 0
5987 -987 988 0
5987 987 -988 0
-87 -4087 -88 0
87 -4087 88 0
-4187 -688 0
-187 -4187 188 0
187 -4187 -188 0
-4687 688 0
-4287 -788 0
-287 -4287 288 0
287 -4287 -288 0
-4787 788 0
-4387 -888 0
-387 -4387 388 0
387 -4387 -388 0
-4887 888 0
-187 -4687 -188 0
187 -4687 188 0
-287 -4787 -288 0
287 -4787 288 0
-387 -4887 -388 0
387 -4887 388 0
-487 -4987 -488 0
487 -4987 488 0
5588 -88 89 0
5588 88 -89 0
5588 -588 589 0
5588 588 -589 0
5688 -188 189 0
5688 188 -189 0
5688 -688 689 0
5688 688 -689 0
5788 -288 289 0
5788 288 -289 0
5788 -788 789 0
5788 788 -789 0
5888 -388 389 0
5888 388 -389 0
5888 -888 889 0
5888 888 -889 0
5988 -488 489 0
5988 488 -489 0
5988 -988 989 0
5988 988 -989 0
-88 -4088 -89 0
88 -4088 89 0
-4188 -689 0
-188 -4188 189 0
188 -4188 -189 0
-4688 689 0
-4288 -789 0
-288 -4288 289 0
288 -4288 -289 0
-4788 789 0
-4388 -889 0
-388 -4388 389 0
388 -4388 -389 0
-4888 889 0
-188 -4688 -189 0
188 -4688 189 0
-288 -4788 -289 0
288 -4788 289 0
-388 -4888 -389 0
388 -4888 389 0
-488 -4988 -489 0
488 -4988 489 0
5589 -89 90 0
5589 89 -90 0
5589 -589 590 0
5589 589 -590 0
5689 -189 190 0
5689 189 -190 0
5689 -689 690 0
5689 689 -690 0
5789 -289 290 0
5789 289 -290 0
5789 -789 790 0
5789 789 -790 0
5889 -389 390 0
5889 389 -390 0
5889 -889 890 0
5889 889 -890 0
5989 -489 490 0
5989 489 -490 0
5989 -989 990 0
5989 989 -990 0
-89 -4089 -90 0
89 -4089 90 0
-4189 -690 0
-189 -4189 190 0
189 -4189 -190 0
-4689 690 0
-4289 -790 0
-289 -4289 290 0
289 -4289 -290 0
-4789 790 0
-4389 -890 0
-389 -4389 390 0
389 -4389 -390 0
-4889 890 0
-189 -4689 -190 0
189 -4689 190 0
-289 -4789 -290 0
289 -4789 290 0
-389 -4889 -390 0
389 -4889 390 0
-489 -4989 -490 0
489 -4989 490 0
5590 -90 91 0
5590 90 -91 0
5590 -590 591 0
5590 590 -591 0
5690 -190 191 0
5690 190 -191 0
5690 -690 691 0
5690 690 -691 0
5790 -290 291 0
5790 290 -291 0
5790 -790 791 0
5790 790 -791 0
5890 -390 391 0
5890 390 -391 0
5890 -890 891 0
5890 890 -891 0
5990 -490 491 0
5990 490 -491 0
5990 -990 991 0
5990 990 -991 0
-90 -4090 -91 0
90 -4090 91 0
-4190 -691 0
-190 -4190 191 0
190 -4190 -191 0
-4690 691 0
-4290 -791 0
-290 -4290 291 0
290 -4290 -291 0
-4790 791 0
-4390 -891 0
-390 -4390 391 0
390 -4390 -391 0
-4890 891 0
-190 -4690 -191 0
190 -4690 191 0
-290 -4790 -291 0
290 -4790 291 0
-390 -4890 -391 0
390 -4890 391 0
-490 -4990 -491 0
490 -4990 491 0
5591 -91 92 0
5591 91 -92 0
5591 -591 592 0
5591 591 -592 0
5691 -191 192 0
5691 191 -192 0
5691 -691 692 0
5691 691 -692 0
5791 -291 292 0
5791 291 -292 0
5791 -791 792 0
5791 791 -792 0
5891 -391 392 0
5891 391 -392 0
5891 -891 892 0
5891 891 -892 0
5991 -491 492 0
5991 491 -492 0
5991 -991 992 0
5991 991 -992 0
-91 -4091 -92 0
91 -4091 92 0
-4191 -692 0
-191 -4191 192 0
191 -4191 -192 0
-4691 692 0
-4291 -792 0
-291 -4291 292 0
291 -4291 -292 0
-4791 792 0
-4391 -892 0
-391 -4391 392 0
391 -4391 -392 0
-4891 892 0
-191 -4691 -192 0
191 -4691 192 0
-291 -4791 -292 0
291 -4791 292 0
-391 -4891 -392 0
391 -4891 392 0
-491 -4991 -492 0
491 -4991 492 0
5592 -92 93 0
5592 92 -93 0
5592 -592 593 0
5592 592 -593 0
5692 -192 193 0
5692 192 -193 0
5692 -692 693 0
5692 692 -693 0
5792 -292 293 0
5792 292 -293 0
5792 -792 793 0
5792 792 -793 0
5892 -392 393 0
5892 392 -393 0
5892 -892 893 0
5892 892 -893 0
5992 -492 493 0
5992 492 -493 0
5992 -992 993 0
5992 992 -993 0
-92 -4092 -93 0
92 -4092 93 0
-4192 -693 0
-192 -4192 193 0
192 -4192 -193 0
-4692 693 0
-4292 -793 0
-292 -4292 293 0
292 -4292 -293 0
-4792 793 0
-4392 -893 0
-392 -4392 393 0
392 -4392 -393 0
-4892 893 0
-192 -4692 -193 0
192 -4692 193 0
-292 -4792 -293 0
292 -4792 293 0
-392 -4892 -393 0
392 -4892 393 0
-492 -4992 -493 0
492 -4992 493 0
5593 -93 94 0
5593 93 -94 0
5593 -593 594 0
5593 593 -594 0
5693 -193 194 0
5693 193 -194 0
5693 -693 694 0
5693 693 -694 0
5793 -293 294 0
5793 293 -294 0
5793 -793 794 0
5793 793 -794 0
5893 -393 394 0
5893 393 -394 0
5893 -893 894 0
5893 893 -894 0
5993 -493 494 0
5993 493 -494 0
5993 -993 994 0
5993 993 -994 0
-93 -4093 -94 0
93 -4093 94 0
-4193 -694 0
-193 -4193 194 0
193 -4193 -194 0
-4693 694 0
-4293 -794 0
-293 -4293 294 0
293 -4293 -294 0
-4793 794 0
-4393 -894 0
-393 -4393 394 0
393 -4393 -394 0
-4893 894 0
-193 -4693 -194 0
193 -4693 194 0
-293 -4793 -294 0
293 -4793 294 0
-393 -4893 -394 0
393 -4893 394 0
-493 -4993 -494 0
493 -4993 494 0
5594 -94 95 0
5594 94 -95 0
5594 -594 595 0
5594 594 -595 0
5694 -194 195 0
5694 194 -195 0
5694 -694 695 0
5694 694 -695 0
5794 -294 295 0
5794 294 -295 0
5794 -794 795 0
5794 794 -795 0
5894 -394 395 0
5894 394 -395 0
5894 -894 895 0
5894 894 -895 0
5994 -494 495 0
5994 494 -495 0
5994 -994 995 0
5994 994 -995 0
-94 -4094 -95 0
94 -4094 95 0
-4194 -695 0
-194 -4194 195 0
194 -4194 -195 0
-4694 695 0
-4294 -795 0
-294 -4294 295 0
294 -4294 -295 0
-4794 795 0
-4394 -895 0
-394 -4394 395 0
394 -4394 -395 0
-4894 895 0
-194 -4694 -195 0
194 -4694 195 0
-294 -4794 -295 0
294 -4794 295 0
-394 -4894 -395 0
394 -4894 395 0
-494 -4994 -495 0
494 -4994 495 0
5595 -95 96 0
5595 95 -96 0
5595 -595 596 0
5595 595 -596 0
5695 -195 196 0
5695 195 -196 0
5695 -695 696 0
5695 695 -696 0
5795 -295 296 0
5795 295 -296 0
5795 -795 796 0
5795 795 -796 0
5895 -395 396 0
5895 395 -396 0
5895 -895 896 0
5895 895 -896 0
5995 -495 496 0
5995 495 -496 0
5995 -995 996 0
5995 995 -996 0
-95 -4095 -96 0
95 -4095 96 0
-4195 -696 0
-195 -4195 196 0
195 -4195 -196 0
-4695 696 0
-4295 -796 0
-295 -4295 296 0
295 -4295 -296 0
-4795 796 0
-4395 -896 0
-395 -4395 396 0
395 -4395 -396 0
-4895 896 0
-195 -4695 -196 0
195 -4695 196 0
-295 -4795 -296 0
295 -4795 296 0
-395 -4895 -396 0
395 -4895 396 0
-495 -4995 -496 0
495 -4995 496 0
5596 -96 97 0
5596 96 -97 0
5596 -596 597 0
5596 596 -597 0
5696 -196 197 0
5696 196 -197 0
5696 -696 697 0
5696 696 -697 0
5796 -296 297 0
5796 296 -297 0
5796 -796 797 0
5796 796 -797 0
5896 -396 397 0
5896 396 -397 0
5896 -896 897 0
5896 896 -897 0
5996 -496 497 0
5996 496 -497 0
5996 -996 997 0
5996 996 -997 0
-96 -4096 -97 0
96 -4096 97 0
-4196 -697 0
-196 -4196 197 0
196 -4196 -197 0
-4696 697 0
-4296 -797 0
-296 -4296 297 0
296 -4296 -297 0
-4796 797 0
-4396 -897 0
-396 -4396 397 0
396 -4396 -397 0
-4896 897 0
-196 -4696 -197 0
196 -4696 197 0
-296 -4796 -297 0
296 -4796 297 0
-396 -4896 -397 0
396 -4896 397 0
-496 -4996 -497 0
496 -4996 497 0
5597 -97 98 0
5597 97 -98 0
5597 -597 598 0
5597 597 -598 0
5697 -197 198 0
5697 197 -198 0
5697 -697 698 0
5697 697 -698 0
5797 -297 298 0
5797 297 -298 0
5797 -797 798 0
5797 797 -798 0
5897 -397 398 0
5897 397 -398 0
5897 -897 898 0
5897 897 -898 0
5997 -497 498 0
5997 497 -498 0
5997 -997 998 0
5997 997 -998 0
-97 -4097 -98 0
97 -4097 98 0
-4197 -698 0
-197 -4197 198 0
197 -4197 -198 0
-4697 698 0
-4297 -798 0
-297 -4297 298 0
297 -4297 -298 0
-4797 798 0
-4397 -898 0
-397 -4397 398 0
397 -4397 -398 0
-4897 898 0
-197 -4697 -198 0
197 -4697 198 0
-297 -4797 -298 0
297 -4797 298 0
-397 -4897 -398 0
397 -4897 398 0
-497 -4997 -498 0
497 -4997 498 0
5598 -98 99 0
5598 98 -99 0
5598 -598 599 0
5598 598 -599 0
5698 -198 199 0
5698 198 -199 0
5698 -698 699 0
5698 698 -699 0
5798 -298 299 0
5798 298 -299 0
5798 -798 799 0
5798 798 -799 0
5898 -398 399 0
5898 398 -399 0
5898 -898 899 0
5898 898 -899 0
5998 -498 499 0
5998 498 -499 0
5998 -998 999 0
5998 998 -999 0
-98 -4098 -99 0
98 -4098 99 0
-4198 -699 0
-198 -4198 199 0
198 -4198 -199 0
-4698 699 0
-4298 -799 0
-298 -4298 299 0
298 -4298 -299 0
-4798 799 0
-4398 -899 0
-398 -4398 399 0
398 -4398 -399 0
-4898 899 0
-198 -4698 -199 0
198 -4698 199 0
-298 -4798 -299 0
298 -4798 299 0
-398 -4898 -399 0
398 -4898 399 0
-498 -4998 -499 0
498 -4998 499 0
5599 -99 100 0
5599 99 -100 0
5599 -599 600 0
5599 599 -600 0
5699 -199 200 0
5699 199 -200 0
5699 -699 700 0
5699 699 -700 0
5799 -299 300 0
5799 299 -300 0
5799 -799 800 0
5799 799 -800 0
5899 -399 400 0
5899 399 -400 0
5899 -899 900 0
5899 899 -900 0
5999 -499 500 0
5999 499 -500 0
5999 -999 1000 0
5999 999 -1000 0
-99 -4099 -100 0
99 -4099 100 0
-4199 -700 0
-199 -4199 200 0
199 -4199 -200 0
-4699 700 0
-4299 -800 0
-299 -4299 300 0
299 -4299 -300 0
-4799 800 0
-4399 -900 0
-399 -4399 400 0
399 -4399 -400 0
-4899 900 0
-199 -4699 -200 0
199 -4699 200 0
-299 -4799 -300 0
299 -4799 300 0
-399 -4899 -400 0
399 -4899 400 0
-499 -4999 -500 0
499 -4999 500 0
501 0
-901 0
-1001 1501 0
-1001 2001 0
-1001 501 0
-1001 -601 0
1001 -1501 -2001 -501 601 0
-1 101 -1501 0
1 1501 0
-101 1501 0
1 -101 -2001 0
-1 2001 0
101 2001 0
-1101 1601 0
-1101 2101 0
-1101 601 0
-1101 -701 0
1101 -1601 -2101 -601 701 0
-101 201 -1601 0
101 1601 0
-201 1601 0
101 -201 -2101 0
-101 2101 0
201 2101 0
-1201 1701 0
-1201 2201 0
-1201 701 0
-1201 -801 0
1201 -1701 -2201 -701 801 0
-201 301 -1701 0
201 1701 0
-301 1701 0
201 -301 -2201 0
-201 2201 0
301 2201 0
-1301 1801 0
-1301 2301 0
-1301 801 0
-1301 -901 0
1301 -1801 -2301 -801 901 0
-301 401 -1801 0
301 1801 0
-401 1801 0
301 -401 -2301 0
-301 2301 0
401 2301 0
2601 3101 0
2601 3601 0
-2601 -3101 -3601 0
-101 1 -3101 0
101 3101 0
-1 3101 0
101 -1 -3601 0
-101 3601 0
1 3601 0
2701 3201 0
2701 3701 0
-2701 -3201 -3701 0
-201 101 -3201 0
201 3201 0
-101 3201 0
201 -101 -3701 0
-201 3701 0
101 3701 0
2801 3301 0
2801 3801 0
-2801 -3301 -3801 0
-301 201 -3301 0
301 3301 0
-201 3301 0
301 -201 -3801 0
-301 3801 0
201 3801 0
2901 3401 0
2901 3901 0
-2901 -3401 -3901 0
-401 301 -3401 0
401 3401 0
-301 3401 0
401 -301 -3901 0
-401 3901 0
301 3901 0
502 0
-902 0
-1002 1502 0
-1002 2002 0
-1002 502 0
-1002 -602 0
1002 -1502 -2002 -502 602 0
-2 102 -1502 0
2 1502 0
-102 1502 0
2 -102 -2002 0
-2 2002 0
102 2002 0
-1102 1602 0
-1102 2102 0
-1102 602 0
-1102 -702 0
1102 -1602 -2102 -602 702 0
-102 202 -1602 0
102 1602 0
-202 1602 0
102 -202 -2102 0
-102 2102 0
202 2102 0
-1202 1702 0
-1202 2202 0
-1202 702 0
-1202 -802 0
1202 -1702 -2202 -702 802 0
-202 302 -1702 0
202 1702 0
-302 1702 0
202 -302 -2202 0
-202 2202 0
302 2202 0
-1302 1802 0
-1302 2302 0
-1302 802 0
-1302 -902 0
1302 -1802 -2302 -802 902 0
-302 402 -1802 0
302 1802 0
-402 1802 0
302 -402 -2302 0
-302 2302 0
402 2302 0
2602 3102 0
2602 3602 0
-2602 -3102 -3602 0
-102 2 -3102 0
102 3102 0
-2 3102 0
102 -2 -3602 0
-102 3602 0
2 3602 0
2702 3202 0
2702 3702 0
-2702 -3202 -3702 0
-202 102 -3202 0
202 3202 0
-102 3202 0
202 -102 -3702 0
-202 3702 0
102 3702 0
2802 3302 0
2802 3802 0
-2802 -3302 -3802 0
-302 202 -3302 0
302 3302 0
-202 3302 0
302 -202 -3802 0
-302 3802 0
202 3802 0
2902 3402 0
2902 3902 0
-2902 -3402 -3902 0
-402 302 -3402 0
402 3402 0
-302 3402 0
402 -302 -3902 0
-402 3902 0
302 3902 0
503 0
-903 0
-1003 1503 0
-1003 2003 0
-1003 503 0
-1003 -603 0
1003 -1503 -2003 -503 603 0
-3 103 -1503 0
3 1503 0
-103 1503 0
3 -103 -2003 0
-3 2003 0
103 2003 0
-1103 1603 0
-1103 2103 0
-1103 603 0
-1103 -703 0
1103 -1603 -2103 -603 703 0
-103 203 -1603 0
103 1603 0
-203 1603 0
103 -203 -2103 0
-103 2103 0
203 2103 0
-1203 1703 0
-1203 2203 0
-1203 703 0
-1203 -803 0
1203 -1703 -2203 -703 803 0
-203 303 -1703 0
203 1703 0
-303 1703 0
203 -303 -2203 0
-203 2203 0
303 2203 0
-1303 1803 0
-1303 2303 0
-1303 803 0
-1303 -903 0
1303 -1803 -2303 -803 903 0
-303 403 -1803 0
303 1803 0
-403 1803 0
303 -403 -2303 0
-303 2303 0
403 2303 0
2603 3103 0
2603 3603 0
-2603 -3103 -3603 0
-103 3 -3103 0
103 3103 0
-3 3103 0
103 -3 -3603 0
-103 3603 0
3 3603 0
2703 3203 0
2703 3703 0
-2703 -3203 -3703 0
-203 103 -3203 0
203 3203 0
-103 3203 0
203 -103 -3703 0
-203 3703 0
103 3703 0
2803 3303 0
2803 3803 0
-2803 -3303 -3803 0
-303 203 -3303 0
303 3303 0
-203 3303 0
303 -203 -3803 0
-303 3803 0
203 3803 0
2903 3403 0
2903 3903 0
-2903 -3403 -3903 0
-403 303 -3403 0
403 3403 0
-303 3403 0
403 -303 -3903 0
-403 3903 0
303 3903 0
504 0
-904 0
-1004 1504 0
-1004 2004 0
-1004 504 0
-1004 -604 0
1004 -1504 -2004 -504 604 0
-4 104 -1504 0
4 1504 0
-104 1504 0
4 -104 -2004 0
-4 2004 0
104 2004 0
-1104 1604 0
-1104 2104 0
-1104 604 0
-1104 -704 0
1104 -1604 -2104 -604 704 0
-104 204 -1604 0
104 1604 0
-204 1604 0
104 -204 -2104 0
-104 2104 0
204 2104 0
-1204 1704 0
-1204 2204 0
-1204 704 0
-1204 -804 0
1204 -1704 -2204 -704 804 0
-204 304 -1704 0
204 1704 0
-304 1704 0
204 -304 -2204 0
-204 2204 0
304 2204 0
-1304 1804 0
-1304 2304 0
-1304 804 0
-1304 -904 0
1304 -1804 -2304 -804 904 0
-304 404 -1804 0
304 1804 0
-404 1804 0
304 -404 -2304 0
-304 2304 0
404 2304 0
2604 3104 0
2604 3604 0
-2604 -3104 -3604 0
-104 4 -3104 0
104 3104 0
-4 3104 0
104 -4 -3604 0
-104 3604 0
4 3604 0
2704 3204 0
2704 3704 0
-2704 -3204 -3704 0
-204 104 -3204 0
204 3204 0
-104 3204 0
204 -104 -3704 0
-204 3704 0
104 3704 0
2804 3304 0
2804 3804 0
-2804 -3304 -3804 0
-304 204 -3304 0
304 3304 0
-204 3304 0
304 -204 -3804 0
-304 3804 0
204 3804 0
2904 3404 0
2904 3904 0
-2904 -3404 -3904 0
-404 304 -3404 0
404 3404 0
-304 3404 0
404 -304 -3904 0
-404 3904 0
304 3904 0
505 0
-905 0
-1005 1505 0
-1005 2005 0
-1005 505 0
-1005 -605 0
1005 -1505 -2005 -505 605 0
-5 105 -1505 0
5 1505 0
-105 1505 0
5 -105 -2005 0
-5 2005 0
105 2005 0
-1105 1605 0
-1105 2105 0
-1105 605 0
-1105 -705 0
1105 -1605 -2105 -605 705 0
-105 205 -1605 0
105 1605 0
-205 1605 0
105 -205 -2105 0
-105 2105 0
205 2105 0
-1205 1705 0
-1205 2205 0
-1205 705 0
-1205 -805 0
1205 -1705 -2205 -705 805 0
-205 305 -1705 0
205 1705 0
-305 1705 0
205 -305 -2205 0
-205 2205 0
305 2205 0
-1305 1805 0
-1305 2305 0
-1305 805 0
-1305 -905 0
1305 -1805 -2305 -805 905 0
-305 405 -1805 0
305 1805 0
-405 1805 0
305 -405 -2305 0
-305 2305 0
405 2305 0
2605 3105 0
2605 3605 0
-2605 -3105 -3605 0
-105 5 -3105 0
105 3105 0
-5 3105 0
105 -5 -3605 0
-105 3605 0
5 3605 0
2705 3205 0
2705 3705 0
-2705 -3205 -3705 0
-205 105 -3205 0
205 3205 0
-105 3205 0
205 -105 -3705 0
-205 3705 0
105 3705 0
2805 3305 0
2805 3805 0
-2805 -3305 -3805 0
-305 205 -3305 0
305 3305 0
-205 3305 0
305 -205 -3805 0
-305 3805 0
205 3805 0
2905 3405 0
2905 3905 0
-2905 -3405 -3905 0
-405 305 -3405 0
405 3405 0
-305 3405 0
405 -305 -3905 0
-405 3905 0
305 3905 0
506 0
-906 0
-1006 1506 0
-1006 2006 0
-1006 506 0
-1006 -606 0
1006 -1506 -2006 -506 606 0
-6 106 -1506 0
6 1506 0
-106 1506 0
6 -106 -2006 0
-6 2006 0
106 2006 0
-1106 1606 0
-1106 2106 0
-1106 606 0
-1106 -706 0
1106 -1606 -2106 -606 706 0
-106 206 -1606 0
106 1606 0
-206 1606 0
106 -206 -2106 0
-106 2106 0
206 2106 0
-1206 1706 0
-1206 2206 0
-1206 706 0
-1206 -806 0
1206 -1706 -2206 -706 806 0
-206 306 -1706 0
206 1706 0
-306 1706 0
206 -306 -2206 0
-206 2206 0
306 2206 0
-1306 1806 0
-1306 2306 0
-1306 806 0
-1306 -906 0
1306 -1806 -2306 -806 906 0
-306 406 -1806 0
306 1806 0
-406 1806 0
306 -406 -2306 0
-306 2306 0
406 2306 0
2606 3106 0
2606 3606 0
-2606 -3106 -3606 0
-106 6 -3106 0
106 3106 0
-6 3106 0
106 -6 -3606 0
-106 3606 0
6 3606 0
2706 3206 0
2706 3706 0
-2706 -3206 -3706 0
-206 106 -3206 0
206 3206 0
-106 3206 0
206 -106 -3706 0
-206 3706 0
106 3706 0
2806 3306 0
2806 3806 0
-2806 -3306 -3806 0
-306 206 -3306 0
306 3306 0
-206 3306 0
306 -206 -3806 0
-306 3806 0
206 3806 0
2906 3406 0
2906 3906 0
-2906 -3406 -3906 0
-406 306 -3406 0
406 3406 0
-306 3406 0
406 -306 -3906 0
-406 3906 0
306 3906 0
507 0
-907 0
-1007 1507 0
-1007 2007 0
-1007 507 0
-1007 -607 0
1007 -1507 -2007 -507 607 0
-7 107 -1507 0
7 1507 0
-107 1507 0
7 -107 -2007 0
-7 2007 0
107 2007 0
-1107 1607 0
-1107 2107 0
-1107 607 0
-1107 -707 0
1107 -1607 -2107 -607 707 0
-107 207 -1607 0
107 1607 0
-207 1607 0
107 -207 -2107 0
-107 2107 0
207 2107 0
-1207 1707 0
-1207 2207 0
-1207 707 0
-1207 -807 0
1207 -1707 -2207 -707 807 0
-207 307 -1707 0
207 1707 0
-307 1707 0
207 -307 -2207 0
-207 2207 0
307 2207 0
-1307 1807 0
-1307 2307 0
-1307 807 0
-1307 -907 0
1307 -1807 -2307 -807 907 0
-307 407 -1807 0
307 1807 0
-407 1807 0
307 -407 -2307 0
-307 2307 0
407 2307 0
2607 3107 0
2607 3607 0
-2607 -3107 -3607 0
-107 7 -3107 0
107 3107 0
-7 3107 0
107 -7 -3607 0
-107 3607 0
7 3607 0
2707 3207 0
2707 3707 0
-2707 -3207 -3707 0
-207 107 -3207 0
207 3207 0
-107 3207 0
207 -107 -3707 0
-207 3707 0
107 3707 0
2807 3307 0
2807 3807 0
-2807 -3307 -3807 0
-307 207 -3307 0
307 3307 0
-207 3307 0
307 -207 -3807 0
-307 3807 0
207 3807 0
2907 3407 0
2907 3907 0
-2907 -3407 -3907 0
-407 307 -3407 0
407 3407 0
-307 3407 0
407 -307 -3907 0
-407 3907 0
307 3907 0
508 0
-908 0
-1008 1508 0
-1008 2008 0
-1008 508 0
-1008 -608 0
1008 -1508 -2008 -508 608 0
-8 108 -1508 0
8 1508 0
-108 1508 0
8 -108 -2008 0
-8 2008 0
108 2008 0
-1108 1608 0
-1108 2108 0
-1108 608 0
-1108 -708 0
1108 -1608 -2108 -608 708 0
-108 208 -1608 0
108 1608 0
-208 1608 0
108 -208 -2108 0
-108 2108 0
208 2108 0
-1208 1708 0
-1208 2208 0
-1208 708 0
-1208 -808 0
1208 -1708 -2208 -708 808 0
-208 308 -1708 0
208 1708 0
-308 1708 0
208 -308 -2208 0
-208 2208 0
308 2208 0
-1308 1808 0
-1308 2308 0
-1308 808 0
-1308 -908 0
1308 -1808 -2308 -808 908 0
-308 408 -1808 0
308 1808 0
-408 1808 0
308 -408 -2308 0
-308 2308 0
408 2308 0
2608 3108 0
2608 3608 0
-2608 -3108 -3608 0
-108 8 -3108 0
108 3108 0
-8 3108 0
108 -8 -3608 0
-108 3608 0
8 3608 0
2708 3208 0
2708 3708 0
-2708 -3208 -3708 0
-208 108 -3208 0
208 3208 0
-108 3208 0
208 -108 -3708 0
-208 3708 0
108 3708 0
2808 3308 0
2808 3808 0
-2808 -3308 -3808 0
-308 208 -3308 0
308 3308 0
-208 3308 0
308 -208 -3808 0
-308 3808 0
208 3808 0
2908 3408 0
2908 3908 0
-2908 -3408 -3908 0
-408 308 -3408 0
408 3408 0
-308 3408 0
408 -308 -3908 0
-408 3908 0
308 3908 0
509 0
-909 0
-1009 1509 0
-1009 2009 0
-1009 509 0
-1009 -609 0
1009 -1509 -2009 -509 609 0
-9 109 -1509 0
9 1509 0
-109 1509 0
9 -109 -2009 0
-9 2009 0
109 2009 0
-1109 1609 0
-1109 2109 0
-1109 609 0
-1109 -709 0
1109 -1609 -2109 -609 709 0
-109 209 -1609 0
109 1609 0
-209 1609 0
109 -209 -2109 0
-109 2109 0
209 2109 0
-1209 1709 0
-1209 2209 0
-1209 709 0
-1209 -809 0
1209 -1709 -2209 -709 809 0
-209 309 -1709 0
209 1709 0
-309 1709 0
209 -309 -2209 0
-209 2209 0
309 2209 0
-1309 1809 0
-1309 2309 0
-1309 809 0
-1309 -909 0
1309 -1809 -2309 -809 909 0
-309 409 -1809 0
309 1809 0
-409 1809 0
309 -409 -2309 0
-309 2309 0
409 2309 0
2609 3109 0
2609 3609 0
-2609 -3109 -3609 0
-109 9 -3109 0
109 3109 0
-9 3109 0
109 -9 -3609 0
-109 3609 0
9 3609 0
2709 3209 0
2709 3709 0
-2709 -3209 -3709 0
-209 109 -3209 0
209 3209 0
-109 3209 0
209 -109 -3709 0
-209 3709 0
109 3709 0
2809 3309 0
2809 3809 0
-2809 -3309 -3809 0
-309 209 -3309 0
309 3309 0
-209 3309 0
309 -209 -3809 0
-309 3809 0
209 3809 0
2909 3409 0
2909 3909 0
-2909 -3409 -3909 0
-409 309 -3409 0
409 3409 0
-309 3409 0
409 -309 -3909 0
-409 3909 0
309 3909 0
510 0
-910 0
-1010 1510 0
-1010 2010 0
-1010 510 0
-1010 -610 0
1010 -1510 -2010 -510 610 0
-10 110 -1510 0
10 1510 0
-110 1510 0
10 -110 -2010 0
-10 2010 0
110 2010 0
-1110 1610 0
-1110 2110 0
-1110 610 0
-1110 -710 0
1110 -1610 -2110 -610 710 0
-110 210 -1610 0
110 1610 0
-210 1610 0
110 -210 -2110 0
-110 2110 0
210 2110 0
-1210 1710 0
-1210 2210 0
-1210 710 0
-1210 -810 0
1210 -1710 -2210 -710 810 0
-210 310 -1710 0
210 1710 0
-310 1710 0
210 -310 -2210 0
-210 2210 0
310 2210 0
-1310 1810 0
-1310 2310 0
-1310 810 0
-1310 -910 0
1310 -1810 -2310 -810 910 0
-310 410 -1810 0
310 1810 0
-410 1810 0
310 -410 -2310 0
-310 2310 0
410 2310 0
2610 3110 0
2610 3610 0
-2610 -3110 -3610 0
-110 10 -3110 0
110 3110 0
-10 3110 0
110 -10 -3610 0
-110 3610 0
10 3610 0
2710 3210 0
2710 3710 0
-2710 -3210 -3710 0
-210 110 -3210 0
210 3210 0
-110 3210 0
210 -110 -3710 0
-210 3710 0
110 3710 0
2810 3310 0
2810 3810 0
-2810 -3310 -3810 0
-310 210 -3310 0
310 3310 0
-210 3310 0
310 -210 -3810 0
-310 3810 0
210 3810 0
2910 3410 0
2910 3910 0
-2910 -3410 -3910 0
-410 310 -3410 0
410 3410 0
-310 3410 0
410 -310 -3910 0
-410 3910 0
310 3910 0
511 0
-911 0
-1011 1511 0
-1011 2011 0
-1011 511 0
-1011 -611 0
1011 -1511 -2011 -511 611 0
-11 111 -1511 0
11 1511 0
-111 1511 0
11 -111 -2011 0
-11 2011 0
111 2011 0
-1111 1611 0
-1111 2111 0
-1111 611 0
-1111 -711 0
1111 -1611 -2111 -611 711 0
-111 211 -1611 0
111 1611 0
-211 1611 0
111 -211 -2111 0
-111 2111 0
211 2111 0
-1211 1711 0
-1211 2211 0
-1211 711 0
-1211 -811 0
1211 -1711 -2211 -711 811 0
-211 311 -1711 0
211 1711 0
-311 1711 0
211 -311 -2211 0
-211 2211 0
311 2211 0
-1311 1811 0
-1311 2311 0
-1311 811 0
-1311 -911 0
1311 -1811 -2311 -811 911 0
-311 411 -1811 0
311 1811 0
-411 1811 0
311 -411 -2311 0
-311 2311 0
411 2311 0
2611 3111 0
2611 3611 0
-2611 -3111 -3611 0
-111 11 -3111 0
111 3111 0
-11 3111 0
111 -11 -3611 0
-111 3611 0
11 3611 0
2711 3211 0
2711 3711 0
-2711 -3211 -3711 0
-211 111 -3211 0
211 3211 0
-111 3211 0
211 -111 -3711 0
-211 3711 0
111 3711 0
2811 3311 0
2811 3811 0
-2811 -3311 -3811 0
-311 211 -3311 0
311 3311 0
-211 3311 0
311 -211 -3811 0
-311 3811 0
211 3811 0
2911 3411 0
2911 3911 0
-2911 -3411 -3911 0
-411 311 -3411 0
411 3411 0
-311 3411 0
411 -311 -3911 0
-411 3911 0
311 3911 0
512 0
-912 0
-1012 1512 0
-1012 2012 0
-1012 512 0
-1012 -612 0
1012 -1512 -2012 -512 612 0
-12 112 -1512 0
12 1512 0
-112 1512 0
12 -112 -2012 0
-12 2012 0
112 2012 0
-1112 1612 0
-1112 2112 0
-1112 612 0
-1112 -712 0
1112 -1612 -2112 -612 712 0
-112 212 -1612 0
112 1612 0
-212 1612 0
112 -212 -2112 0
-112 2112 0
212 2112 0
-1212 1712 0
-1212 2212 0
-1212 712 0
-1212 -812 0
1212 -1712 -2212 -712 812 0
-212 312 -1712 0
212 1712 0
-312 1712 0
212 -312 -2212 0
-212 2212 0
312 2212 0
-1312 1812 0
-1312 2312 0
-1312 812 0
-1312 -912 0
1312 -1812 -2312 -812 912 0
-312 412 -1812 0
312 1812 0
-412 1812 0
312 -412 -2312 0
-312 2312 0
412 2312 0
2612 3112 0
2612 3612 0
-2612 -3112 -3612 0
-112 12 -3112 0
112 3112 0
-12 3112 0
112 -12 -3612 0
-112 3612 0
12 3612 0
2712 3212 0
2712 3712 0
-2712 -3212 -3712 0
-212 112 -3212 0
212 3212 0
-112 3212 0
212 -112 -3712 0
-212 3712 0
112 3712 0
2812 3312 0
2812 3812 0
-2812 -3312 -3812 0
-312 212 -3312 0
312 3312 0
-212 3312 0
312 -212 -3812 0
-312 3812 0
212 3812 0
2912 3412 0
2912 3912 0
-2912 -3412 -3912 0
-412 312 -3412 0
412 3412 0
-312 3412 0
412 -312 -3912 0
-412 3912 0
312 3912 0
513 0
-913 0
-1013 1513 0
-1013 2013 0
-1013 513 0
-1013 -613 0
1013 -1513 -2013 -513 613 0
-13 113 -1513 0
13 1513 0
-113 1513 0
13 -113 -2013 0
-13 2013 0
113 2013 0
-1113 1613 0
-1113 2113 0
-1113 613 0
-1113 -713 0
1113 -1613 -2113 -613 713 0
-113 213 -1613 0
113 1613 0
-213 1613 0
113 -213 -2113 0
-113 2113 0
213 2113 0
-1213 1713 0
-1213 2213 0
-1213 713 0
-1213 -813 0
1213 -1713 -2213 -713 813 0
-213 313 -1713 0
213 1713 0
-313 1713 0
213 -313 -2213 0
-213 2213 0
313 2213 0
-1313 1813 0
-1313 2313 0
-1313 813 0
-1313 -913 0
1313 -1813 -2313 -813 913 0
-313 413 -1813 0
313 1813 0
-413 1813 0
313 -413 -2313 0
-313 2313 0
413 2313 0
2613 3113 0
2613 3613 0
-2613 -3113 -3613 0
-113 13 -3113 0
113 3113 0
-13 3113 0
113 -13 -3613 0
-113 3613 0
13 3613 0
2713 3213 0
2713 3713 0
-2713 -3213 -3713 0
-213 113 -3213 0
213 3213 0
-113 3213 0
213 -113 -3713 0
-213 3713 0
113 3713 0
2813 3313 0
2813 3813 0
-2813 -3313 -3813 0
-313 213 -3313 0
313 3313 0
-213 3313 0
313 -213 -3813 0
-313 3813 0
213 3813 0
2913 3413 0
2913 3913 0
-2913 -3413 -3913 0
-413 313 -3413 0
413 3413 0
-313 3413 0
413 -313 -3913 0
-413 3913 0
313 3913 0
514 0
-914 0
-1014 1514 0
-1014 2014 0
-1014 514 0
-1014 -614 0
1014 -1514 -2014 -514 614 0
-14 114 -1514 0
14 1514 0
-114 1514 0
14 -114 -2014 0
-14 2014 0
114 2014 0
-1114 1614 0
-1114 2114 0
-1114 614 0
-1114 -714 0
1114 -1614 -2114 -614 714 0
-114 214 -1614 0
114 1614 0
-214 1614 0
114 -214 -2114 0
-114 2114 0
214 2114 0
-1214 1714 0
-1214 2214 0
-1214 714 0
-1214 -814 0
1214 -1714 -2214 -714 814 0
-214 314 -1714 0
214 1714 0
-314 1714 0
214 -314 -2214 0
-214 2214 0
314 2214 0
-1314 1814 0
-1314 2314 0
-1314 814 0
-1314 -914 0
1314 -1814 -2314 -814 914 0
-314 414 -1814 0
314 1814 0
-414 1814 0
314 -414 -2314 0
-314 2314 0
414 2314 0
2614 3114 0
2614 3614 0
-2614 -3114 -3614 0
-114 14 -3114 0
114 3114 0
-14 3114 0
114 -14 -3614 0
-114 3614 0
14 3614 0
2714 3214 0
2714 3714 0
-2714 -3214 -3714 0
-214 114 -3214 0
214 3214 0
-114 3214 0
214 -114 -3714 0
-214 3714 0
114 3714 0
2814 3314 0
2814 3814 0
-2814 -3314 -3814 0
-314 214 -3314 0
314 3314 0
-214 3314 0
314 -214 -3814 0
-314 3814 0
214 3814 0
2914 3414 0
2914 3914 0
-2914 -3414 -3914 0
-414 314 -3414 0
414 3414 0
-314 3414 0
414 -314 -3914 0
-414 3914 0
314 3914 0
515 0
-915 0
-1015 1515 0
-1015 2015 0
-1015 515 0
-1015 -615 0
1015 -1515 -2015 -515 615 0
-15 115 -1515 0
15 1515 0
-115 1515 0
15 -115 -2015 0
-15 2015 0
115 2015 0
-1115 1615 0
-1115 2115 0
-1115 615 0
-1115 -715 0
1115 -1615 -2115 -615 715 0
-115 215 -1615 0
115 1615 0
-215 1615 0
115 -215 -2115 0
-115 2115 0
215 2115 0
-1215 1715 0
-1215 2215 0
-1215 715 0
-1215 -815 0
1215 -1715 -2215 -715 815 0
-215 315 -1715 0
215 1715 0
-315 1715 0
215 -315 -2215 0
-215 2215 0
315 2215 0
-1315 1815 0
-1315 2315 0
-1315 815 0
-1315 -915 0
1315 -1815 -2315 -815 915 0
-315 415 -1815 0
315 1815 0
-415 1815 0
315 -415 -2315 0
-315 2315 0
415 2315 0
2615 3115 0
2615 3615 0
-2615 -3115 -3615 0
-115 15 -3115 0
115 3115 0
-15 3115 0
115 -15 -3615 0
-115 3615 0
15 3615 0
2715 3215 0
2715 3715 0
-2715 -3215 -3715 0
-215 115 -3215 0
215 3215 0
-115 3215 0
215 -115 -3715 0
-215 3715 0
115 3715 0
2815 3315 0
2815 3815 0
-2815 -3315 -3815 0
-315 215 -3315 0
315 3315 0
-215 3315 0
315 -215 -3815 0
-315 3815 0
215 3815 0
2915 3415 0
2915 3915 0
-2915 -3415 -3915 0
-415 315 -3415 0
415 3415 0
-315 3415 0
415 -315 -3915 0
-415 3915 0
315 3915 0
516 0
-916 0
-1016 1516 0
-1016 2016 0
-1016 516 0
-1016 -616 0
1016 -1516 -2016 -516 616 0
-16 116 -1516 0
16 1516 0
-116 1516 0
16 -116 -2016 0
-16 2016 0
116 2016 0
-1116 1616 0
-1116 2116 0
-1116 616 0
-1116 -716 0
1116 -1616 -2116 -616 716 0
-116 216 -1616 0
116 1616 0
-216 1616 0
116 -216 -2116 0
-116 2116 0
216 2116 0
-1216 1716 0
-1216 2216 0
-1216 716 0
-1216 -816 0
1216 -1716 -2216 -716 816 0
-216 316 -1716 0
216 1716 0
-316 1716 0
216 -316 -2216 0
-216 2216 0
316 2216 0
-1316 1816 0
-1316 2316 0
-1316 816 0
-1316 -916 0
1316 -1816 -2316 -816 916 0
-316 416 -1816 0
316 1816 0
-416 1816 0
316 -416 -2316 0
-316 2316 0
416 2316 0
2616 3116 0
2616 3616 0
-2616 -3116 -3616 0
-116 16 -3116 0
116 3116 0
-16 3116 0
116 -16 -3616 0
-116 3616 0
16 3616 0
2716 3216 0
2716 3716 0
-2716 -3216 -3716 0
-216 116 -3216 0
216 3216 0
-116 3216 0
216 -116 -3716 0
-216 3716 0
116 3716 0
2816 3316 0
2816 3816 0
-2816 -3316 -3816 0
-316 216 -3316 0
316 3316 0
-216 3316 0
316 -216 -3816 0
-316 3816 0
216 3816 0
2916 3416 0
2916 3916 0
-2916 -3416 -3916 0
-416 316 -3416 0
416 3416 0
-316 3416 0
416 -316 -3916 0
-416 3916 0
316 3916 0
517 0
-917 0
-1017 1517 0
-1017 2017 0
-1017 517 0
-1017 -617 0
1017 -1517 -2017 -517 617 0
-17 117 -1517 0
17 1517 0
-117 1517 0
17 -117 -2017 0
-17 2017 0
117 2017 0
-1117 1617 0
-1117 2117 0
-1117 617 0
-1117 -717 0
1117 -1617 -2117 -617 717 0
-117 217 -1617 0
117 1617 0
-217 1617 0
117 -217 -2117 0
-117 2117 0
217 2117 0
-1217 1717 0
-1217 2217 0
-1217 717 0
-1217 -817 0
1217 -1717 -2217 -717 817 0
-217 317 -1717 0
217 1717 0
-317 1717 0
217 -317 -2217 0
-217 2217 0
317 2217 0
-1317 1817 0
-1317 2317 0
-1317 817 0
-1317 -917 0
1317 -1817 -2317 -817 917 0
-317 417 -1817 0
317 1817 0
-417 1817 0
317 -417 -2317 0
-317 2317 0
417 2317 0
2617 3117 0
2617 3617 0
-2617 -3117 -3617 0
-117 17 -3117 0
117 3117 0
-17 3117 0
117 -17 -3617 0
-117 3617 0
17 3617 0
2717 3217 0
2717 3717 0
-2717 -3217 -3717 0
-217 117 -3217 0
217 3217 0
-117 3217 0
217 -117 -3717 0
-217 3717 0
117 3717 0
2817 3317 0
2817 3817 0
-2817 -3317 -3817 0
-317 217 -3317 0
317 3317 0
-217 3317 0
317 -217 -3817 0
-317 3817 0
217 3817 0
2917 3417 0
2917 3917 0
-2917 -3417 -3917 0
-417 317 -3417 0
417 3417 0
-317 3417 0
417 -317 -3917 0
-417 3917 0
317 3917 0
518 0
-918 0
-1018 1518 0
-1018 2018 0
-1018 518 0
-1018 -618 0
1018 -1518 -2018 -518 618 0
-18 118 -1518 0
18 1518 0
-118 1518 0
18 -118 -2018 0
-18 2018 0
118 2018 0
-1118 1618 0
-1118 2118 0
-1118 618 0
-1118 -718 0
1118 -1618 -2118 -618 718 0
-118 218 -1618 0
118 1618 0
-218 1618 0
118 -218 -2118 0
-118 2118 0
218 2118 0
-1218 1718 0
-1218 2218 0
-1218 718 0
-1218 -818 0
1218 -1718 -2218 -718 818 0
-218 318 -1718 0
218 1718 0
-318 1718 0
218 -318 -2218 0
-218 2218 0
318 2218 0
-1318 1818 0
-1318 2318 0
-1318 818 0
-1318 -918 0
1318 -1818 -2318 -818 918 0
-318 418 -1818 0
318 1818 0
-418 1818 0
318 -418 -2318 0
-318 2318 0
418 2318 0
2618 3118 0
2618 3618 0
-2618 -3118 -3618 0
-118 18 -3118 0
118 3118 0
-18 3118 0
118 -18 -3618 0
-118 3618 0
18 3618 0
2718 3218 0
2718 3718 0
-2718 -3218 -3718 0
-218 118 -3218 0
218 3218 0
-118 3218 0
218 -118 -3718 0
-218 3718 0
118 3718 0
2818 3318 0
2818 3818 0
-2818 -3318 -3818 0
-318 218 -3318 0
318 3318 0
-218 3318 0
318 -218 -3818 0
-318 3818 0
218 3818 0
2918 3418 0
2918 3918 0
-2918 -3418 -3918 0
-418 318 -3418 0
418 3418 0
-318 3418 0
418 -318 -3918 0
-418 3918 0
318 3918 0
519 0
-919 0
-1019 1519 0
-1019 2019 0
-1019 519 0
-1019 -619 0
1019 -1519 -2019 -519 619 0
-19 119 -1519 0
19 1519 0
-119 1519 0
19 -119 -2019 0
-19 2019 0
119 2019 0
-1119 1619 0
-1119 2119 0
-1119 619 0
-1119 -719 0
1119 -1619 -2119 -619 719 0
-119 219 -1619 0
119 1619 0
-219 1619 0
119 -219 -2119 0
-119 2119 0
219 2119 0
-1219 1719 0
-1219 2219 0
-1219 719 0
-1219 -819 0
1219 -1719 -2219 -719 819 0
-219 319 -1719 0
219 1719 0
-319 1719 0
219 -319 -2219 0
-219 2219 0
319 2219 0
-1319 1819 0
-1319 2319 0
-1319 819 0
-1319 -919 0
1319 -1819 -2319 -819 919 0
-319 419 -1819 0
319 1819 0
-419 1819 0
319 -419 -2319 0
-319 2319 0
419 2319 0
2619 3119 0
2619 3619 0
-2619 -3119 -3619 0
-119 19 -3119 0
119 3119 0
-19 3119 0
119 -19 -3619 0
-119 3619 0
19 3619 0
2719 3219 0
2719 3719 0
-2719 -3219 -3719 0
-219 119 -3219 0
219 3219 0
-119 3219 0
219 -119 -3719 0
-219 3719 0
119 3719 0
2819 3319 0
2819 3819 0
-2819 -3319 -3819 0
-319 219 -3319 0
319 3319 0
-219 3319 0
319 -219 -3819 0
-319 3819 0
219 3819 0
2919 3419 0
2919 3919 0
-2919 -3419 -3919 0
-419 319 -3419 0
419 3419 0
-319 3419 0
419 -319 -3919 0
-419 3919 0
319 3919 0
520 0
-920 0
-1020 1520 0
-1020 2020 0
-1020 520 0
-1020 -620 0
1020 -1520 -2020 -520 620 0
-20 120 -1520 0
20 1520 0
-120 1520 0
20 -120 -2020 0
-20 2020 0
120 2020 0
-1120 1620 0
-1120 2120 0
-1120 620 0
-1120 -720 0
1120 -1620 -2120 -620 720 0
-120 220 -1620 0
120 1620 0
-220 1620 0
120 -220 -2120 0
-120 2120 0
220 2120 0
-1220 1720 0
-1220 2220 0
-1220 720 0
-1220 -820 0
1220 -1720 -2220 -720 820 0
-220 320 -1720 0
220 1720 0
-320 1720 0
220 -320 -2220 0
-220 2220 0
320 2220 0
-1320 1820 0
-1320 2320 0
-1320 820 0
-1320 -920 0
1320 -1820 -2320 -820 920 0
-320 420 -1820 0
320 1820 0
-420 1820 0
320 -420 -2320 0
-320 2320 0
420 2320 0
2620 3120 0
2620 3620 0
-2620 -3120 -3620 0
-120 20 -3120 0
120 3120 0
-20 3120 0
120 -20 -3620 0
-120 3620 0
20 3620 0
2720 3220 0
2720 3720 0
-2720 -3220 -3720 0
-220 120 -3220 0
220 3220 0
-120 3220 0
220 -120 -3720 0
-220 3720 0
120 3720 0
2820 3320 0
2820 3820 0
-2820 -3320 -3820 0
-320 220 -3320 0
320 3320 0
-220 3320 0
320 -220 -3820 0
-320 3820 0
220 3820 0
2920 3420 0
2920 3920 0
-2920 -3420 -3920 0
-420 320 -3420 0
420 3420 0
-320 3420 0
420 -320 -3920 0
-420 3920 0
320 3920 0
521 0
-921 0
-1021 1521 0
-1021 2021 0
-1021 521 0
-1021 -621 0
1021 -1521 -2021 -521 621 0
-21 121 -1521 0
21 1521 0
-121 1521 0
21 -121 -2021 0
-21 2021 0
121 2021 0
-1121 1621 0
-1121 2121 0
-1121 621 0
-1121 -721 0
1121 -1621 -2121 -621 721 0
-121 221 -1621 0
121 1621 0
-221 1621 0
121 -221 -2121 0
-121 2121 0
221 2121 0
-1221 1721 0
-1221 2221 0
-1221 721 0
-1221 -821 0
1221 -1721 -2221 -721 821 0
-221 321 -1721 0
221 1721 0
-321 1721 0
221 -321 -2221 0
-221 2221 0
321 2221 0
-1321 1821 0
-1321 2321 0
-1321 821 0
-1321 -921 0
1321 -1821 -2321 -821 921 0
-321 421 -1821 0
321 1821 0
-421 1821 0
321 -421 -2321 0
-321 2321 0
421 2321 0
2621 3121 0
2621 3621 0
-2621 -3121 -3621 0
-121 21 -3121 0
121 3121 0
-21 3121 0
121 -21 -3621 0
-121 3621 0
21 3621 0
2721 3221 0
2721 3721 0
-2721 -3221 -3721 0
-221 121 -3221 0
221 3221 0
-121 3221 0
221 -121 -3721 0
-221 3721 0
121 3721 0
2821 3321 0
2821 3821 0
-2821 -3321 -3821 0
-321 221 -3321 0
321 3321 0
-221 3321 0
321 -221 -3821 0
-321 3821 0
221 3821 0
2921 3421 0
2921 3921 0
-2921 -3421 -3921 0
-421 321 -3421 0
421 3421 0
-321 3421 0
421 -321 -3921 0
-421 3921 0
321 3921 0
522 0
-922 0
-1022 1522 0
-1022 2022 0
-1022 522 0
-1022 -622 0
1022 -1522 -2022 -522 622 0
-22 122 -1522 0
22 1522 0
-122 1522 0
22 -122 -2022 0
-22 2022 0
122 2022 0
-1122 1622 0
-1122 2122 0
-1122 622 0
-1122 -722 0
1122 -1622 -2122 -622 722 0
-122 222 -1622 0
122 1622 0
-222 1622 0
122 -222 -2122 0
-122 2122 0
222 2122 0
-1222 1722 0
-1222 2222 0
-1222 722 0
-1222 -822 0
1222 -1722 -2222 -722 822 0
-222 322 -1722 0
222 1722 0
-322 1722 0
222 -322 -2222 0
-222 2222 0
322 2222 0
-1322 1822 0
-1322 2322 0
-1322 822 0
-1322 -922 0
1322 -1822 -2322 -822 922 0
-322 422 -1822 0
322 1822 0
-422 1822 0
322 -422 -2322 0
-322 2322 0
422 2322 0
2622 3122 0
2622 3622 0
-2622 -3122 -3622 0
-122 22 -3122 0
122 3122 0
-22 3122 0
122 -22 -3622 0
-122 3622 0
22 3622 0
2722 3222 0
2722 3722 0
-2722 -3222 -3722 0
-222 122 -3222 0
222 3222 0
-122 3222 0
222 -122 -3722 0
-222 3722 0
122 3722 0
2822 3322 0
2822 3822 0
-2822 -3322 -3822 0
-322 222 -3322 0
322 3322 0
-222 3322 0
322 -222 -3822 0
-322 3822 0
222 3822 0
2922 3422 0
2922 3922 0
-2922 -3422 -3922 0
-422 322 -3422 0
422 3422 0
-322 3422 0
422 -322 -3922 0
-422 3922 0
322 3922 0
523 0
-923 0
-1023 1523 0
-1023 2023 0
-1023 523 0
-1023 -623 0
1023 -1523 -2023 -523 623 0
-23 123 -1523 0
23 1523 0
-123 1523 0
23 -123 -2023 0
-23 2023 0
123 2023 0
-1123 1623 0
-1123 2123 0
-1123 623 0
-1123 -723 0
1123 -1623 -2123 -623 723 0
-123 223 -1623 0
123 1623 0
-223 1623 0
123 -223 -2123 0
-123 2123 0
223 2123 0
-1223 1723 0
-1223 2223 0
-1223 723 0
-1223 -823 0
1223 -1723 -2223 -723 823 0
-223 323 -1723 0
223 1723 0
-323 1723 0
223 -323 -2223 0
-223 2223 0
323 2223 0
-1323 1823 0
-1323 2323 0
-1323 823 0
-1323 -923 0
1323 -1823 -2323 -823 923 0
-323 423 -1823 0
323 1823 0
-423 1823 0
323 -423 -2323 0
-323 2323 0
423 2323 0
2623 3123 0
2623 3623 0
-2623 -3123 -3623 0
-123 23 -3123 0
123 3123 0
-23 3123 0
123 -23 -3623 0
-123 3623 0
23 3623 0
2723 3223 0
2723 3723 0
-2723 -3223 -3723 0
-223 123 -3223 0
223 3223 0
-123 3223 0
223 -123 -3723 0
-223 3723 0
123 3723 0
2823 3323 0
2823 3823 0
-2823 -3323 -3823 0
-323 223 -3323 0
323 3323 0
-223 3323 0
323 -223 -3823 0
-323 3823 0
223 3823 0
2923 3423 0
2923 3923 0
-2923 -3423 -3923 0
-423 323 -3423 0
423 3423 0
-323 3423 0
423 -323 -3923 0
-423 3923 0
323 3923 0
524 0
-924 0
-1024 1524 0
-1024 2024 0
-1024 524 0
-1024 -624 0
1024 -1524 -2024 -524 624 0
-24 124 -1524 0
24 1524 0
-124 1524 0
24 -124 -2024 0
-24 2024 0
124 2024 0
-1124 1624 0
-1124 2124 0
-1124 624 0
-1124 -724 0
1124 -1624 -2124 -624 724 0
-124 224 -1624 0
124 1624 0
-224 1624 0
124 -224 -2124 0
-124 2124 0
224 2124 0
-1224 1724 0
-1224 2224 0
-1224 724 0
-1224 -824 0
1224 -1724 -2224 -724 824 0
-224 324 -1724 0
224 1724 0
-324 1724 0
224 -324 -2224 0
-224 2224 0
324 2224 0
-1324 1824 0
-1324 2324 0
-1324 824 0
-1324 -924 0
1324 -1824 -2324 -824 924 0
-324 424 -1824 0
324 1824 0
-424 1824 0
324 -424 -2324 0
-324 2324 0
424 2324 0
2624 3124 0
2624 3624 0
-2624 -3124 -3624 0
-124 24 -3124 0
124 3124 0
-24 3124 0
124 -24 -3624 0
-124 3624 0
24 3624 0
2724 3224 0
2724 3724 0
-2724 -3224 -3724 0
-224 124 -3224 0
224 3224 0
-124 3224 0
224 -124 -3724 0
-224 3724 0
124 3724 0
2824 3324 0
2824 3824 0
-2824 -3324 -3824 0
-324 224 -3324 0
324 3324 0
-224 3324 0
324 -224 -3824 0
-324 3824 0
224 3824 0
2924 3424 0
2924 3924 0
-2924 -3424 -3924 0
-424 324 -3424 0
424 3424 0
-324 3424 0
424 -324 -3924 0
-424 3924 0
324 3924 0
525 0
-925 0
-1025 1525 0
-1025 2025 0
-1025 525 0
-1025 -625 0
1025 -1525 -2025 -525 625 0
-25 125 -1525 0
25 1525 0
-125 1525 0
25 -125 -2025 0
-25 2025 0
125 2025 0
-1125 1625 0
-1125 2125 0
-1125 625 0
-1125 -725 0
1125 -1625 -2125 -625 725 0
-125 225 -1625 0
125 1625 0
-225 1625 0
125 -225 -2125 0
-125 2125 0
225 2125 0
-1225 1725 0
-1225 2225 0
-1225 725 0
-1225 -825 0
1225 -1725 -2225 -725 825 0
-225 325 -1725 0
225 1725 0
-325 1725 0
225 -325 -2225 0
-225 2225 0
325 2225 0
-1325 1825 0
-1325 2325 0
-1325 825 0
-1325 -925 0
1325 -1825 -2325 -825 925 0
-325 425 -1825 0
325 1825 0
-425 1825 0
325 -425 -2325 0
-325 2325 0
425 2325 0
2625 3125 0
2625 3625 0
-2625 -3125 -3625 0
-125 25 -3125 0
125 3125 0
-25 3125 0
125 -25 -3625 0
-125 3625 0
25 3625 0
2725 3225 0
2725 3725 0
-2725 -3225 -3725 0
-225 125 -3225 0
225 3225 0
-125 3225 0
225 -125 -3725 0
-225 3725 0
125 3725 0
2825 3325 0
2825 3825 0
-2825 -3325 -3825 0
-325 225 -3325 0
325 3325 0
-225 3325 0
325 -225 -3825 0
-325 3825 0
225 3825 0
2925 3425 0
2925 3925 0
-2925 -3425 -3925 0
-425 325 -3425 0
425 3425 0
-325 3425 0
425 -325 -3925 0
-425 3925 0
325 3925 0
526 0
-926 0
-1026 1526 0
-1026 2026 0
-1026 526 0
-1026 -626 0
1026 -1526 -2026 -526 626 0
-26 126 -1526 0
26 1526 0
-126 1526 0
26 -126 -2026 0
-26 2026 0
126 2026 0
-1126 1626 0
-1126 2126 0
-1126 626 0
-1126 -726 0
1126 -1626 -2126 -626 726 0
-126 226 -1626 0
126 1626 0
-226 1626 0
126 -226 -2126 0
-126 2126 0
226 2126 0
-1226 1726 0
-1226 2226 0
-1226 726 0
-1226 -826 0
1226 -1726 -2226 -726 826 0
-226 326 -1726 0
226 1726 0
-326 1726 0
226 -326 -2226 0
-226 2226 0
326 2226 0
-1326 1826 0
-1326 2326 0
-1326 826 0
-1326 -926 0
1326 -1826 -2326 -826 926 0
-326 426 -1826 0
326 1826 0
-426 1826 0
326 -426 -2326 0
-326 2326 0
426 2326 0
2626 3126 0
2626 3626 0
-2626 -3126 -3626 0
-126 26 -3126 0
126 3126 0
-26 3126 0
126 -26 -3626 0
-126 3626 0
26 3626 0
2726 3226 0
2726 3726 0
-2726 -3226 -3726 0
-226 126 -3226 0
226 3226 0
-126 3226 0
226 -126 -3726 0
-226 3726 0
126 3726 0
2826 3326 0
2826 3826 0
-2826 -3326 -3826 0
-326 226 -3326 0
326 3326 0
-226 3326 0
326 -226 -3826 0
-326 3826 0
226 3826 0
2926 3426 0
2926 3926 0
-2926 -3426 -3926 0
-426 326 -3426 0
426 3426 0
-326 3426 0
426 -326 -3926 0
-426 3926 0
326 3926 0
527 0
-927 0
-1027 1527 0
-1027 2027 0
-1027 527 0
-1027 -627 0
1027 -1527 -2027 -527 627 0
-27 127 -1527 0
27 1527 0
-127 1527 0
27 -127 -2027 0
-27 2027 0
127 2027 0
-1127 1627 0
-1127 2127 0
-1127 627 0
-1127 -727 0
1127 -1627 -2127 -627 727 0
-127 227 -1627 0
127 1627 0
-227 1627 0
127 -227 -2127 0
-127 2127 0
227 2127 0
-1227 1727 0
-1227 2227 0
-1227 727 0
-1227 -827 0
1227 -1727 -2227 -727 827 0
-227 327 -1727 0
227 1727 0
-327 1727 0
227 -327 -2227 0
-227 2227 0
327 2227 0
-1327 1827 0
-1327 2327 0
-1327 827 0
-1327 -927 0
1327 -1827 -2327 -827 927 0
-327 427 -1827 0
327 1827 0
-427 1827 0
327 -427 -2327 0
-327 2327 0
427 2327 0
2627 3127 0
2627 3627 0
-2627 -3127 -3627 0
-127 27 -3127 0
127 3127 0
-27 3127 0
127 -27 -3627 0
-127 3627 0
27 3627 0
2727 3227 0
2727 3727 0
-2727 -3227 -3727 0
-227 127 -3227 0
227 3227 0
-127 3227 0
227 -127 -3727 0
-227 3727 0
127 3727 0
2827 3327 0
2827 3827 0
-2827 -3327 -3827 0
-327 227 -3327 0
327 3327 0
-227 3327 0
327 -227 -3827 0
-327 3827 0
227 3827 0
2927 3427 0
2927 3927 0
-2927 -3427 -3927 0
-427 327 -3427 0
427 3427 0
-327 3427 0
427 -327 -3927 0
-427 3927 0
327 3927 0
528 0
-928 0
-1028 1528 0
-1028 2028 0
-1028 528 0
-1028 -628 0
1028 -1528 -2028 -528 628 0
-28 128 -1528 0
28 1528 0
-128 1528 0
28 -128 -2028 0
-28 2028 0
128 2028 0
-1128 1628 0
-1128 2128 0
-1128 628 0
-1128 -728 0
1128 -1628 -2128 -628 728 0
-128 228 -1628 0
128 1628 0
-228 1628 0
128 -228 -2128 0
-128 2128 0
228 2128 0
-1228 1728 0
-1228 2228 0
-1228 728 0
-1228 -828 0
1228 -1728 -2228 -728 828 0
-228 328 -1728 0
228 1728 0
-328 1728 0
228 -328 -2228 0
-228 2228 0
328 2228 0
-1328 1828 0
-1328 2328 0
-1328 828 0
-1328 -928 0
1328 -1828 -2328 -828 928 0
-328 428 -1828 0
328 1828 0
-428 1828 0
328 -428 -2328 0
-328 2328 0
428 2328 0
2628 3128 0
2628 3628 0
-2628 -3128 -3628 0
-128 28 -3128 0
128 3128 0
-28 3128 0
128 -28 -3628 0
-128 3628 0
28 3628 0
2728 3228 0
2728 3728 0
-2728 -3228 -3728 0
-228 128 -3228 0
228 3228 0
-128 3228 0
228 -128 -3728 0
-228 3728 0
128 3728 0
2828 3328 0
2828 3828 0
-2828 -3328 -3828 0
-328 228 -3328 0
328 3328 0
-228 3328 0
328 -228 -3828 0
-328 3828 0
228 3828 0
2928 3428 0
2928 3928 0
-2928 -3428 -3928 0
-428 328 -3428 0
428 3428 0
-328 3428 0
428 -328 -3928 0
-428 3928 0
328 3928 0
529 0
-929 0
-1029 1529 0
-1029 2029 0
-1029 529 0
-1029 -629 0
1029 -1529 -2029 -529 629 0
-29 129 -1529 0
29 1529 0
-129 1529 0
29 -129 -2029 0
-29 2029 0
129 2029 0
-1129 1629 0
-1129 2129 0
-1129 629 0
-1129 -729 0
1129 -1629 -2129 -629 729 0
-129 229 -1629 0
129 1629 0
-229 1629 0
129 -229 -2129 0
-129 2129 0
229 2129 0
-1229 1729 0
-1229 2229 0
-1229 729 0
-1229 -829 0
1229 -1729 -2229 -729 829 0
-229 329 -1729 0
229 1729 0
-329 1729 0
229 -329 -2229 0
-229 2229 0
329 2229 0
-1329 1829 0
-1329 2329 0
-1329 829 0
-1329 -929 0
1329 -1829 -2329 -829 929 0
-329 429 -1829 0
329 1829 0
-429 1829 0
329 -429 -2329 0
-329 2329 0
429 2329 0
2629 3129 0
2629 3629 0
-2629 -3129 -3629 0
-129 29 -3129 0
129 3129 0
-29 3129 0
129 -29 -3629 0
-129 3629 0
29 3629 0
2729 3229 0
2729 3729 0
-2729 -3229 -3729 0
-229 129 -3229 0
229 3229 0
-129 3229 0
229 -129 -3729 0
-229 3729 0
129 3729 0
2829 3329 0
2829 3829 0
-2829 -3329 -3829 0
-329 229 -3329 0
329 3329 0
-229 3329 0
329 -229 -3829 0
-329 3829 0
229 3829 0
2929 3429 0
2929 3929 0
-2929 -3429 -3929 0
-429 329 -3429 0
429 3429 0
-329 3429 0
429 -329 -3929 0
-429 3929 0
329 3929 0
530 0
-930 0
-1030 1530 0
-1030 2030 0
-1030 530 0
-1030 -630 0
1030 -1530 -2030 -530 630 0
-30 130 -1530 0
30 1530 0
-130 1530 0
30 -130 -2030 0
-30 2030 0
130 2030 0
-1130 1630 0
-1130 2130 0
-1130 630 0
-1130 -730 0
1130 -1630 -2130 -630 730 0
-130 230 -1630 0
130 1630 0
-230 1630 0
130 -230 -2130 0
-130 2130 0
230 2130 0
-1230 1730 0
-1230 2230 0
-1230 730 0
-1230 -830 0
1230 -1730 -2230 -730 830 0
-230 330 -1730 0
230 1730 0
-330 1730 0
230 -330 -2230 0
-230 2230 0
330 2230 0
-1330 1830 0
-1330 2330 0
-1330 830 0
-1330 -930 0
1330 -1830 -2330 -830 930 0
-330 430 -1830 0
330 1830 0
-430 1830 0
330 -430 -2330 0
-330 2330 0
430 2330 0
2630 3130 0
2630 3630 0
-2630 -3130 -3630 0
-130 30 -3130 0
130 3130 0
-30 3130 0
130 -30 -3630 0
-130 3630 0
30 3630 0
2730 3230 0
2730 3730 0
-2730 -3230 -3730 0
-230 130 -3230 0
230 3230 0
-130 3230 0
230 -130 -3730 0
-230 3730 0
130 3730 0
2830 3330 0
2830 3830 0
-2830 -3330 -3830 0
-330 230 -3330 0
330 3330 0
-230 3330 0
330 -230 -3830 0
-330 3830 0
230 3830 0
2930 3430 0
2930 3930 0
-2930 -3430 -3930 0
-430 330 -3430 0
430 3430 0
-330 3430 0
430 -330 -3930 0
-430 3930 0
330 3930 0
531 0
-931 0
-1031 1531 0
-1031 2031 0
-1031 531 0
-1031 -631 0
1031 -1531 -2031 -531 631 0
-31 131 -1531 0
31 1531 0
-131 1531 0
31 -131 -2031 0
-31 2031 0
131 2031 0
-1131 1631 0
-1131 2131 0
-1131 631 0
-1131 -731 0
1131 -1631 -2131 -631 731 0
-131 231 -1631 0
131 1631 0
-231 1631 0
131 -231 -2131 0
-131 2131 0
231 2131 0
-1231 1731 0
-1231 2231 0
-1231 731 0
-1231 -831 0
1231 -1731 -2231 -731 831 0
-231 331 -1731 0
231 1731 0
-331 1731 0
231 -331 -2231 0
-231 2231 0
331 2231 0
-1331 1831 0
-1331 2331 0
-1331 831 0
-1331 -931 0
1331 -1831 -2331 -831 931 0
-331 431 -1831 0
331 1831 0
-431 1831 0
331 -431 -2331 0
-331 2331 0
431 2331 0
2631 3131 0
2631 3631 0
-2631 -3131 -3631 0
-131 31 -3131 0
131 3131 0
-31 3131 0
131 -31 -3631 0
-131 3631 0
31 3631 0
2731 3231 0
2731 3731 0
-2731 -3231 -3731 0
-231 131 -3231 0
231 3231 0
-131 3231 0
231 -131 -3731 0
-231 3731 0
131 3731 0
2831 3331 0
2831 3831 0
-2831 -3331 -3831 0
-331 231 -3331 0
331 3331 0
-231 3331 0
331 -231 -3831 0
-331 3831 0
231 3831 0
2931 3431 0
2931 3931 0
-2931 -3431 -3931 0
-431 331 -3431 0
431 3431 0
-331 3431 0
431 -331 -3931 0
-431 3931 0
331 3931 0
532 0
-932 0
-1032 1532 0
-1032 2032 0
-1032 532 0
-1032 -632 0
1032 -1532 -2032 -532 632 0
-32 132 -1532 0
32 1532 0
-132 1532 0
32 -132 -2032 0
-32 2032 0
132 2032 0
-1132 1632 0
-1132 2132 0
-1132 632 0
-1132 -732 0
1132 -1632 -2132 -632 732 0
-132 232 -1632 0
132 1632 0
-232 1632 0
132 -232 -2132 0
-132 2132 0
232 2132 0
-1232 1732 0
-1232 2232 0
-1232 732 0
-1232 -832 0
1232 -1732 -2232 -732 832 0
-232 332 -1732 0
232 1732 0
-332 1732 0
232 -332 -2232 0
-232 2232 0
332 2232 0
-1332 1832 0
-1332 2332 0
-1332 832 0
-1332 -932 0
1332 -1832 -2332 -832 932 0
-332 432 -1832 0
332 1832 0
-432 1832 0
332 -432 -2332 0
-332 2332 0
432 2332 0
2632 3132 0
2632 3632 0
-2632 -3132 -3632 0
-132 32 -3132 0
132 3132 0
-32 3132 0
132 -32 -3632 0
-132 3632 0
32 3632 0
2732 3232 0
2732 3732 0
-2732 -3232 -3732 0
-232 132 -3232 0
232 3232 0
-132 3232 0
232 -132 -3732 0
-232 3732 0
132 3732 0
2832 3332 0
2832 3832 0
-2832 -3332 -3832 0
-332 232 -3332 0
332 3332 0
-232 3332 0
332 -232 -3832 0
-332 3832 0
232 3832 0
2932 3432 0
2932 3932 0
-2932 -3432 -3932 0
-432 332 -3432 0
432 3432 0
-332 3432 0
432 -332 -3932 0
-432 3932 0
332 3932 0
533 0
-933 0
-1033 1533 0
-1033 2033 0
-1033 533 0
-1033 -633 0
1033 -1533 -2033 -533 633 0
-33 133 -1533 0
33 1533 0
-133 1533 0
33 -133 -2033 0
-33 2033 0
133 2033 0
-1133 1633 0
-1133 2133 0
-1133 633 0
-1133 -733 0
1133 -1633 -2133 -633 733 0
-133 233 -1633 0
133 1633 0
-233 1633 0
133 -233 -2133 0
-133 2133 0
233 2133 0
-1233 1733 0
-1233 2233 0
-1233 733 0
-1233 -833 0
1233 -1733 -2233 -733 833 0
-233 333 -1733 0
233 1733 0
-333 1733 0
233 -333 -2233 0
-233 2233 0
333 2233 0
-1333 1833 0
-1333 2333 0
-1333 833 0
-1333 -933 0
1333 -1833 -2333 -833 933 0
-333 433 -1833 0
333 1833 0
-433 1833 0
333 -433 -2333 0
-333 2333 0
433 2333 0
2633 3133 0
2633 3633 0
-2633 -3133 -3633 0
-133 33 -3133 0
133 3133 0
-33 3133 0
133 -33 -3633 0
-133 3633 0
33 3633 0
2733 3233 0
2733 3733 0
-2733 -3233 -3733 0
-233 133 -3233 0
233 3233 0
-133 3233 0
233 -133 -3733 0
-233 3733 0
133 3733 0
2833 3333 0
2833 3833 0
-2833 -3333 -3833 0
-333 233 -3333 0
333 3333 0
-233 3333 0
333 -233 -3833 0
-333 3833 0
233 3833 0
2933 3433 0
2933 3933 0
-2933 -3433 -3933 0
-433 333 -3433 0
433 3433 0
-333 3433 0
433 -333 -3933 0
-433 3933 0
333 3933 0
534 0
-934 0
-1034 1534 0
-1034 2034 0
-1034 534 0
-1034 -634 0
1034 -1534 -2034 -534 634 0
-34 134 -1534 0
34 1534 0
-134 1534 0
34 -134 -2034 0
-34 2034 0
134 2034 0
-1134 1634 0
-1134 2134 0
-1134 634 0
-1134 -734 0
1134 -1634 -2134 -634 734 0
-134 234 -1634 0
134 1634 0
-234 1634 0
134 -234 -2134 0
-134 2134 0
234 2134 0
-1234 1734 0
-1234 2234 0
-1234 734 0
-1234 -834 0
1234 -1734 -2234 -734 834 0
-234 334 -1734 0
234 1734 0
-334 1734 0
234 -334 -2234 0
-234 2234 0
334 2234 0
-1334 1834 0
-1334 2334 0
-1334 834 0
-1334 -934 0
1334 -1834 -2334 -834 934 0
-334 434 -1834 0
334 1834 0
-434 1834 0
334 -434 -2334 0
-334 2334 0
434 2334 0
2634 3134 0
2634 3634 0
-2634 -3134 -3634 0
-134 34 -3134 0
134 3134 0
-34 3134 0
134 -34 -3634 0
-134 3634 0
34 3634 0
2734 3234 0
2734 3734 0
-2734 -3234 -3734 0
-234 134 -3234 0
234 3234 0
-134 3234 0
234 -134 -3734 0
-234 3734 0
134 3734 0
2834 3334 0
2834 3834 0
-2834 -3334 -3834 0
-334 234 -3334 0
334 3334 0
-234 3334 0
334 -234 -3834 0
-334 3834 0
234 3834 0
2934 3434 0
2934 3934 0
-2934 -3434 -3934 0
-434 334 -3434 0
434 3434 0
-334 3434 0
434 -334 -3934 0
-434 3934 0
334 3934 0
535 0
-935 0
-1035 1535 0
-1035 2035 0
-1035 535 0
-1035 -635 0
1035 -1535 -2035 -535 635 0
-35 135 -1535 0
35 1535 0
-135 1535 0
35 -135 -2035 0
-35 2035 0
135 2035 0
-1135 1635 0
-1135 2135 0
-1135 635 0
-1135 -735 0
1135 -1635 -2135 -635 735 0
-135 235 -1635 0
135 1635 0
-235 1635 0
135 -235 -2135 0
-135 2135 0
235 2135 0
-1235 1735 0
-1235 2235 0
-1235 735 0
-1235 -835 0
1235 -1735 -2235 -735 835 0
-235 335 -1735 0
235 1735 0
-335 1735 0
235 -335 -2235 0
-235 2235 0
335 2235 0
-1335 1835 0
-1335 2335 0
-1335 835 0
-1335 -935 0
1335 -1835 -2335 -835 935 0
-335 435 -1835 0
335 1835 0
-435 1835 0
335 -435 -2335 0
-335 2335 0
435 2335 0
2635 3135 0
2635 3635 0
-2635 -3135 -3635 0
-135 35 -3135 0
135 3135 0
-35 3135 0
135 -35 -3635 0
-135 3635 0
35 3635 0
2735 3235 0
2735 3735 0
-2735 -3235 -3735 0
-235 135 -3235 0
235 3235 0
-135 3235 0
235 -135 -3735 0
-235 3735 0
135 3735 0
2835 3335 0
2835 3835 0
-2835 -3335 -3835 0
-335 235 -3335 0
335 3335 0
-235 3335 0
335 -235 -3835 0
-335 3835 0
235 3835 0
2935 3435 0
2935 3935 0
-2935 -3435 -3935 0
-435 335 -3435 0
435 3435 0
-335 3435 0
435 -335 -3935 0
-435 3935 0
335 3935 0
536 0
-936 0
-1036 1536 0
-1036 2036 0
-1036 536 0
-1036 -636 0
1036 -1536 -2036 -536 636 0
-36 136 -1536 0
36 1536 0
-136 1536 0
36 -136 -2036 0
-36 2036 0
136 2036 0
-1136 1636 0
-1136 2136 0
-1136 636 0
-1136 -736 0
1136 -1636 -2136 -636 736 0
-136 236 -1636 0
136 1636 0
-236 1636 0
136 -236 -2136 0
-136 2136 0
236 2136 0
-1236 1736 0
-1236 2236 0
-1236 736 0
-1236 -836 0
1236 -1736 -2236 -736 836 0
-236 336 -1736 0
236 1736 0
-336 1736 0
236 -336 -2236 0
-236 2236 0
336 2236 0
-1336 1836 0
-1336 2336 0
-1336 836 0
-1336 -936 0
1336 -1836 -2336 -836 936 0
-336 436 -1836 0
336 1836 0
-436 1836 0
336 -436 -2336 0
-336 2336 0
436 2336 0
2636 3136 0
2636 3636 0
-2636 -3136 -3636 0
-136 36 -3136 0
136 3136 0
-36 3136 0
136 -36 -3636 0
-136 3636 0
36 3636 0
2736 3236 0
2736 3736 0
-2736 -3236 -3736 0
-236 136 -3236 0
236 3236 0
-136 3236 0
236 -136 -3736 0
-236 3736 0
136 3736 0
2836 3336 0
2836 3836 0
-2836 -3336 -3836 0
-336 236 -3336 0
336 3336 0
-236 3336 0
336 -236 -3836 0
-336 3836 0
236 3836 0
2936 3436 0
2936 3936 0
-2936 -3436 -3936 0
-436 336 -3436 0
436 3436 0
-336 3436 0
436 -336 -3936 0
-436 3936 0
336 3936 0
537 0
-937 0
-1037 1537 0
-1037 2037 0
-1037 537 0
-1037 -637 0
1037 -1537 -2037 -537 637 0
-37 137 -1537 0
37 1537 0
-137 1537 0
37 -137 -2037 0
-37 2037 0
137 2037 0
-1137 1637 0
-1137 2137 0
-1137 637 0
-1137 -737 0
1137 -1637 -2137 -637 737 0
-137 237 -1637 0
137 1637 0
-237 1637 0
137 -237 -2137 0
-137 2137 0
237 2137 0
-1237 1737 0
-1237 2237 0
-1237 737 0
-1237 -837 0
1237 -1737 -2237 -737 837 0
-237 337 -1737 0
237 1737 0
-337 1737 0
237 -337 -2237 0
-237 2237 0
337 2237 0
-1337 1837 0
-1337 2337 0
-1337 837 0
-1337 -937 0
1337 -1837 -2337 -837 937 0
-337 437 -1837 0
337 1837 0
-437 1837 0
337 -437 -2337 0
-337 2337 0
437 2337 0
2637 3137 0
2637 3637 0
-2637 -3137 -3637 0
-137 37 -3137 0
137 3137 0
-37 3137 0
137 -37 -3637 0
-137 3637 0
37 3637 0
2737 3237 0
2737 3737 0
-2737 -3237 -3737 0
-237 137 -3237 0
237 3237 0
-137 3237 0
237 -137 -3737 0
-237 3737 0
137 3737 0
2837 3337 0
2837 3837 0
-2837 -3337 -3837 0
-337 237 -3337 0
337 3337 0
-237 3337 0
337 -237 -3837 0
-337 3837 0
237 3837 0
2937 3437 0
2937 3937 0
-2937 -3437 -3937 0
-437 337 -3437 0
437 3437 0
-337 3437 0
437 -337 -3937 0
-437 3937 0
337 3937 0
538 0
-938 0
-1038 1538 0
-1038 2038 0
-1038 538 0
-1038 -638 0
1038 -1538 -2038 -538 638 0
-38 138 -1538 0
38 1538 0
-138 1538 0
38 -138 -2038 0
-38 2038 0
138 2038 0
-1138 1638 0
-1138 2138 0
-1138 638 0
-1138 -738 0
1138 -1638 -2138 -638 738 0
-138 238 -1638 0
138 1638 0
-238 1638 0
138 -238 -2138 0
-138 2138 0
238 2138 0
-1238 1738 0
-1238 2238 0
-1238 738 0
-1238 -838 0
1238 -1738 -2238 -738 838 0
-238 338 -1738 0
238 1738 0
-338 1738 0
238 -338 -2238 0
-238 2238 0
338 2238 0
-1338 1838 0
-1338 2338 0
-1338 838 0
-1338 -938 0
1338 -1838 -2338 -838 938 0
-338 438 -1838 0
338 1838 0
-438 1838 0
338 -438 -2338 0
-338 2338 0
438 2338 0
2638 3138 0
2638 3638 0
-2638 -3138 -3638 0
-138 38 -3138 0
138 3138 0
-38 3138 0
138 -38 -3638 0
-138 3638 0
38 3638 0
2738 3238 0
2738 3738 0
-2738 -3238 -3738 0
-238 138 -3238 0
238 3238 0
-138 3238 0
238 -138 -3738 0
-238 3738 0
138 3738 0
2838 3338 0
2838 3838 0
-2838 -3338 -3838 0
-338 238 -3338 0
338 3338 0
-238 3338 0
338 -238 -3838 0
-338 3838 0
238 3838 0
2938 3438 0
2938 3938 0
-2938 -3438 -3938 0
-438 338 -3438 0
438 3438 0
-338 3438 0
438 -338 -3938 0
-438 3938 0
338 3938 0
539 0
-939 0
-1039 1539 0
-1039 2039 0
-1039 539 0
-1039 -639 0
1039 -1539 -2039 -539 639 0
-39 139 -1539 0
39 1539 0
-139 1539 0
39 -139 -2039 0
-39 2039 0
139 2039 0
-1139 1639 0
-1139 2139 0
-1139 639 0
-1139 -739 0
1139 -1639 -2139 -639 739 0
-139 239 -1639 0
139 1639 0
-239 1639 0
139 -239 -2139 0
-139 2139 0
239 2139 0
-1239 1739 0
-1239 2239 0
-1239 739 0
-1239 -839 0
1239 -1739 -2239 -739 839 0
-239 339 -1739 0
239 1739 0
-339 1739 0
239 -339 -2239 0
-239 2239 0
339 2239 0
-1339 1839 0
-1339 2339 0
-1339 839 0
-1339 -939 0
1339 -1839 -2339 -839 939 0
-339 439 -1839 0
339 1839 0
-439 1839 0
339 -439 -2339 0
-339 2339 0
439 2339 0
2639 3139 0
2639 3639 0
-2639 -3139 -3639 0
-139 39 -3139 0
139 3139 0
-39 3139 0
139 -39 -3639 0
-139 3639 0
39 3639 0
2739 3239 0
2739 3739 0
-2739 -3239 -3739 0
-239 139 -3239 0
239 3239 0
-139 3239 0
239 -139 -3739 0
-239 3739 0
139 3739 0
2839 3339 0
2839 3839 0
-2839 -3339 -3839 0
-339 239 -3339 0
339 3339 0
-239 3339 0
339 -239 -3839 0
-339 3839 0
239 3839 0
2939 3439 0
2939 3939 0
-2939 -3439 -3939 0
-439 339 -3439 0
439 3439 0
-339 3439 0
439 -339 -3939 0
-439 3939 0
339 3939 0
540 0
-940 0
-1040 1540 0
-1040 2040 0
-1040 540 0
-1040 -640 0
1040 -1540 -2040 -540 640 0
-40 140 -1540 0
40 1540 0
-140 1540 0
40 -140 -2040 0
-40 2040 0
140 2040 0
-1140 1640 0
-1140 2140 0
-1140 640 0
-1140 -740 0
1140 -1640 -2140 -640 740 0
-140 240 -1640 0
140 1640 0
-240 1640 0
140 -240 -2140 0
-140 2140 0
240 2140 0
-1240 1740 0
-1240 2240 0
-1240 740 0
-1240 -840 0
1240 -1740 -2240 -740 840 0
-240 340 -1740 0
240 1740 0
-340 1740 0
240 -340 -2240 0
-240 2240 0
340 2240 0
-1340 1840 0
-1340 2340 0
-1340 840 0
-1340 -940 0
1340 -1840 -2340 -840 940 0
-340 440 -1840 0
340 1840 0
-440 1840 0
340 -440 -2340 0
-340 2340 0
440 2340 0
2640 3140 0
2640 3640 0
-2640 -3140 -3640 0
-140 40 -3140 0
140 3140 0
-40 3140 0
140 -40 -3640 0
-140 3640 0
40 3640 0
2740 3240 0
2740 3740 0
-2740 -3240 -3740 0
-240 140 -3240 0
240 3240 0
-140 3240 0
240 -140 -3740 0
-240 3740 0
140 3740 0
2840 3340 0
2840 3840 0
-2840 -3340 -3840 0
-340 240 -3340 0
340 3340 0
-240 3340 0
340 -240 -3840 0
-340 3840 0
240 3840 0
2940 3440 0
2940 3940 0
-2940 -3440 -3940 0
-440 340 -3440 0
440 3440 0
-340 3440 0
440 -340 -3940 0
-440 3940 0
340 3940 0
541 0
-941 0
-1041 1541 0
-1041 2041 0
-1041 541 0
-1041 -641 0
1041 -1541 -2041 -541 641 0
-41 141 -1541 0
41 1541 0
-141 1541 0
41 -141 -2041 0
-41 2041 0
141 2041 0
-1141 1641 0
-1141 2141 0
-1141 641 0
-1141 -741 0
1141 -1641 -2141 -641 741 0
-141 241 -1641 0
141 1641 0
-241 1641 0
141 -241 -2141 0
-141 2141 0
241 2141 0
-1241 1741 0
-1241 2241 0
-1241 741 0
-1241 -841 0
1241 -1741 -2241 -741 841 0
-241 341 -1741 0
241 1741 0
-341 1741 0
241 -341 -2241 0
-241 2241 0
341 2241 0
-1341 1841 0
-1341 2341 0
-1341 841 0
-1341 -941 0
1341 -1841 -2341 -841 941 0
-341 441 -1841 0
341 1841 0
-441 1841 0
341 -441 -2341 0
-341 2341 0
441 2341 0
2641 3141 0
2641 3641 0
-2641 -3141 -3641 0
-141 41 -3141 0
141 3141 0
-41 3141 0
141 -41 -3641 0
-141 3641 0
41 3641 0
2741 3241 0
2741 3741 0
-2741 -3241 -3741 0
-241 141 -3241 0
241 3241 0
-141 3241 0
241 -141 -3741 0
-241 3741 0
141 3741 0
2841 3341 0
2841 3841 0
-2841 -3341 -3841 0
-341 241 -3341 0
341 3341 0
-241 3341 0
341 -241 -3841 0
-341 3841 0
241 3841 0
2941 3441 0
2941 3941 0
-2941 -3441 -3941 0
-441 341 -3441 0
441 3441 0
-341 3441 0
441 -341 -3941 0
-441 3941 0
341 3941 0
542 0
-942 0
-1042 1542 0
-1042 2042 0
-1042 542 0
-1042 -642 0
1042 -1542 -2042 -542 642 0
-42 142 -1542 0
42 1542 0
-142 1542 0
42 -142 -2042 0
-42 2042 0
142 2042 0
-1142 1642 0
-1142 2142 0
-1142 642 0
-1142 -742 0
1142 -1642 -2142 -642 742 0
-142 242 -1642 0
142 1642 0
-242 1642 0
142 -242 -2142 0
-142 2142 0
242 2142 0
-1242 1742 0
-1242 2242 0
-1242 742 0
-1242 -842 0
1242 -1742 -2242 -742 842 0
-242 342 -1742 0
242 1742 0
-342 1742 0
242 -342 -2242 0
-242 2242 0
342 2242 0
-1342 1842 0
-1342 2342 0
-1342 842 0
-1342 -942 0
1342 -1842 -2342 -842 942 0
-342 442 -1842 0
342 1842 0
-442 1842 0
342 -442 -2342 0
-342 2342 0
442 2342 0
2642 3142 0
2642 3642 0
-2642 -3142 -3642 0
-142 42 -3142 0
142 3142 0
-42 3142 0
142 -42 -3642 0
-142 3642 0
42 3642 0
2742 3242 0
2742 3742 0
-2742 -3242 -3742 0
-242 142 -3242 0
242 3242 0
-142 3242 0
242 -142 -3742 0
-242 3742 0
142 3742 0
2842 3342 0
2842 3842 0
-2842 -3342 -3842 0
-342 242 -3342 0
342 3342 0
-242 3342 0
342 -242 -3842 0
-342 3842 0
242 3842 0
2942 3442 0
2942 3942 0
-2942 -3442 -3942 0
-442 342 -3442 0
442 3442 0
-342 3442 0
442 -342 -3942 0
-442 3942 0
342 3942 0
543 0
-943 0
-1043 1543 0
-1043 2043 0
-1043 543 0
-1043 -643 0
1043 -1543 -2043 -543 643 0
-43 143 -1543 0
43 1543 0
-143 1543 0
43 -143 -2043 0
-43 2043 0
143 2043 0
-1143 1643 0
-1143 2143 0
-1143 643 0
-1143 -743 0
1143 -1643 -2143 -643 743 0
-143 243 -1643 0
143 1643 0
-243 1643 0
143 -243 -2143 0
-143 2143 0
243 2143 0
-1243 1743 0
-1243 2243 0
-1243 743 0
-1243 -843 0
1243 -1743 -2243 -743 843 0
-243 343 -1743 0
243 1743 0
-343 1743 0
243 -343 -2243 0
-243 2243 0
343 2243 0
-1343 1843 0
-1343 2343 0
-1343 843 0
-1343 -943 0
1343 -1843 -2343 -843 943 0
-343 443 -1843 0
343 1843 0
-443 1843 0
343 -443 -2343 0
-343 2343 0
443 2343 0
2643 3143 0
2643 3643 0
-2643 -3143 -3643 0
-143 43 -3143 0
143 3143 0
-43 3143 0
143 -43 -3643 0
-143 3643 0
43 3643 0
2743 3243 0
2743 3743 0
-2743 -3243 -3743 0
-243 143 -3243 0
243 3243 0
-143 3243 0
243 -143 -3743 0
-243 3743 0
143 3743 0
2843 3343 0
2843 3843 0
-2843 -3343 -3843 0
-343 243 -3343 0
343 3343 0
-243 3343 0
343 -243 -3843 0
-343 3843 0
243 3843 0
2943 3443 0
2943 3943 0
-2943 -3443 -3943 0
-443 343 -3443 0
443 3443 0
-343 3443 0
443 -343 -3943 0
-443 3943 0
343 3943 0
544 0
-944 0
-1044 1544 0
-1044 2044 0
-1044 544 0
-1044 -644 0
1044 -1544 -2044 -544 644 0
-44 144 -1544 0
44 1544 0
-144 1544 0
44 -144 -2044 0
-44 2044 0
144 2044 0
-1144 1644 0
-1144 2144 0
-1144 644 0
-1144 -744 0
1144 -1644 -2144 -644 744 0
-144 244 -1644 0
144 1644 0
-244 1644 0
144 -244 -2144 0
-144 2144 0
244 2144 0
-1244 1744 0
-1244 2244 0
-1244 744 0
-1244 -844 0
1244 -1744 -2244 -744 844 0
-244 344 -1744 0
244 1744 0
-344 1744 0
244 -344 -2244 0
-244 2244 0
344 2244 0
-1344 1844 0
-1344 2344 0
-1344 844 0
-1344 -944 0
1344 -1844 -2344 -844 944 0
-344 444 -1844 0
344 1844 0
-444 1844 0
344 -444 -2344 0
-344 2344 0
444 2344 0
2644 3144 0
2644 3644 0
-2644 -3144 -3644 0
-144 44 -3144 0
144 3144 0
-44 3144 0
144 -44 -3644 0
-144 3644 0
44 3644 0
2744 3244 0
2744 3744 0
-2744 -3244 -3744 0
-244 144 -3244 0
244 3244 0
-144 3244 0
244 -144 -3744 0
-244 3744 0
144 3744 0
2844 3344 0
2844 3844 0
-2844 -3344 -3844 0
-344 244 -3344 0
344 3344 0
-244 3344 0
344 -244 -3844 0
-344 3844 0
244 3844 0
2944 3444 0
2944 3944 0
-2944 -3444 -3944 0
-444 344 -3444 0
444 3444 0
-344 3444 0
444 -344 -3944 0
-444 3944 0
344 3944 0
545 0
-945 0
-1045 1545 0
-1045 2045 0
-1045 545 0
-1045 -645 0
1045 -1545 -2045 -545 645 0
-45 145 -1545 0
45 1545 0
-145 1545 0
45 -145 -2045 0
-45 2045 0
145 2045 0
-1145 1645 0
-1145 2145 0
-1145 645 0
-1145 -745 0
1145 -1645 -2145 -645 745 0
-145 245 -1645 0
145 1645 0
-245 1645 0
145 -245 -2145 0
-145 2145 0
245 2145 0
-1245 1745 0
-1245 2245 0
-1245 745 0
-1245 -845 0
1245 -1745 -2245 -745 845 0
-245 345 -1745 0
245 1745 0
-345 1745 0
245 -345 -2245 0
-245 2245 0
345 2245 0
-1345 1845 0
-1345 2345 0
-1345 845 0
-1345 -945 0
1345 -1845 -2345 -845 945 0
-345 445 -1845 0
345 1845 0
-445 1845 0
345 -445 -2345 0
-345 2345 0
445 2345 0
2645 3145 0
2645 3645 0
-2645 -3145 -3645 0
-145 45 -3145 0
145 3145 0
-45 3145 0
145 -45 -3645 0
-145 3645 0
45 3645 0
2745 3245 0
2745 3745 0
-2745 -3245 -3745 0
-245 145 -3245 0
245 3245 0
-145 3245 0
245 -145 -3745 0
-245 3745 0
145 3745 0
2845 3345 0
2845 3845 0
-2845 -3345 -3845 0
-345 245 -3345 0
345 3345 0
-245 3345 0
345 -245 -3845 0
-345 3845 0
245 3845 0
2945 3445 0
2945 3945 0
-2945 -3445 -3945 0
-445 345 -3445 0
445 3445 0
-345 3445 0
445 -345 -3945 0
-445 3945 0
345 3945 0
546 0
-946 0
-1046 1546 0
-1046 2046 0
-1046 546 0
-1046 -646 0
1046 -1546 -2046 -546 646 0
-46 146 -1546 0
46 1546 0
-146 1546 0
46 -146 -2046 0
-46 2046 0
146 2046 0
-1146 1646 0
-1146 2146 0
-1146 646 0
-1146 -746 0
1146 -1646 -2146 -646 746 0
-146 246 -1646 0
146 1646 0
-246 1646 0
146 -246 -2146 0
-146 2146 0
246 2146 0
-1246 1746 0
-1246 2246 0
-1246 746 0
-1246 -846 0
1246 -1746 -2246 -746 846 0
-246 346 -1746 0
246 1746 0
-346 1746 0
246 -346 -2246 0
-246 2246 0
346 2246 0
-1346 1846 0
-1346 2346 0
-1346 846 0
-1346 -946 0
1346 -1846 -2346 -846 946 0
-346 446 -1846 0
346 1846 0
-446 1846 0
346 -446 -2346 0
-346 2346 0
446 2346 0
2646 3146 0
2646 3646 0
-2646 -3146 -3646 0
-146 46 -3146 0
146 3146 0
-46 3146 0
146 -46 -3646 0
-146 3646 0
46 3646 0
2746 3246 0
2746 3746 0
-2746 -3246 -3746 0
-246 146 -3246 0
246 3246 0
-146 3246 0
246 -146 -3746 0
-246 3746 0
146 3746 0
2846 3346 0
2846 3846 0
-2846 -3346 -3846 0
-346 246 -3346 0
346 3346 0
-246 3346 0
346 -246 -3846 0
-346 3846 0
246 3846 0
2946 3446 0
2946 3946 0
-2946 -3446 -3946 0
-446 346 -3446 0
446 3446 0
-346 3446 0
446 -346 -3946 0
-446 3946 0
346 3946 0
547 0
-947 0
-1047 1547 0
-1047 2047 0
-1047 547 0
-1047 -647 0
1047 -1547 -2047 -547 647 0
-47 147 -1547 0
47 1547 0
-147 1547 0
47 -147 -2047 0
-47 2047 0
147 2047 0
-1147 1647 0
-1147 2147 0
-1147 647 0
-1147 -747 0
1147 -1647 -2147 -647 747 0
-147 247 -1647 0
147 1647 0
-247 1647 0
147 -247 -2147 0
-147 2147 0
247 2147 0
-1247 1747 0
-1247 2247 0
-1247 747 0
-1247 -847 0
1247 -1747 -2247 -747 847 0
-247 347 -1747 0
247 1747 0
-347 1747 0
247 -347 -2247 0
-247 2247 0
347 2247 0
-1347 1847 0
-1347 2347 0
-1347 847 0
-1347 -947 0
1347 -1847 -2347 -847 947 0
-347 447 -1847 0
347 1847 0
-447 1847 0
347 -447 -2347 0
-347 2347 0
447 2347 0
2647 3147 0
2647 3647 0
-2647 -3147 -3647 0
-147 47 -3147 0
147 3147 0
-47 3147 0
147 -47 -3647 0
-147 3647 0
47 3647 0
2747 3247 0
2747 3747 0
-2747 -3247 -3747 0
-247 147 -3247 0
247 3247 0
-147 3247 0
247 -147 -3747 0
-247 3747 0
147 3747 0
2847 3347 0
2847 3847 0
-2847 -3347 -3847 0
-347 247 -3347 0
347 3347 0
-247 3347 0
347 -247 -3847 0
-347 3847 0
247 3847 0
2947 3447 0
2947 3947 0
-2947 -3447 -3947 0
-447 347 -3447 0
447 3447 0
-347 3447 0
447 -347 -3947 0
-447 3947 0
347 3947 0
548 0
-948 0
-1048 1548 0
-1048 2048 0
-1048 548 0
-1048 -648 0
1048 -1548 -2048 -548 648 0
-48 148 -1548 0
48 1548 0
-148 1548 0
48 -148 -2048 0
-48 2048 0
148 2048 0
-1148 1648 0
-1148 2148 0
-1148 648 0
-1148 -748 0
1148 -1648 -2148 -648 748 0
-148 248 -1648 0
148 1648 0
-248 1648 0
148 -248 -2148 0
-148 2148 0
248 2148 0
-1248 1748 0
-1248 2248 0
-1248 748 0
-1248 -848 0
1248 -1748 -2248 -748 848 0
-248 348 -1748 0
248 1748 0
-348 1748 0
248 -348 -2248 0
-248 2248 0
348 2248 0
-1348 1848 0
-1348 2348 0
-1348 848 0
-1348 -948 0
1348 -1848 -2348 -848 948 0
-348 448 -1848 0
348 1848 0
-448 1848 0
348 -448 -2348 0
-348 2348 0
448 2348 0
2648 3148 0
2648 3648 0
-2648 -3148 -3648 0
-148 48 -3148 0
148 3148 0
-48 3148 0
148 -48 -3648 0
-148 3648 0
48 3648 0
2748 3248 0
2748 3748 0
-2748 -3248 -3748 0
-248 148 -3248 0
248 3248 0
-148 3248 0
248 -148 -3748 0
-248 3748 0
148 3748 0
2848 3348 0
2848 3848 0
-2848 -3348 -3848 0
-348 248 -3348 0
348 3348 0
-248 3348 0
348 -248 -3848 0
-348 3848 0
248 3848 0
2948 3448 0
2948 3948 0
-2948 -3448 -3948 0
-448 348 -3448 0
448 3448 0
-348 3448 0
448 -348 -3948 0
-448 3948 0
348 3948 0
549 0
-949 0
-1049 1549 0
-1049 2049 0
-1049 549 0
-1049 -649 0
1049 -1549 -2049 -549 649 0
-49 149 -1549 0
49 1549 0
-149 1549 0
49 -149 -2049 0
-49 2049 0
149 2049 0
-1149 1649 0
-1149 2149 0
-1149 649 0
-1149 -749 0
1149 -1649 -2149 -649 749 0
-149 249 -1649 0
149 1649 0
-249 1649 0
149 -249 -2149 0
-149 2149 0
249 2149 0
-1249 1749 0
-1249 2249 0
-1249 749 0
-1249 -849 0
1249 -1749 -2249 -749 849 0
-249 349 -1749 0
249 1749 0
-349 1749 0
249 -349 -2249 0
-249 2249 0
349 2249 0
-1349 1849 0
-1349 2349 0
-1349 849 0
-1349 -949 0
1349 -1849 -2349 -849 949 0
-349 449 -1849 0
349 1849 0
-449 1849 0
349 -449 -2349 0
-349 2349 0
449 2349 0
2649 3149 0
2649 3649 0
-2649 -3149 -3649 0
-149 49 -3149 0
149 3149 0
-49 3149 0
149 -49 -3649 0
-149 3649 0
49 3649 0
2749 3249 0
2749 3749 0
-2749 -3249 -3749 0
-249 149 -3249 0
249 3249 0
-149 3249 0
249 -149 -3749 0
-249 3749 0
149 3749 0
2849 3349 0
2849 3849 0
-2849 -3349 -3849 0
-349 249 -3349 0
349 3349 0
-249 3349 0
349 -249 -3849 0
-349 3849 0
249 3849 0
2949 3449 0
2949 3949 0
-2949 -3449 -3949 0
-449 349 -3449 0
449 3449 0
-349 3449 0
449 -349 -3949 0
-449 3949 0
349 3949 0
550 0
-950 0
-1050 1550 0
-1050 2050 0
-1050 550 0
-1050 -650 0
1050 -1550 -2050 -550 650 0
-50 150 -1550 0
50 1550 0
-150 1550 0
50 -150 -2050 0
-50 2050 0
150 2050 0
-1150 1650 0
-1150 2150 0
-1150 650 0
-1150 -750 0
1150 -1650 -2150 -650 750 0
-150 250 -1650 0
150 1650 0
-250 1650 0
150 -250 -2150 0
-150 2150 0
250 2150 0
-1250 1750 0
-1250 2250 0
-1250 750 0
-1250 -850 0
1250 -1750 -2250 -750 850 0
-250 350 -1750 0
250 1750 0
-350 1750 0
250 -350 -2250 0
-250 2250 0
350 2250 0
-1350 1850 0
-1350 2350 0
-1350 850 0
-1350 -950 0
1350 -1850 -2350 -850 950 0
-350 450 -1850 0
350 1850 0
-450 1850 0
350 -450 -2350 0
-350 2350 0
450 2350 0
2650 3150 0
2650 3650 0
-2650 -3150 -3650 0
-150 50 -3150 0
150 3150 0
-50 3150 0
150 -50 -3650 0
-150 3650 0
50 3650 0
2750 3250 0
2750 3750 0
-2750 -3250 -3750 0
-250 150 -3250 0
250 3250 0
-150 3250 0
250 -150 -3750 0
-250 3750 0
150 3750 0
2850 3350 0
2850 3850 0
-2850 -3350 -3850 0
-350 250 -3350 0
350 3350 0
-250 3350 0
350 -250 -3850 0
-350 3850 0
250 3850 0
2950 3450 0
2950 3950 0
-2950 -3450 -3950 0
-450 350 -3450 0
450 3450 0
-350 3450 0
450 -350 -3950 0
-450 3950 0
350 3950 0
551 0
-951 0
-1051 1551 0
-1051 2051 0
-1051 551 0
-1051 -651 0
1051 -1551 -2051 -551 651 0
-51 151 -1551 0
51 1551 0
-151 1551 0
51 -151 -2051 0
-51 2051 0
151 2051 0
-1151 1651 0
-1151 2151 0
-1151 651 0
-1151 -751 0
1151 -1651 -2151 -651 751 0
-151 251 -1651 0
151 1651 0
-251 1651 0
151 -251 -2151 0
-151 2151 0
251 2151 0
-1251 1751 0
-1251 2251 0
-1251 751 0
-1251 -851 0
1251 -1751 -2251 -751 851 0
-251 351 -1751 0
251 1751 0
-351 1751 0
251 -351 -2251 0
-251 2251 0
351 2251 0
-1351 1851 0
-1351 2351 0
-1351 851 0
-1351 -951 0
1351 -1851 -2351 -851 951 0
-351 451 -1851 0
351 1851 0
-451 1851 0
351 -451 -2351 0
-351 2351 0
451 2351 0
2651 3151 0
2651 3651 0
-2651 -3151 -3651 0
-151 51 -3151 0
151 3151 0
-51 3151 0
151 -51 -3651 0
-151 3651 0
51 3651 0
2751 3251 0
2751 3751 0
-2751 -3251 -3751 0
-251 151 -3251 0
251 3251 0
-151 3251 0
251 -151 -3751 0
-251 3751 0
151 3751 0
2851 3351 0
2851 3851 0
-2851 -3351 -3851 0
-351 251 -3351 0
351 3351 0
-251 3351 0
351 -251 -3851 0
-351 3851 0
251 3851 0
2951 3451 0
2951 3951 0
-2951 -3451 -3951 0
-451 351 -3451 0
451 3451 0
-351 3451 0
451 -351 -3951 0
-451 3951 0
351 3951 0
552 0
-952 0
-1052 1552 0
-1052 2052 0
-1052 552 0
-1052 -652 0
1052 -1552 -2052 -552 652 0
-52 152 -1552 0
52 1552 0
-152 1552 0
52 -152 -2052 0
-52 2052 0
152 2052 0
-1152 1652 0
-1152 2152 0
-1152 652 0
-1152 -752 0
1152 -1652 -2152 -652 752 0
-152 252 -1652 0
152 1652 0
-252 1652 0
152 -252 -2152 0
-152 2152 0
252 2152 0
-1252 1752 0
-1252 2252 0
-1252 752 0
-1252 -852 0
1252 -1752 -2252 -752 852 0
-252 352 -1752 0
252 1752 0
-352 1752 0
252 -352 -2252 0
-252 2252 0
352 2252 0
-1352 1852 0
-1352 2352 0
-1352 852 0
-1352 -952 0
1352 -1852 -2352 -852 952 0
-352 452 -1852 0
352 1852 0
-452 1852 0
352 -452 -2352 0
-352 2352 0
452 2352 0
2652 3152 0
2652 3652 0
-2652 -3152 -3652 0
-152 52 -3152 0
152 3152 0
-52 3152 0
152 -52 -3652 0
-152 3652 0
52 3652 0
2752 3252 0
2752 3752 0
-2752 -3252 -3752 0
-252 152 -3252 0
252 3252 0
-152 3252 0
252 -152 -3752 0
-252 3752 0
152 3752 0
2852 3352 0
2852 3852 0
-2852 -3352 -3852 0
-352 252 -3352 0
352 3352 0
-252 3352 0
352 -252 -3852 0
-352 3852 0
252 3852 0
2952 3452 0
2952 3952 0
-2952 -3452 -3952 0
-452 352 -3452 0
452 3452 0
-352 3452 0
452 -352 -3952 0
-452 3952 0
352 3952 0
553 0
-953 0
-1053 1553 0
-1053 2053 0
-1053 553 0
-1053 -653 0
1053 -1553 -2053 -553 653 0
-53 153 -1553 0
53 1553 0
-153 1553 0
53 -153 -2053 0
-53 2053 0
153 2053 0
-1153 1653 0
-1153 2153 0
-1153 653 0
-1153 -753 0
1153 -1653 -2153 -653 753 0
-153 253 -1653 0
153 1653 0
-253 1653 0
153 -253 -2153 0
-153 2153 0
253 2153 0
-1253 1753 0
-1253 2253 0
-1253 753 0
-1253 -853 0
1253 -1753 -2253 -753 853 0
-253 353 -1753 0
253 1753 0
-353 1753 0
253 -353 -2253 0
-253 2253 0
353 2253 0
-1353 1853 0
-1353 2353 0
-1353 853 0
-1353 -953 0
1353 -1853 -2353 -853 953 0
-353 453 -1853 0
353 1853 0
-453 1853 0
353 -453 -2353 0
-353 2353 0
453 2353 0
2653 3153 0
2653 3653 0
-2653 -3153 -3653 0
-153 53 -3153 0
153 3153 0
-53 3153 0
153 -53 -3653 0
-153 3653 0
53 3653 0
2753 3253 0
2753 3753 0
-2753 -3253 -3753 0
-253 153 -3253 0
253 3253 0
-153 3253 0
253 -153 -3753 0
-253 3753 0
153 3753 0
2853 3353 0
2853 3853 0
-2853 -3353 -3853 0
-353 253 -3353 0
353 3353 0
-253 3353 0
353 -253 -3853 0
-353 3853 0
253 3853 0
2953 3453 0
2953 3953 0
-2953 -3453 -3953 0
-453 353 -3453 0
453 3453 0
-353 3453 0
453 -353 -3953 0
-453 3953 0
353 3953 0
554 0
-954 0
-1054 1554 0
-1054 2054 0
-1054 554 0
-1054 -654 0
1054 -1554 -2054 -554 654 0
-54 154 -1554 0
54 1554 0
-154 1554 0
54 -154 -2054 0
-54 2054 0
154 2054 0
-1154 1654 0
-1154 2154 0
-1154 654 0
-1154 -754 0
1154 -1654 -2154 -654 754 0
-154 254 -1654 0
154 1654 0
-254 1654 0
154 -254 -2154 0
-154 2154 0
254 2154 0
-1254 1754 0
-1254 2254 0
-1254 754 0
-1254 -854 0
1254 -1754 -2254 -754 854 0
-254 354 -1754 0
254 1754 0
-354 1754 0
254 -354 -2254 0
-254 2254 0
354 2254 0
-1354 1854 0
-1354 2354 0
-1354 854 0
-1354 -954 0
1354 -1854 -2354 -854 954 0
-354 454 -1854 0
354 1854 0
-454 1854 0
354 -454 -2354 0
-354 2354 0
454 2354 0
2654 3154 0
2654 3654 0
-2654 -3154 -3654 0
-154 54 -3154 0
154 3154 0
-54 3154 0
154 -54 -3654 0
-154 3654 0
54 3654 0
2754 3254 0
2754 3754 0
-2754 -3254 -3754 0
-254 154 -3254 0
254 3254 0
-154 3254 0
254 -154 -3754 0
-254 3754 0
154 3754 0
2854 3354 0
2854 3854 0
-2854 -3354 -3854 0
-354 254 -3354 0
354 3354 0
-254 3354 0
354 -254 -3854 0
-354 3854 0
254 3854 0
2954 3454 0
2954 3954 0
-2954 -3454 -3954 0
-454 354 -3454 0
454 3454 0
-354 3454 0
454 -354 -3954 0
-454 3954 0
354 3954 0
555 0
-955 0
-1055 1555 0
-1055 2055 0
-1055 555 0
-1055 -655 0
1055 -1555 -2055 -555 655 0
-55 155 -1555 0
55 1555 0
-155 1555 0
55 -155 -2055 0
-55 2055 0
155 2055 0
-1155 1655 0
-1155 2155 0
-1155 655 0
-1155 -755 0
1155 -1655 -2155 -655 755 0
-155 255 -1655 0
155 1655 0
-255 1655 0
155 -255 -2155 0
-155 2155 0
255 2155 0
-1255 1755 0
-1255 2255 0
-1255 755 0
-1255 -855 0
1255 -1755 -2255 -755 855 0
-255 355 -1755 0
255 1755 0
-355 1755 0
255 -355 -2255 0
-255 2255 0
355 2255 0
-1355 1855 0
-1355 2355 0
-1355 855 0
-1355 -955 0
1355 -1855 -2355 -855 955 0
-355 455 -1855 0
355 1855 0
-455 1855 0
355 -455 -2355 0
-355 2355 0
455 2355 0
2655 3155 0
2655 3655 0
-2655 -3155 -3655 0
-155 55 -3155 0
155 3155 0
-55 3155 0
155 -55 -3655 0
-155 3655 0
55 3655 0
2755 3255 0
2755 3755 0
-2755 -3255 -3755 0
-255 155 -3255 0
255 3255 0
-155 3255 0
255 -155 -3755 0
-255 3755 0
155 3755 0
2855 3355 0
2855 3855 0
-2855 -3355 -3855 0
-355 255 -3355 0
355 3355 0
-255 3355 0
355 -255 -3855 0
-355 3855 0
255 3855 0
2955 3455 0
2955 3955 0
-2955 -3455 -3955 0
-455 355 -3455 0
455 3455 0
-355 3455 0
455 -355 -3955 0
-455 3955 0
355 3955 0
556 0
-956 0
-1056 1556 0
-1056 2056 0
-1056 556 0
-1056 -656 0
1056 -1556 -2056 -556 656 0
-56 156 -1556 0
56 1556 0
-156 1556 0
56 -156 -2056 0
-56 2056 0
156 2056 0
-1156 1656 0
-1156 2156 0
-1156 656 0
-1156 -756 0
1156 -1656 -2156 -656 756 0
-156 256 -1656 0
156 1656 0
-256 1656 0
156 -256 -2156 0
-156 2156 0
256 2156 0
-1256 1756 0
-1256 2256 0
-1256 756 0
-1256 -856 0
1256 -1756 -2256 -756 856 0
-256 356 -1756 0
256 1756 0
-356 1756 0
256 -356 -2256 0
-256 2256 0
356 2256 0
-1356 1856 0
-1356 2356 0
-1356 856 0
-1356 -956 0
1356 -1856 -2356 -856 956 0
-356 456 -1856 0
356 1856 0
-456 1856 0
356 -456 -2356 0
-356 2356 0
456 2356 0
2656 3156 0
2656 3656 0
-2656 -3156 -3656 0
-156 56 -3156 0
156 3156 0
-56 3156 0
156 -56 -3656 0
-156 3656 0
56 3656 0
2756 3256 0
2756 3756 0
-2756 -3256 -3756 0
-256 156 -3256 0
256 3256 0
-156 3256 0
256 -156 -3756 0
-256 3756 0
156 3756 0
2856 3356 0
2856 3856 0
-2856 -3356 -3856 0
-356 256 -3356 0
356 3356 0
-256 3356 0
356 -256 -3856 0
-356 3856 0
256 3856 0
2956 3456 0
2956 3956 0
-2956 -3456 -3956 0
-456 356 -3456 0
456 3456 0
-356 3456 0
456 -356 -3956 0
-456 3956 0
356 3956 0
557 0
-957 0
-1057 1557 0
-1057 2057 0
-1057 557 0
-1057 -657 0
1057 -1557 -2057 -557 657 0
-57 157 -1557 0
57 1557 0
-157 1557 0
57 -157 -2057 0
-57 2057 0
157 2057 0
-1157 1657 0
-1157 2157 0
-1157 657 0
-1157 -757 0
1157 -1657 -2157 -657 757 0
-157 257 -1657 0
157 1657 0
-257 1657 0
157 -257 -2157 0
-157 2157 0
257 2157 0
-1257 1757 0
-1257 2257 0
-1257 757 0
-1257 -857 0
1257 -1757 -2257 -757 857 0
-257 357 -1757 0
257 1757 0
-357 1757 0
257 -357 -2257 0
-257 2257 0
357 2257 0
-1357 1857 0
-1357 2357 0
-1357 857 0
-1357 -957 0
1357 -1857 -2357 -857 957 0
-357 457 -1857 0
357 1857 0
-457 1857 0
357 -457 -2357 0
-357 2357 0
457 2357 0
2657 3157 0
2657 3657 0
-2657 -3157 -3657 0
-157 57 -3157 0
157 3157 0
-57 3157 0
157 -57 -3657 0
-157 3657 0
57 3657 0
2757 3257 0
2757 3757 0
-2757 -3257 -3757 0
-257 157 -3257 0
257 3257 0
-157 3257 0
257 -157 -3757 0
-257 3757 0
157 3757 0
2857 3357 0
2857 3857 0
-2857 -3357 -3857 0
-357 257 -3357 0
357 3357 0
-257 3357 0
357 -257 -3857 0
-357 3857 0
257 3857 0
2957 3457 0
2957 3957 0
-2957 -3457 -3957 0
-457 357 -3457 0
457 3457 0
-357 3457 0
457 -357 -3957 0
-457 3957 0
357 3957 0
558 0
-958 0
-1058 1558 0
-1058 2058 0
-1058 558 0
-1058 -658 0
1058 -1558 -2058 -558 658 0
-58 158 -1558 0
58 1558 0
-158 1558 0
58 -158 -2058 0
-58 2058 0
158 2058 0
-1158 1658 0
-1158 2158 0
-1158 658 0
-1158 -758 0
1158 -1658 -2158 -658 758 0
-158 258 -1658 0
158 1658 0
-258 1658 0
158 -258 -2158 0
-158 2158 0
258 2158 0
-1258 1758 0
-1258 2258 0
-1258 758 0
-1258 -858 0
1258 -1758 -2258 -758 858 0
-258 358 -1758 0
258 1758 0
-358 1758 0
258 -358 -2258 0
-258 2258 0
358 2258 0
-1358 1858 0
-1358 2358 0
-1358 858 0
-1358 -958 0
1358 -1858 -2358 -858 958 0
-358 458 -1858 0
358 1858 0
-458 1858 0
358 -458 -2358 0
-358 2358 0
458 2358 0
2658 3158 0
2658 3658 0
-2658 -3158 -3658 0
-158 58 -3158 0
158 3158 0
-58 3158 0
158 -58 -3658 0
-158 3658 0
58 3658 0
2758 3258 0
2758 3758 0
-2758 -3258 -3758 0
-258 158 -3258 0
258 3258 0
-158 3258 0
258 -158 -3758 0
-258 3758 0
158 3758 0
2858 3358 0
2858 3858 0
-2858 -3358 -3858 0
-358 258 -3358 0
358 3358 0
-258 3358 0
358 -258 -3858 0
-358 3858 0
258 3858 0
2958 3458 0
2958 3958 0
-2958 -3458 -3958 0
-458 358 -3458 0
458 3458 0
-358 3458 0
458 -358 -3958 0
-458 3958 0
358 3958 0
559 0
-959 0
-1059 1559 0
-1059 2059 0
-1059 559 0
-1059 -659 0
1059 -1559 -2059 -559 659 0
-59 159 -1559 0
59 1559 0
-159 1559 0
59 -159 -2059 0
-59 2059 0
159 2059 0
-1159 1659 0
-1159 2159 0
-1159 659 0
-1159 -759 0
1159 -1659 -2159 -659 759 0
-159 259 -1659 0
159 1659 0
-259 1659 0
159 -259 -2159 0
-159 2159 0
259 2159 0
-1259 1759 0
-1259 2259 0
-1259 759 0
-1259 -859 0
1259 -1759 -2259 -759 859 0
-259 359 -1759 0
259 1759 0
-359 1759 0
259 -359 -2259 0
-259 2259 0
359 2259 0
-1359 1859 0
-1359 2359 0
-1359 859 0
-1359 -959 0
1359 -1859 -2359 -859 959 0
-359 459 -1859 0
359 1859 0
-459 1859 0
359 -459 -2359 0
-359 2359 0
459 2359 0
2659 3159 0
2659 3659 0
-2659 -3159 -3659 0
-159 59 -3159 0
159 3159 0
-59 3159 0
159 -59 -3659 0
-159 3659 0
59 3659 0
2759 3259 0
2759 3759 0
-2759 -3259 -3759 0
-259 159 -3259 0
259 3259 0
-159 3259 0
259 -159 -3759 0
-259 3759 0
159 3759 0
2859 3359 0
2859 3859 0
-2859 -3359 -3859 0
-359 259 -3359 0
359 3359 0
-259 3359 0
359 -259 -3859 0
-359 3859 0
259 3859 0
2959 3459 0
2959 3959 0
-2959 -3459 -3959 0
-459 359 -3459 0
459 3459 0
-359 3459 0
459 -359 -3959 0
-459 3959 0
359 3959 0
560 0
-960 0
-1060 1560 0
-1060 2060 0
-1060 560 0
-1060 -660 0
1060 -1560 -2060 -560 660 0
-60 160 -1560 0
60 1560 0
-160 1560 0
60 -160 -2060 0
-60 2060 0
160 2060 0
-1160 1660 0
-1160 2160 0
-1160 660 0
-1160 -760 0
1160 -1660 -2160 -660 760 0
-160 260 -1660 0
160 1660 0
-260 1660 0
160 -260 -2160 0
-160 2160 0
260 2160 0
-1260 1760 0
-1260 2260 0
-1260 760 0
-1260 -860 0
1260 -1760 -2260 -760 860 0
-260 360 -1760 0
260 1760 0
-360 1760 0
260 -360 -2260 0
-260 2260 0
360 2260 0
-1360 1860 0
-1360 2360 0
-1360 860 0
-1360 -960 0
1360 -1860 -2360 -860 960 0
-360 460 -1860 0
360 1860 0
-460 1860 0
360 -460 -2360 0
-360 2360 0
460 2360 0
2660 3160 0
2660 3660 0
-2660 -3160 -3660 0
-160 60 -3160 0
160 3160 0
-60 3160 0
160 -60 -3660 0
-160 3660 0
60 3660 0
2760 3260 0
2760 3760 0
-2760 -3260 -3760 0
-260 160 -3260 0
260 3260 0
-160 3260 0
260 -160 -3760 0
-260 3760 0
160 3760 0
2860 3360 0
2860 3860 0
-2860 -3360 -3860 0
-360 260 -3360 0
360 3360 0
-260 3360 0
360 -260 -3860 0
-360 3860 0
260 3860 0
2960 3460 0
2960 3960 0
-2960 -3460 -3960 0
-460 360 -3460 0
460 3460 0
-360 3460 0
460 -360 -3960 0
-460 3960 0
360 3960 0
561 0
-961 0
-1061 1561 0
-1061 2061 0
-1061 561 0
-1061 -661 0
1061 -1561 -2061 -561 661 0
-61 161 -1561 0
61 1561 0
-161 1561 0
61 -161 -2061 0
-61 2061 0
161 2061 0
-1161 1661 0
-1161 2161 0
-1161 661 0
-1161 -761 0
1161 -1661 -2161 -661 761 0
-161 261 -1661 0
161 1661 0
-261 1661 0
161 -261 -2161 0
-161 2161 0
261 2161 0
-1261 1761 0
-1261 2261 0
-1261 761 0
-1261 -861 0
1261 -1761 -2261 -761 861 0
-261 361 -1761 0
261 1761 0
-361 1761 0
261 -361 -2261 0
-261 2261 0
361 2261 0
-1361 1861 0
-1361 2361 0
-1361 861 0
-1361 -961 0
1361 -1861 -2361 -861 961 0
-361 461 -1861 0
361 1861 0
-461 1861 0
361 -461 -2361 0
-361 2361 0
461 2361 0
2661 3161 0
2661 3661 0
-2661 -3161 -3661 0
-161 61 -3161 0
161 3161 0
-61 3161 0
161 -61 -3661 0
-161 3661 0
61 3661 0
2761 3261 0
2761 3761 0
-2761 -3261 -3761 0
-261 161 -3261 0
261 3261 0
-161 3261 0
261 -161 -3761 0
-261 3761 0
161 3761 0
2861 3361 0
2861 3861 0
-2861 -3361 -3861 0
-361 261 -3361 0
361 3361 0
-261 3361 0
361 -261 -3861 0
-361 3861 0
261 3861 0
2961 3461 0
2961 3961 0
-2961 -3461 -3961 0
-461 361 -3461 0
461 3461 0
-361 3461 0
461 -361 -3961 0
-461 3961 0
361 3961 0
562 0
-962 0
-1062 1562 0
-1062 2062 0
-1062 562 0
-1062 -662 0
1062 -1562 -2062 -562 662 0
-62 162 -1562 0
62 1562 0
-162 1562 0
62 -162 -2062 0
-62 2062 0
162 2062 0
-1162 1662 0
-1162 2162 0
-1162 662 0
-1162 -762 0
1162 -1662 -2162 -662 762 0
-162 262 -1662 0
162 1662 0
-262 1662 0
162 -262 -2162 0
-162 2162 0
262 2162 0
-1262 1762 0
-1262 2262 0
-1262 762 0
-1262 -862 0
1262 -1762 -2262 -762 862 0
-262 362 -1762 0
262 1762 0
-362 1762 0
262 -362 -2262 0
-262 2262 0
362 2262 0
-1362 1862 0
-1362 2362 0
-1362 862 0
-1362 -962 0
1362 -1862 -2362 -862 962 0
-362 462 -1862 0
362 1862 0
-462 1862 0
362 -462 -2362 0
-362 2362 0
462 2362 0
2662 3162 0
2662 3662 0
-2662 -3162 -3662 0
-162 62 -3162 0
162 3162 0
-62 3162 0
162 -62 -3662 0
-162 3662 0
62 3662 0
2762 3262 0
2762 3762 0
-2762 -3262 -3762 0
-262 162 -3262 0
262 3262 0
-162 3262 0
262 -162 -3762 0
-262 3762 0
162 3762 0
2862 3362 0
2862 3862 0
-2862 -3362 -3862 0
-362 262 -3362 0
362 3362 0
-262 3362 0
362 -262 -3862 0
-362 3862 0
262 3862 0
2962 3462 0
2962 3962 0
-2962 -3462 -3962 0
-462 362 -3462 0
462 3462 0
-362 3462 0
462 -362 -3962 0
-462 3962 0
362 3962 0
563 0
-963 0
-1063 1563 0
-1063 2063 0
-1063 563 0
-1063 -663 0
1063 -1563 -2063 -563 663 0
-63 163 -1563 0
63 1563 0
-163 1563 0
63 -163 -2063 0
-63 2063 0
163 2063 0
-1163 1663 0
-1163 2163 0
-1163 663 0
-1163 -763 0
1163 -1663 -2163 -663 763 0
-163 263 -1663 0
163 1663 0
-263 1663 0
163 -263 -2163 0
-163 2163 0
263 2163 0
-1263 1763 0
-1263 2263 0
-1263 763 0
-1263 -863 0
1263 -1763 -2263 -763 863 0
-263 363 -1763 0
263 1763 0
-363 1763 0
263 -363 -2263 0
-263 2263 0
363 2263 0
-1363 1863 0
-1363 2363 0
-1363 863 0
-1363 -963 0
1363 -1863 -2363 -863 963 0
-363 463 -1863 0
363 1863 0
-463 1863 0
363 -463 -2363 0
-363 2363 0
463 2363 0
2663 3163 0
2663 3663 0
-2663 -3163 -3663 0
-163 63 -3163 0
163 3163 0
-63 3163 0
163 -63 -3663 0
-163 3663 0
63 3663 0
2763 3263 0
2763 3763 0
-2763 -3263 -3763 0
-263 163 -3263 0
263 3263 0
-163 3263 0
263 -163 -3763 0
-263 3763 0
163 3763 0
2863 3363 0
2863 3863 0
-2863 -3363 -3863 0
-363 263 -3363 0
363 3363 0
-263 3363 0
363 -263 -3863 0
-363 3863 0
263 3863 0
2963 3463 0
2963 3963 0
-2963 -3463 -3963 0
-463 363 -3463 0
463 3463 0
-363 3463 0
463 -363 -3963 0
-463 3963 0
363 3963 0
564 0
-964 0
-1064 1564 0
-1064 2064 0
-1064 564 0
-1064 -664 0
1064 -1564 -2064 -564 664 0
-64 164 -1564 0
64 1564 0
-164 1564 0
64 -164 -2064 0
-64 2064 0
164 2064 0
-1164 1664 0
-1164 2164 0
-1164 664 0
-1164 -764 0
1164 -1664 -2164 -664 764 0
-164 264 -1664 0
164 1664 0
-264 1664 0
164 -264 -2164 0
-164 2164 0
264 2164 0
-1264 1764 0
-1264 2264 0
-1264 764 0
-1264 -864 0
1264 -1764 -2264 -764 864 0
-264 364 -1764 0
264 1764 0
-364 1764 0
264 -364 -2264 0
-264 2264 0
364 2264 0
-1364 1864 0
-1364 2364 0
-1364 864 0
-1364 -964 0
1364 -1864 -2364 -864 964 0
-364 464 -1864 0
364 1864 0
-464 1864 0
364 -464 -2364 0
-364 2364 0
464 2364 0
2664 3164 0
2664 3664 0
-2664 -3164 -3664 0
-164 64 -3164 0
164 3164 0
-64 3164 0
164 -64 -3664 0
-164 3664 0
64 3664 0
2764 3264 0
2764 3764 0
-2764 -3264 -3764 0
-264 164 -3264 0
264 3264 0
-164 3264 0
264 -164 -3764 0
-264 3764 0
164 3764 0
2864 3364 0
2864 3864 0
-2864 -3364 -3864 0
-364 264 -3364 0
364 3364 0
-264 3364 0
364 -264 -3864 0
-364 3864 0
264 3864 0
2964 3464 0
2964 3964 0
-2964 -3464 -3964 0
-464 364 -3464 0
464 3464 0
-364 3464 0
464 -364 -3964 0
-464 3964 0
364 3964 0
565 0
-965 0
-1065 1565 0
-1065 2065 0
-1065 565 0
-1065 -665 0
1065 -1565 -2065 -565 665 0
-65 165 -1565 0
65 1565 0
-165 1565 0
65 -165 -2065 0
-65 2065 0
165 2065 0
-1165 1665 0
-1165 2165 0
-1165 665 0
-1165 -765 0
1165 -1665 -2165 -665 765 0
-165 265 -1665 0
165 1665 0
-265 1665 0
165 -265 -2165 0
-165 2165 0
265 2165 0
-1265 1765 0
-1265 2265 0
-1265 765 0
-1265 -865 0
1265 -1765 -2265 -765 865 0
-265 365 -1765 0
265 1765 0
-365 1765 0
265 -365 -2265 0
-265 2265 0
365 2265 0
-1365 1865 0
-1365 2365 0
-1365 865 0
-1365 -965 0
1365 -1865 -2365 -865 965 0
-365 465 -1865 0
365 1865 0
-465 1865 0
365 -465 -2365 0
-365 2365 0
465 2365 0
2665 3165 0
2665 3665 0
-2665 -3165 -3665 0
-165 65 -3165 0
165 3165 0
-65 3165 0
165 -65 -3665 0
-165 3665 0
65 3665 0
2765 3265 0
2765 3765 0
-2765 -3265 -3765 0
-265 165 -3265 0
265 3265 0
-165 3265 0
265 -165 -3765 0
-265 3765 0
165 3765 0
2865 3365 0
2865 3865 0
-2865 -3365 -3865 0
-365 265 -3365 0
365 3365 0
-265 3365 0
365 -265 -3865 0
-365 3865 0
265 3865 0
2965 3465 0
2965 3965 0
-2965 -3465 -3965 0
-465 365 -3465 0
465 3465 0
-365 3465 0
465 -365 -3965 0
-465 3965 0
365 3965 0
566 0
-966 0
-1066 1566 0
-1066 2066 0
-1066 566 0
-1066 -666 0
1066 -1566 -2066 -566 666 0
-66 166 -1566 0
66 1566 0
-166 1566 0
66 -166 -2066 0
-66 2066 0
166 2066 0
-1166 1666 0
-1166 2166 0
-1166 666 0
-1166 -766 0
1166 -1666 -2166 -666 766 0
-166 266 -1666 0
166 1666 0
-266 1666 0
166 -266 -2166 0
-166 2166 0
266 2166 0
-1266 1766 0
-1266 2266 0
-1266 766 0
-1266 -866 0
1266 -1766 -2266 -766 866 0
-266 366 -1766 0
266 1766 0
-366 1766 0
266 -366 -2266 0
-266 2266 0
366 2266 0
-1366 1866 0
-1366 2366 0
-1366 866 0
-1366 -966 0
1366 -1866 -2366 -866 966 0
-366 466 -1866 0
366 1866 0
-466 1866 0
366 -466 -2366 0
-366 2366 0
466 2366 0
2666 3166 0
2666 3666 0
-2666 -3166 -3666 0
-166 66 -3166 0
166 3166 0
-66 3166 0
166 -66 -3666 0
-166 3666 0
66 3666 0
2766 3266 0
2766 3766 0
-2766 -3266 -3766 0
-266 166 -3266 0
266 3266 0
-166 3266 0
266 -166 -3766 0
-266 3766 0
166 3766 0
2866 3366 0
2866 3866 0
-2866 -3366 -3866 0
-366 266 -3366 0
366 3366 0
-266 3366 0
366 -266 -3866 0
-366 3866 0
266 3866 0
2966 3466 0
2966 3966 0
-2966 -3466 -3966 0
-466 366 -3466 0
466 3466 0
-366 3466 0
466 -366 -3966 0
-466 3966 0
366 3966 0
567 0
-967 0
-1067 1567 0
-1067 2067 0
-1067 567 0
-1067 -667 0
1067 -1567 -2067 -567 667 0
-67 167 -1567 0
67 1567 0
-167 1567 0
67 -167 -2067 0
-67 2067 0
167 2067 0
-1167 1667 0
-1167 2167 0
-1167 667 0
-1167 -767 0
1167 -1667 -2167 -667 767 0
-167 267 -1667 0
167 1667 0
-267 1667 0
167 -267 -2167 0
-167 2167 0
267 2167 0
-1267 1767 0
-1267 2267 0
-1267 767 0
-1267 -867 0
1267 -1767 -2267 -767 867 0
-267 367 -1767 0
267 1767 0
-367 1767 0
267 -367 -2267 0
-267 2267 0
367 2267 0
-1367 1867 0
-1367 2367 0
-1367 867 0
-1367 -967 0
1367 -1867 -2367 -867 967 0
-367 467 -1867 0
367 1867 0
-467 1867 0
367 -467 -2367 0
-367 2367 0
467 2367 0
2667 3167 0
2667 3667 0
-2667 -3167 -3667 0
-167 67 -3167 0
167 3167 0
-67 3167 0
167 -67 -3667 0
-167 3667 0
67 3667 0
2767 3267 0
2767 3767 0
-2767 -3267 -3767 0
-267 167 -3267 0
267 3267 0
-167 3267 0
267 -167 -3767 0
-267 3767 0
167 3767 0
2867 3367 0
2867 3867 0
-2867 -3367 -3867 0
-367 267 -3367 0
367 3367 0
-267 3367 0
367 -267 -3867 0
-367 3867 0
267 3867 0
2967 3467 0
2967 3967 0
-2967 -3467 -3967 0
-467 367 -3467 0
467 3467 0
-367 3467 0
467 -367 -3967 0
-467 3967 0
367 3967 0
568 0
-968 0
-1068 1568 0
-1068 2068 0
-1068 568 0
-1068 -668 0
1068 -1568 -2068 -568 668 0
-68 168 -1568 0
68 1568 0
-168 1568 0
68 -168 -2068 0
-68 2068 0
168 2068 0
-1168 1668 0
-1168 2168 0
-1168 668 0
-1168 -768 0
1168 -1668 -2168 -668 768 0
-168 268 -1668 0
168 1668 0
-268 1668 0
168 -268 -2168 0
-168 2168 0
268 2168 0
-1268 1768 0
-1268 2268 0
-1268 768 0
-1268 -868 0
1268 -1768 -2268 -768 868 0
-268 368 -1768 0
268 1768 0
-368 1768 0
268 -368 -2268 0
-268 2268 0
368 2268 0
-1368 1868 0
-1368 2368 0
-1368 868 0
-1368 -968 0
1368 -1868 -2368 -868 968 0
-368 468 -1868 0
368 1868 0
-468 1868 0
368 -468 -2368 0
-368 2368 0
468 2368 0
2668 3168 0
2668 3668 0
-2668 -3168 -3668 0
-168 68 -3168 0
168 3168 0
-68 3168 0
168 -68 -3668 0
-168 3668 0
68 3668 0
2768 3268 0
2768 3768 0
-2768 -3268 -3768 0
-268 168 -3268 0
268 3268 0
-168 3268 0
268 -168 -3768 0
-268 3768 0
168 3768 0
2868 3368 0
2868 3868 0
-2868 -3368 -3868 0
-368 268 -3368 0
368 3368 0
-268 3368 0
368 -268 -3868 0
-368 3868 0
268 3868 0
2968 3468 0
2968 3968 0
-2968 -3468 -3968 0
-468 368 -3468 0
468 3468 0
-368 3468 0
468 -368 -3968 0
-468 3968 0
368 3968 0
569 0
-969 0
-1069 1569 0
-1069 2069 0
-1069 569 0
-1069 -669 0
1069 -1569 -2069 -569 669 0
-69 169 -1569 0
69 1569 0
-169 1569 0
69 -169 -2069 0
-69 2069 0
169 2069 0
-1169 1669 0
-1169 2169 0
-1169 669 0
-1169 -769 0
1169 -1669 -2169 -669 769 0
-169 269 -1669 0
169 1669 0
-269 1669 0
169 -269 -2169 0
-169 2169 0
269 2169 0
-1269 1769 0
-1269 2269 0
-1269 769 0
-1269 -869 0
1269 -1769 -2269 -769 869 0
-269 369 -1769 0
269 1769 0
-369 1769 0
269 -369 -2269 0
-269 2269 0
369 2269 0
-1369 1869 0
-1369 2369 0
-1369 869 0
-1369 -969 0
1369 -1869 -2369 -869 969 0
-369 469 -1869 0
369 1869 0
-469 1869 0
369 -469 -2369 0
-369 2369 0
469 2369 0
2669 3169 0
2669 3669 0
-2669 -3169 -3669 0
-169 69 -3169 0
169 3169 0
-69 3169 0
169 -69 -3669 0
-169 3669 0
69 3669 0
2769 3269 0
2769 3769 0
-2769 -3269 -3769 0
-269 169 -3269 0
269 3269 0
-169 3269 0
269 -169 -3769 0
-269 3769 0
169 3769 0
2869 3369 0
2869 3869 0
-2869 -3369 -3869 0
-369 269 -3369 0
369 3369 0
-269 3369 0
369 -269 -3869 0
-369 3869 0
269 3869 0
2969 3469 0
2969 3969 0
-2969 -3469 -3969 0
-469 369 -3469 0
469 3469 0
-369 3469 0
469 -369 -3969 0
-469 3969 0
369 3969 0
570 0
-970 0
-1070 1570 0
-1070 2070 0
-1070 570 0
-1070 -670 0
1070 -1570 -2070 -570 670 0
-70 170 -1570 0
70 1570 0
-170 1570 0
70 -170 -2070 0
-70 2070 0
170 2070 0
-1170 1670 0
-1170 2170 0
-1170 670 0
-1170 -770 0
1170 -1670 -2170 -670 770 0
-170 270 -1670 0
170 1670 0
-270 1670 0
170 -270 -2170 0
-170 2170 0
270 2170 0
-1270 1770 0
-1270 2270 0
-1270 770 0
-1270 -870 0
1270 -1770 -2270 -770 870 0
-270 370 -1770 0
270 1770 0
-370 1770 0
270 -370 -2270 0
-270 2270 0
370 2270 0
-1370 1870 0
-1370 2370 0
-1370 870 0
-1370 -970 0
1370 -1870 -2370 -870 970 0
-370 470 -1870 0
370 1870 0
-470 1870 0
370 -470 -2370 0
-370 2370 0
470 2370 0
2670 3170 0
2670 3670 0
-2670 -3170 -3670 0
-170 70 -3170 0
170 3170 0
-70 3170 0
170 -70 -3670 0
-170 3670 0
70 3670 0
2770 3270 0
2770 3770 0
-2770 -3270 -3770 0
-270 170 -3270 0
270 3270 0
-170 3270 0
270 -170 -3770 0
-270 3770 0
170 3770 0
2870 3370 0
2870 3870 0
-2870 -3370 -3870 0
-370 270 -3370 0
370 3370 0
-270 3370 0
370 -270 -3870 0
-370 3870 0
270 3870 0
2970 3470 0
2970 3970 0
-2970 -3470 -3970 0
-470 370 -3470 0
470 3470 0
-370 3470 0
470 -370 -3970 0
-470 3970 0
370 3970 0
571 0
-971 0
-1071 1571 0
-1071 2071 0
-1071 571 0
-1071 -671 0
1071 -1571 -2071 -571 671 0
-71 171 -1571 0
71 1571 0
-171 1571 0
71 -171 -2071 0
-71 2071 0
171 2071 0
-1171 1671 0
-1171 2171 0
-1171 671 0
-1171 -771 0
1171 -1671 -2171 -671 771 0
-171 271 -1671 0
171 1671 0
-271 1671 0
171 -271 -2171 0
-171 2171 0
271 2171 0
-1271 1771 0
-1271 2271 0
-1271 771 0
-1271 -871 0
1271 -1771 -2271 -771 871 0
-271 371 -1771 0
271 1771 0
-371 1771 0
271 -371 -2271 0
-271 2271 0
371 2271 0
-1371 1871 0
-1371 2371 0
-1371 871 0
-1371 -971 0
1371 -1871 -2371 -871 971 0
-371 471 -1871 0
371 1871 0
-471 1871 0
371 -471 -2371 0
-371 2371 0
471 2371 0
2671 3171 0
2671 3671 0
-2671 -3171 -3671 0
-171 71 -3171 0
171 3171 0
-71 3171 0
171 -71 -3671 0
-171 3671 0
71 3671 0
2771 3271 0
2771 3771 0
-2771 -3271 -3771 0
-271 171 -3271 0
271 3271 0
-171 3271 0
271 -171 -3771 0
-271 3771 0
171 3771 0
2871 3371 0
2871 3871 0
-2871 -3371 -3871 0
-371 271 -3371 0
371 3371 0
-271 3371 0
371 -271 -3871 0
-371 3871 0
271 3871 0
2971 3471 0
2971 3971 0
-2971 -3471 -3971 0
-471 371 -3471 0
471 3471 0
-371 3471 0
471 -371 -3971 0
-471 3971 0
371 3971 0
572 0
-972 0
-1072 1572 0
-1072 2072 0
-1072 572 0
-1072 -672 0
1072 -1572 -2072 -572 672 0
-72 172 -1572 0
72 1572 0
-172 1572 0
72 -172 -2072 0
-72 2072 0
172 2072 0
-1172 1672 0
-1172 2172 0
-1172 672 0
-1172 -772 0
1172 -1672 -2172 -672 772 0
-172 272 -1672 0
172 1672 0
-272 1672 0
172 -272 -2172 0
-172 2172 0
272 2172 0
-1272 1772 0
-1272 2272 0
-1272 772 0
-1272 -872 0
1272 -1772 -2272 -772 872 0
-272 372 -1772 0
272 1772 0
-372 1772 0
272 -372 -2272 0
-272 2272 0
372 2272 0
-1372 1872 0
-1372 2372 0
-1372 872 0
-1372 -972 0
1372 -1872 -2372 -872 972 0
-372 472 -1872 0
372 1872 0
-472 1872 0
372 -472 -2372 0
-372 2372 0
472 2372 0
2672 3172 0
2672 3672 0
-2672 -3172 -3672 0
-172 72 -3172 0
172 3172 0
-72 3172 0
172 -72 -3672 0
-172 3672 0
72 3672 0
2772 3272 0
2772 3772 0
-2772 -3272 -3772 0
-272 172 -3272 0
272 3272 0
-172 3272 0
272 -172 -3772 0
-272 3772 0
172 3772 0
2872 3372 0
2872 3872 0
-2872 -3372 -3872 0
-372 272 -3372 0
372 3372 0
-272 3372 0
372 -272 -3872 0
-372 3872 0
272 3872 0
2972 3472 0
2972 3972 0
-2972 -3472 -3972 0
-472 372 -3472 0
472 3472 0
-372 3472 0
472 -372 -3972 0
-472 3972 0
372 3972 0
573 0
-973 0
-1073 1573 0
-1073 2073 0
-1073 573 0
-1073 -673 0
1073 -1573 -2073 -573 673 0
-73 173 -1573 0
73 1573 0
-173 1573 0
73 -173 -2073 0
-73 2073 0
173 2073 0
-1173 1673 0
-1173 2173 0
-1173 673 0
-1173 -773 0
1173 -1673 -2173 -673 773 0
-173 273 -1673 0
173 1673 0
-273 1673 0
173 -273 -2173 0
-173 2173 0
273 2173 0
-1273 1773 0
-1273 2273 0
-1273 773 0
-1273 -873 0
1273 -1773 -2273 -773 873 0
-273 373 -1773 0
273 1773 0
-373 1773 0
273 -373 -2273 0
-273 2273 0
373 2273 0
-1373 1873 0
-1373 2373 0
-1373 873 0
-1373 -973 0
1373 -1873 -2373 -873 973 0
-373 473 -1873 0
373 1873 0
-473 1873 0
373 -473 -2373 0
-373 2373 0
473 2373 0
2673 3173 0
2673 3673 0
-2673 -3173 -3673 0
-173 73 -3173 0
173 3173 0
-73 3173 0
173 -73 -3673 0
-173 3673 0
73 3673 0
2773 3273 0
2773 3773 0
-2773 -3273 -3773 0
-273 173 -3273 0
273 3273 0
-173 3273 0
273 -173 -3773 0
-273 3773 0
173 3773 0
2873 3373 0
2873 3873 0
-2873 -3373 -3873 0
-373 273 -3373 0
373 3373 0
-273 3373 0
373 -273 -3873 0
-373 3873 0
273 3873 0
2973 3473 0
2973 3973 0
-2973 -3473 -3973 0
-473 373 -3473 0
473 3473 0
-373 3473 0
473 -373 -3973 0
-473 3973 0
373 3973 0
574 0
-974 0
-1074 1574 0
-1074 2074 0
-1074 574 0
-1074 -674 0
1074 -1574 -2074 -574 674 0
-74 174 -1574 0
74 1574 0
-174 1574 0
74 -174 -2074 0
-74 2074 0
174 2074 0
-1174 1674 0
-1174 2174 0
-1174 674 0
-1174 -774 0
1174 -1674 -2174 -674 774 0
-174 274 -1674 0
174 1674 0
-274 1674 0
174 -274 -2174 0
-174 2174 0
274 2174 0
-1274 1774 0
-1274 2274 0
-1274 774 0
-1274 -874 0
1274 -1774 -2274 -774 874 0
-274 374 -1774 0
274 1774 0
-374 1774 0
274 -374 -2274 0
-274 2274 0
374 2274 0
-1374 1874 0
-1374 2374 0
-1374 874 0
-1374 -974 0
1374 -1874 -2374 -874 974 0
-374 474 -1874 0
374 1874 0
-474 1874 0
374 -474 -2374 0
-374 2374 0
474 2374 0
2674 3174 0
2674 3674 0
-2674 -3174 -3674 0
-174 74 -3174 0
174 3174 0
-74 3174 0
174 -74 -3674 0
-174 3674 0
74 3674 0
2774 3274 0
2774 3774 0
-2774 -3274 -3774 0
-274 174 -3274 0
274 3274 0
-174 3274 0
274 -174 -3774 0
-274 3774 0
174 3774 0
2874 3374 0
2874 3874 0
-2874 -3374 -3874 0
-374 274 -3374 0
374 3374 0
-274 3374 0
374 -274 -3874 0
-374 3874 0
274 3874 0
2974 3474 0
2974 3974 0
-2974 -3474 -3974 0
-474 374 -3474 0
474 3474 0
-374 3474 0
474 -374 -3974 0
-474 3974 0
374 3974 0
575 0
-975 0
-1075 1575 0
-1075 2075 0
-1075 575 0
-1075 -675 0
1075 -1575 -2075 -575 675 0
-75 175 -1575 0
75 1575 0
-175 1575 0
75 -175 -2075 0
-75 2075 0
175 2075 0
-1175 1675 0
-1175 2175 0
-1175 675 0
-1175 -775 0
1175 -1675 -2175 -675 775 0
-175 275 -1675 0
175 1675 0
-275 1675 0
175 -275 -2175 0
-175 2175 0
275 2175 0
-1275 1775 0
-1275 2275 0
-1275 775 0
-1275 -875 0
1275 -1775 -2275 -775 875 0
-275 375 -1775 0
275 1775 0
-375 1775 0
275 -375 -2275 0
-275 2275 0
375 2275 0
-1375 1875 0
-1375 2375 0
-1375 875 0
-1375 -975 0
1375 -1875 -2375 -875 975 0
-375 475 -1875 0
375 1875 0
-475 1875 0
375 -475 -2375 0
-375 2375 0
475 2375 0
2675 3175 0
2675 3675 0
-2675 -3175 -3675 0
-175 75 -3175 0
175 3175 0
-75 3175 0
175 -75 -3675 0
-175 3675 0
75 3675 0
2775 3275 0
2775 3775 0
-2775 -3275 -3775 0
-275 175 -3275 0
275 3275 0
-175 3275 0
275 -175 -3775 0
-275 3775 0
175 3775 0
2875 3375 0
2875 3875 0
-2875 -3375 -3875 0
-375 275 -3375 0
375 3375 0
-275 3375 0
375 -275 -3875 0
-375 3875 0
275 3875 0
2975 3475 0
2975 3975 0
-2975 -3475 -3975 0
-475 375 -3475 0
475 3475 0
-375 3475 0
475 -375 -3975 0
-475 3975 0
375 3975 0
576 0
-976 0
-1076 1576 0
-1076 2076 0
-1076 576 0
-1076 -676 0
1076 -1576 -2076 -576 676 0
-76 176 -1576 0
76 1576 0
-176 1576 0
76 -176 -2076 0
-76 2076 0
176 2076 0
-1176 1676 0
-1176 2176 0
-1176 676 0
-1176 -776 0
1176 -1676 -2176 -676 776 0
-176 276 -1676 0
176 1676 0
-276 1676 0
176 -276 -2176 0
-176 2176 0
276 2176 0
-1276 1776 0
-1276 2276 0
-1276 776 0
-1276 -876 0
1276 -1776 -2276 -776 876 0
-276 376 -1776 0
276 1776 0
-376 1776 0
276 -376 -2276 0
-276 2276 0
376 2276 0
-1376 1876 0
-1376 2376 0
-1376 876 0
-1376 -976 0
1376 -1876 -2376 -876 976 0
-376 476 -1876 0
376 1876 0
-476 1876 0
376 -476 -2376 0
-376 2376 0
476 2376 0
2676 3176 0
2676 3676 0
-2676 -3176 -3676 0
-176 76 -3176 0
176 3176 0
-76 3176 0
176 -76 -3676 0
-176 3676 0
76 3676 0
2776 3276 0
2776 3776 0
-2776 -3276 -3776 0
-276 176 -3276 0
276 3276 0
-176 3276 0
276 -176 -3776 0
-276 3776 0
176 3776 0
2876 3376 0
2876 3876 0
-2876 -3376 -3876 0
-376 276 -3376 0
376 3376 0
-276 3376 0
376 -276 -3876 0
-376 3876 0
276 3876 0
2976 3476 0
2976 3976 0
-2976 -3476 -3976 0
-476 376 -3476 0
476 3476 0
-376 3476 0
476 -376 -3976 0
-476 3976 0
376 3976 0
577 0
-977 0
-1077 1577 0
-1077 2077 0
-1077 577 0
-1077 -677 0
1077 -1577 -2077 -577 677 0
-77 177 -1577 0
77 1577 0
-177 1577 0
77 -177 -2077 0
-77 2077 0
177 2077 0
-1177 1677 0
-1177 2177 0
-1177 677 0
-1177 -777 0
1177 -1677 -2177 -677 777 0
-177 277 -1677 0
177 1677 0
-277 1677 0
177 -277 -2177 0
-177 2177 0
277 2177 0
-1277 1777 0
-1277 2277 0
-1277 777 0
-1277 -877 0
1277 -1777 -2277 -777 877 0
-277 377 -1777 0
277 1777 0
-377 1777 0
277 -377 -2277 0
-277 2277 0
377 2277 0
-1377 1877 0
-1377 2377 0
-1377 877 0
-1377 -977 0
1377 -1877 -2377 -877 977 0
-377 477 -1877 0
377 1877 0
-477 1877 0
377 -477 -2377 0
-377 2377 0
477 2377 0
2677 3177 0
2677 3677 0
-2677 -3177 -3677 0
-177 77 -3177 0
177 3177 0
-77 3177 0
177 -77 -3677 0
-177 3677 0
77 3677 0
2777 3277 0
2777 3777 0
-2777 -3277 -3777 0
-277 177 -3277 0
277 3277 0
-177 3277 0
277 -177 -3777 0
-277 3777 0
177 3777 0
2877 3377 0
2877 3877 0
-2877 -3377 -3877 0
-377 277 -3377 0
377 3377 0
-277 3377 0
377 -277 -3877 0
-377 3877 0
277 3877 0
2977 3477 0
2977 3977 0
-2977 -3477 -3977 0
-477 377 -3477 0
477 3477 0
-377 3477 0
477 -377 -3977 0
-477 3977 0
377 3977 0
578 0
-978 0
-1078 1578 0
-1078 2078 0
-1078 578 0
-1078 -678 0
1078 -1578 -2078 -578 678 0
-78 178 -1578 0
78 1578 0
-178 1578 0
78 -178 -2078 0
-78 2078 0
178 2078 0
-1178 1678 0
-1178 2178 0
-1178 678 0
-1178 -778 0
1178 -1678 -2178 -678 778 0
-178 278 -1678 0
178 1678 0
-278 1678 0
178 -278 -2178 0
-178 2178 0
278 2178 0
-1278 1778 0
-1278 2278 0
-1278 778 0
-1278 -878 0
1278 -1778 -2278 -778 878 0
-278 378 -1778 0
278 1778 0
-378 1778 0
278 -378 -2278 0
-278 2278 0
378 2278 0
-1378 1878 0
-1378 2378 0
-1378 878 0
-1378 -978 0
1378 -1878 -2378 -878 978 0
-378 478 -1878 0
378 1878 0
-478 1878 0
378 -478 -2378 0
-378 2378 0
478 2378 0
2678 3178 0
2678 3678 0
-2678 -3178 -3678 0
-178 78 -3178 0
178 3178 0
-78 3178 0
178 -78 -3678 0
-178 3678 0
78 3678 0
2778 3278 0
2778 3778 0
-2778 -3278 -3778 0
-278 178 -3278 0
278 3278 0
-178 3278 0
278 -178 -3778 0
-278 3778 0
178 3778 0
2878 3378 0
2878 3878 0
-2878 -3378 -3878 0
-378 278 -3378 0
378 3378 0
-278 3378 0
378 -278 -3878 0
-378 3878 0
278 3878 0
2978 3478 0
2978 3978 0
-2978 -3478 -3978 0
-478 378 -3478 0
478 3478 0
-378 3478 0
478 -378 -3978 0
-478 3978 0
378 3978 0
579 0
-979 0
-1079 1579 0
-1079 2079 0
-1079 579 0
-1079 -679 0
1079 -1579 -2079 -579 679 0
-79 179 -1579 0
79 1579 0
-179 1579 0
79 -179 -2079 0
-79 2079 0
179 2079 0
-1179 1679 0
-1179 2179 0
-1179 679 0
-1179 -779 0
1179 -1679 -2179 -679 779 0
-179 279 -1679 0
179 1679 0
-279 1679 0
179 -279 -2179 0
-179 2179 0
279 2179 0
-1279 1779 0
-1279 2279 0
-1279 779 0
-1279 -879 0
1279 -1779 -2279 -779 879 0
-279 379 -1779 0
279 1779 0
-379 1779 0
279 -379 -2279 0
-279 2279 0
379 2279 0
-1379 1879 0
-1379 2379 0
-1379 879 0
-1379 -979 0
1379 -1879 -2379 -879 979 0
-379 479 -1879 0
379 1879 0
-479 1879 0
379 -479 -2379 0
-379 2379 0
479 2379 0
2679 3179 0
2679 3679 0
-2679 -3179 -3679 0
-179 79 -3179 0
179 3179 0
-79 3179 0
179 -79 -3679 0
-179 3679 0
79 3679 0
2779 3279 0
2779 3779 0
-2779 -3279 -3779 0
-279 179 -3279 0
279 3279 0
-179 3279 0
279 -179 -3779 0
-279 3779 0
179 3779 0
2879 3379 0
2879 3879 0
-2879 -3379 -3879 0
-379 279 -3379 0
379 3379 0
-279 3379 0
379 -279 -3879 0
-379 3879 0
279 3879 0
2979 3479 0
2979 3979 0
-2979 -3479 -3979 0
-479 379 -3479 0
479 3479 0
-379 3479 0
479 -379 -3979 0
-479 3979 0
379 3979 0
580 0
-980 0
-1080 1580 0
-1080 2080 0
-1080 580 0
-1080 -680 0
1080 -1580 -2080 -580 680 0
-80 180 -1580 0
80 1580 0
-180 1580 0
80 -180 -2080 0
-80 2080 0
180 2080 0
-1180 1680 0
-1180 2180 0
-1180 680 0
-1180 -780 0
1180 -1680 -2180 -680 780 0
-180 280 -1680 0
180 1680 0
-280 1680 0
180 -280 -2180 0
-180 2180 0
280 2180 0
-1280 1780 0
-1280 2280 0
-1280 780 0
-1280 -880 0
1280 -1780 -2280 -780 880 0
-280 380 -1780 0
280 1780 0
-380 1780 0
280 -380 -2280 0
-280 2280 0
380 2280 0
-1380 1880 0
-1380 2380 0
-1380 880 0
-1380 -980 0
1380 -1880 -2380 -880 980 0
-380 480 -1880 0
380 1880 0
-480 1880 0
380 -480 -2380 0
-380 2380 0
480 2380 0
2680 3180 0
2680 3680 0
-2680 -3180 -3680 0
-180 80 -3180 0
180 3180 0
-80 3180 0
180 -80 -3680 0
-180 3680 0
80 3680 0
2780 3280 0
2780 3780 0
-2780 -3280 -3780 0
-280 180 -3280 0
280 3280 0
-180 3280 0
280 -180 -3780 0
-280 3780 0
180 3780 0
2880 3380 0
2880 3880 0
-2880 -3380 -3880 0
-380 280 -3380 0
380 3380 0
-280 3380 0
380 -280 -3880 0
-380 3880 0
280 3880 0
2980 3480 0
2980 3980 0
-2980 -3480 -3980 0
-480 380 -3480 0
480 3480 0
-380 3480 0
480 -380 -3980 0
-480 3980 0
380 3980 0
581 0
-981 0
-1081 1581 0
-1081 2081 0
-1081 581 0
-1081 -681 0
1081 -1581 -2081 -581 681 0
-81 181 -1581 0
81 1581 0
-181 1581 0
81 -181 -2081 0
-81 2081 0
181 2081 0
-1181 1681 0
-1181 2181 0
-1181 681 0
-1181 -781 0
1181 -1681 -2181 -681 781 0
-181 281 -1681 0
181 1681 0
-281 1681 0
181 -281 -2181 0
-181 2181 0
281 2181 0
-1281 1781 0
-1281 2281 0
-1281 781 0
-1281 -881 0
1281 -1781 -2281 -781 881 0
-281 381 -1781 0
281 1781 0
-381 1781 0
281 -381 -2281 0
-281 2281 0
381 2281 0
-1381 1881 0
-1381 2381 0
-1381 881 0
-1381 -981 0
1381 -1881 -2381 -881 981 0
-381 481 -1881 0
381 1881 0
-481 1881 0
381 -481 -2381 0
-381 2381 0
481 2381 0
2681 3181 0
2681 3681 0
-2681 -3181 -3681 0
-181 81 -3181 0
181 3181 0
-81 3181 0
181 -81 -3681 0
-181 3681 0
81 3681 0
2781 3281 0
2781 3781 0
-2781 -3281 -3781 0
-281 181 -3281 0
281 3281 0
-181 3281 0
281 -181 -3781 0
-281 3781 0
181 3781 0
2881 3381 0
2881 3881 0
-2881 -3381 -3881 0
-381 281 -3381 0
381 3381 0
-281 3381 0
381 -281 -3881 0
-381 3881 0
281 3881 0
2981 3481 0
2981 3981 0
-2981 -3481 -3981 0
-481 381 -3481 0
481 3481 0
-381 3481 0
481 -381 -3981 0
-481 3981 0
381 3981 0
582 0
-982 0
-1082 1582 0
-1082 2082 0
-1082 582 0
-1082 -682 0
1082 -1582 -2082 -582 682 0
-82 182 -1582 0
82 1582 0
-182 1582 0
82 -182 -2082 0
-82 2082 0
182 2082 0
-1182 1682 0
-1182 2182 0
-1182 682 0
-1182 -782 0
1182 -1682 -2182 -682 782 0
-182 282 -1682 0
182 1682 0
-282 1682 0
182 -282 -2182 0
-182 2182 0
282 2182 0
-1282 1782 0
-1282 2282 0
-1282 782 0
-1282 -882 0
1282 -1782 -2282 -782 882 0
-282 382 -1782 0
282 1782 0
-382 1782 0
282 -382 -2282 0
-282 2282 0
382 2282 0
-1382 1882 0
-1382 2382 0
-1382 882 0
-1382 -982 0
1382 -1882 -2382 -882 982 0
-382 482 -1882 0
382 1882 0
-482 1882 0
382 -482 -2382 0
-382 2382 0
482 2382 0
2682 3182 0
2682 3682 0
-2682 -3182 -3682 0
-182 82 -3182 0
182 3182 0
-82 3182 0
182 -82 -3682 0
-182 3682 0
82 3682 0
2782 3282 0
2782 3782 0
-2782 -3282 -3782 0
-282 182 -3282 0
282 3282 0
-182 3282 0
282 -182 -3782 0
-282 3782 0
182 3782 0
2882 3382 0
2882 3882 0
-2882 -3382 -3882 0
-382 282 -3382 0
382 3382 0
-282 3382 0
382 -282 -3882 0
-382 3882 0
282 3882 0
2982 3482 0
2982 3982 0
-2982 -3482 -3982 0
-482 382 -3482 0
482 3482 0
-382 3482 0
482 -382 -3982 0
-482 3982 0
382 3982 0
583 0
-983 0
-1083 1583 0
-1083 2083 0
-1083 583 0
-1083 -683 0
1083 -1583 -2083 -583 683 0
-83 183 -1583 0
83 1583 0
-183 1583 0
83 -183 -2083 0
-83 2083 0
183 2083 0
-1183 1683 0
-1183 2183 0
-1183 683 0
-1183 -783 0
1183 -1683 -2183 -683 783 0
-183 283 -1683 0
183 1683 0
-283 1683 0
183 -283 -2183 0
-183 2183 0
283 2183 0
-1283 1783 0
-1283 2283 0
-1283 783 0
-1283 -883 0
1283 -1783 -2283 -783 883 0
-283 383 -1783 0
283 1783 0
-383 1783 0
283 -383 -2283 0
-283 2283 0
383 2283 0
-1383 1883 0
-1383 2383 0
-1383 883 0
-1383 -983 0
1383 -1883 -2383 -883 983 0
-383 483 -1883 0
383 1883 0
-483 1883 0
383 -483 -2383 0
-383 2383 0
483 2383 0
2683 3183 0
2683 3683 0
-2683 -3183 -3683 0
-183 83 -3183 0
183 3183 0
-83 3183 0
183 -83 -3683 0
-183 3683 0
83 3683 0
2783 3283 0
2783 3783 0
-2783 -3283 -3783 0
-283 183 -3283 0
283 3283 0
-183 3283 0
283 -183 -3783 0
-283 3783 0
183 3783 0
2883 3383 0
2883 3883 0
-2883 -3383 -3883 0
-383 283 -3383 0
383 3383 0
-283 3383 0
383 -283 -3883 0
-383 3883 0
283 3883 0
2983 3483 0
2983 3983 0
-2983 -3483 -3983 0
-483 383 -3483 0
483 3483 0
-383 3483 0
483 -383 -3983 0
-483 3983 0
383 3983 0
584 0
-984 0
-1084 1584 0
-1084 2084 0
-1084 584 0
-1084 -684 0
1084 -1584 -2084 -584 684 0
-84 184 -1584 0
84 1584 0
-184 1584 0
84 -184 -2084 0
-84 2084 0
184 2084 0
-1184 1684 0
-1184 2184 0
-1184 684 0
-1184 -784 0
1184 -1684 -2184 -684 784 0
-184 284 -1684 0
184 1684 0
-284 1684 0
184 -284 -2184 0
-184 2184 0
284 2184 0
-1284 1784 0
-1284 2284 0
-1284 784 0
-1284 -884 0
1284 -1784 -2284 -784 884 0
-284 384 -1784 0
284 1784 0
-384 1784 0
284 -384 -2284 0
-284 2284 0
384 2284 0
-1384 1884 0
-1384 2384 0
-1384 884 0
-1384 -984 0
1384 -1884 -2384 -884 984 0
-384 484 -1884 0
384 1884 0
-484 1884 0
384 -484 -2384 0
-384 2384 0
484 2384 0
2684 3184 0
2684 3684 0
-2684 -3184 -3684 0
-184 84 -3184 0
184 3184 0
-84 3184 0
184 -84 -3684 0
-184 3684 0
84 3684 0
2784 3284 0
2784 3784 0
-2784 -3284 -3784 0
-284 184 -3284 0
284 3284 0
-184 3284 0
284 -184 -3784 0
-284 3784 0
184 3784 0
2884 3384 0
2884 3884 0
-2884 -3384 -3884 0
-384 284 -3384 0
384 3384 0
-284 3384 0
384 -284 -3884 0
-384 3884 0
284 3884 0
2984 3484 0
2984 3984 0
-2984 -3484 -3984 0
-484 384 -3484 0
484 3484 0
-384 3484 0
484 -384 -3984 0
-484 3984 0
384 3984 0
585 0
-985 0
-1085 1585 0
-1085 2085 0
-1085 585 0
-1085 -685 0
1085 -1585 -2085 -585 685 0
-85 185 -1585 0
85 1585 0
-185 1585 0
85 -185 -2085 0
-85 2085 0
185 2085 0
-1185 1685 0
-1185 2185 0
-1185 685 0
-1185 -785 0
1185 -1685 -2185 -685 785 0
-185 285 -1685 0
185 1685 0
-285 1685 0
185 -285 -2185 0
-185 2185 0
285 2185 0
-1285 1785 0
-1285 2285 0
-1285 785 0
-1285 -885 0
1285 -1785 -2285 -785 885 0
-285 385 -1785 0
285 1785 0
-385 1785 0
285 -385 -2285 0
-285 2285 0
385 2285 0
-1385 1885 0
-1385 2385 0
-1385 885 0
-1385 -985 0
1385 -1885 -2385 -885 985 0
-385 485 -1885 0
385 1885 0
-485 1885 0
385 -485 -2385 0
-385 2385 0
485 2385 0
2685 3185 0
2685 3685 0
-2685 -3185 -3685 0
-185 85 -3185 0
185 3185 0
-85 3185 0
185 -85 -3685 0
-185 3685 0
85 3685 0
2785 3285 0
2785 3785 0
-2785 -3285 -3785 0
-285 185 -3285 0
285 3285 0
-185 3285 0
285 -185 -3785 0
-285 3785 0
185 3785 0
2885 3385 0
2885 3885 0
-2885 -3385 -3885 0
-385 285 -3385 0
385 3385 0
-285 3385 0
385 -285 -3885 0
-385 3885 0
285 3885 0
2985 3485 0
2985 3985 0
-2985 -3485 -3985 0
-485 385 -3485 0
485 3485 0
-385 3485 0
485 -385 -3985 0
-485 3985 0
385 3985 0
586 0
-986 0
-1086 1586 0
-1086 2086 0
-1086 586 0
-1086 -686 0
1086 -1586 -2086 -586 686 0
-86 186 -1586 0
86 1586 0
-186 1586 0
86 -186 -2086 0
-86 2086 0
186 2086 0
-1186 1686 0
-1186 2186 0
-1186 686 0
-1186 -786 0
1186 -1686 -2186 -686 786 0
-186 286 -1686 0
186 1686 0
-286 1686 0
186 -286 -2186 0
-186 2186 0
286 2186 0
-1286 1786 0
-1286 2286 0
-1286 786 0
-1286 -886 0
1286 -1786 -2286 -786 886 0
-286 386 -1786 0
286 1786 0
-386 1786 0
286 -386 -2286 0
-286 2286 0
386 2286 0
-1386 1886 0
-1386 2386 0
-1386 886 0
-1386 -986 0
1386 -1886 -2386 -886 986 0
-386 486 -1886 0
386 1886 0
-486 1886 0
386 -486 -2386 0
-386 2386 0
486 2386 0
2686 3186 0
2686 3686 0
-2686 -3186 -3686 0
-186 86 -3186 0
186 3186 0
-86 3186 0
186 -86 -3686 0
-186 3686 0
86 3686 0
2786 3286 0
2786 3786 0
-2786 -3286 -3786 0
-286 186 -3286 0
286 3286 0
-186 3286 0
286 -186 -3786 0
-286 3786 0
186 3786 0
2886 3386 0
2886 3886 0
-2886 -3386 -3886 0
-386 286 -3386 0
386 3386 0
-286 3386 0
386 -286 -3886 0
-386 3886 0
286 3886 0
2986 3486 0
2986 3986 0
-2986 -3486 -3986 0
-486 386 -3486 0
486 3486 0
-386 3486 0
486 -386 -3986 0
-486 3986 0
386 3986 0
587 0
-987 0
-1087 1587 0
-1087 2087 0
-1087 587 0
-1087 -687 0
1087 -1587 -2087 -587 687 0
-87 187 -1587 0
87 1587 0
-187 1587 0
87 -187 -2087 0
-87 2087 0
187 2087 0
-1187 1687 0
-1187 2187 0
-1187 687 0
-1187 -787 0
1187 -1687 -2187 -687 787 0
-187 287 -1687 0
187 1687 0
-287 1687 0
187 -287 -2187 0
-187 2187 0
287 2187 0
-1287 1787 0
-1287 2287 0
-1287 787 0
-1287 -887 0
1287 -1787 -2287 -787 887 0
-287 387 -1787 0
287 1787 0
-387 1787 0
287 -387 -2287 0
-287 2287 0
387 2287 0
-1387 1887 0
-1387 2387 0
-1387 887 0
-1387 -987 0
1387 -1887 -2387 -887 987 0
-387 487 -1887 0
387 1887 0
-487 1887 0
387 -487 -2387 0
-387 2387 0
487 2387 0
2687 3187 0
2687 3687 0
-2687 -3187 -3687 0
-187 87 -3187 0
187 3187 0
-87 3187 0
187 -87 -3687 0
-187 3687 0
87 3687 0
2787 3287 0
2787 3787 0
-2787 -3287 -3787 0
-287 187 -3287 0
287 3287 0
-187 3287 0
287 -187 -3787 0
-287 3787 0
187 3787 0
2887 3387 0
2887 3887 0
-2887 -3387 -3887 0
-387 287 -3387 0
387 3387 0
-287 3387 0
387 -287 -3887 0
-387 3887 0
287 3887 0
2987 3487 0
2987 3987 0
-2987 -3487 -3987 0
-487 387 -3487 0
487 3487 0
-387 3487 0
487 -387 -3987 0
-487 3987 0
387 3987 0
588 0
-988 0
-1088 1588 0
-1088 2088 0
-1088 588 0
-1088 -688 0
1088 -1588 -2088 -588 688 0
-88 188 -1588 0
88 1588 0
-188 1588 0
88 -188 -2088 0
-88 2088 0
188 2088 0
-1188 1688 0
-1188 2188 0
-1188 688 0
-1188 -788 0
1188 -1688 -2188 -688 788 0
-188 288 -1688 0
188 1688 0
-288 1688 0
188 -288 -2188 0
-188 2188 0
288 2188 0
-1288 1788 0
-1288 2288 0
-1288 788 0
-1288 -888 0
1288 -1788 -2288 -788 888 0
-288 388 -1788 0
288 1788 0
-388 1788 0
288 -388 -2288 0
-288 2288 0
388 2288 0
-1388 1888 0
-1388 2388 0
-1388 888 0
-1388 -988 0
1388 -1888 -2388 -888 988 0
-388 488 -1888 0
388 1888 0
-488 1888 0
388 -488 -2388 0
-388 2388 0
488 2388 0
2688 3188 0
2688 3688 0
-2688 -3188 -3688 0
-188 88 -3188 0
188 3188 0
-88 3188 0
188 -88 -3688 0
-188 3688 0
88 3688 0
2788 3288 0
2788 3788 0
-2788 -3288 -3788 0
-288 188 -3288 0
288 3288 0
-188 3288 0
288 -188 -3788 0
-288 3788 0
188 3788 0
2888 3388 0
2888 3888 0
-2888 -3388 -3888 0
-388 288 -3388 0
388 3388 0
-288 3388 0
388 -288 -3888 0
-388 3888 0
288 3888 0
2988 3488 0
2988 3988 0
-2988 -3488 -3988 0
-488 388 -3488 0
488 3488 0
-388 3488 0
488 -388 -3988 0
-488 3988 0
388 3988 0
589 0
-989 0
-1089 1589 0
-1089 2089 0
-1089 589 0
-1089 -689 0
1089 -1589 -2089 -589 689 0
-89 189 -1589 0
89 1589 0
-189 1589 0
89 -189 -2089 0
-89 2089 0
189 2089 0
-1189 1689 0
-1189 2189 0
-1189 689 0
-1189 -789 0
1189 -1689 -2189 -689 789 0
-189 289 -1689 0
189 1689 0
-289 1689 0
189 -289 -2189 0
-189 2189 0
289 2189 0
-1289 1789 0
-1289 2289 0
-1289 789 0
-1289 -889 0
1289 -1789 -2289 -789 889 0
-289 389 -1789 0
289 1789 0
-389 1789 0
289 -389 -2289 0
-289 2289 0
389 2289 0
-1389 1889 0
-1389 2389 0
-1389 889 0
-1389 -989 0
1389 -1889 -2389 -889 989 0
-389 489 -1889 0
389 1889 0
-489 1889 0
389 -489 -2389 0
-389 2389 0
489 2389 0
2689 3189 0
2689 3689 0
-2689 -3189 -3689 0
-189 89 -3189 0
189 3189 0
-89 3189 0
189 -89 -3689 0
-189 3689 0
89 3689 0
2789 3289 0
2789 3789 0
-2789 -3289 -3789 0
-289 189 -3289 0
289 3289 0
-189 3289 0
289 -189 -3789 0
-289 3789 0
189 3789 0
2889 3389 0
2889 3889 0
-2889 -3389 -3889 0
-389 289 -3389 0
389 3389 0
-289 3389 0
389 -289 -3889 0
-389 3889 0
289 3889 0
2989 3489 0
2989 3989 0
-2989 -3489 -3989 0
-489 389 -3489 0
489 3489 0
-389 3489 0
489 -389 -3989 0
-489 3989 0
389 3989 0
590 0
-990 0
-1090 1590 0
-1090 2090 0
-1090 590 0
-1090 -690 0
1090 -1590 -2090 -590 690 0
-90 190 -1590 0
90 1590 0
-190 1590 0
90 -190 -2090 0
-90 2090 0
190 2090 0
-1190 1690 0
-1190 2190 0
-1190 690 0
-1190 -790 0
1190 -1690 -2190 -690 790 0
-190 290 -1690 0
190 1690 0
-290 1690 0
190 -290 -2190 0
-190 2190 0
290 2190 0
-1290 1790 0
-1290 2290 0
-1290 790 0
-1290 -890 0
1290 -1790 -2290 -790 890 0
-290 390 -1790 0
290 1790 0
-390 1790 0
290 -390 -2290 0
-290 2290 0
390 2290 0
-1390 1890 0
-1390 2390 0
-1390 890 0
-1390 -990 0
1390 -1890 -2390 -890 990 0
-390 490 -1890 0
390 1890 0
-490 1890 0
390 -490 -2390 0
-390 2390 0
490 2390 0
2690 3190 0
2690 3690 0
-2690 -3190 -3690 0
-190 90 -3190 0
190 3190 0
-90 3190 0
190 -90 -3690 0
-190 3690 0
90 3690 0
2790 3290 0
2790 3790 0
-2790 -3290 -3790 0
-290 190 -3290 0
290 3290 0
-190 3290 0
290 -190 -3790 0
-290 3790 0
190 3790 0
2890 3390 0
2890 3890 0
-2890 -3390 -3890 0
-390 290 -3390 0
390 3390 0
-290 3390 0
390 -290 -3890 0
-390 3890 0
290 3890 0
2990 3490 0
2990 3990 0
-2990 -3490 -3990 0
-490 390 -3490 0
490 3490 0
-390 3490 0
490 -390 -3990 0
-490 3990 0
390 3990 0
591 0
-991 0
-1091 1591 0
-1091 2091 0
-1091 591 0
-1091 -691 0
1091 -1591 -2091 -591 691 0
-91 191 -1591 0
91 1591 0
-191 1591 0
91 -191 -2091 0
-91 2091 0
191 2091 0
-1191 1691 0
-1191 2191 0
-1191 691 0
-1191 -791 0
1191 -1691 -2191 -691 791 0
-191 291 -1691 0
191 1691 0
-291 1691 0
191 -291 -2191 0
-191 2191 0
291 2191 0
-1291 1791 0
-1291 2291 0
-1291 791 0
-1291 -891 0
1291 -1791 -2291 -791 891 0
-291 391 -1791 0
291 1791 0
-391 1791 0
291 -391 -2291 0
-291 2291 0
391 2291 0
-1391 1891 0
-1391 2391 0
-1391 891 0
-1391 -991 0
1391 -1891 -2391 -891 991 0
-391 491 -1891 0
391 1891 0
-491 1891 0
391 -491 -2391 0
-391 2391 0
491 2391 0
2691 3191 0
2691 3691 0
-2691 -3191 -3691 0
-191 91 -3191 0
191 3191 0
-91 3191 0
191 -91 -3691 0
-191 3691 0
91 3691 0
2791 3291 0
2791 3791 0
-2791 -3291 -3791 0
-291 191 -3291 0
291 3291 0
-191 3291 0
291 -191 -3791 0
-291 3791 0
191 3791 0
2891 3391 0
2891 3891 0
-2891 -3391 -3891 0
-391 291 -3391 0
391 3391 0
-291 3391 0
391 -291 -3891 0
-391 3891 0
291 3891 0
2991 3491 0
2991 3991 0
-2991 -3491 -3991 0
-491 391 -3491 0
491 3491 0
-391 3491 0
491 -391 -3991 0
-491 3991 0
391 3991 0
592 0
-992 0
-1092 1592 0
-1092 2092 0
-1092 592 0
-1092 -692 0
1092 -1592 -2092 -592 692 0
-92 192 -1592 0
92 1592 0
-192 1592 0
92 -192 -2092 0
-92 2092 0
192 2092 0
-1192 1692 0
-1192 2192 0
-1192 692 0
-1192 -792 0
1192 -1692 -2192 -692 792 0
-192 292 -1692 0
192 1692 0
-292 1692 0
192 -292 -2192 0
-192 2192 0
292 2192 0
-1292 1792 0
-1292 2292 0
-1292 792 0
-1292 -892 0
1292 -1792 -2292 -792 892 0
-292 392 -1792 0
292 1792 0
-392 1792 0
292 -392 -2292 0
-292 2292 0
392 2292 0
-1392 1892 0
-1392 2392 0
-1392 892 0
-1392 -992 0
1392 -1892 -2392 -892 992 0
-392 492 -1892 0
392 1892 0
-492 1892 0
392 -492 -2392 0
-392 2392 0
492 2392 0
2692 3192 0
2692 3692 0
-2692 -3192 -3692 0
-192 92 -3192 0
192 3192 0
-92 3192 0
192 -92 -3692 0
-192 3692 0
92 3692 0
2792 3292 0
2792 3792 0
-2792 -3292 -3792 0
-292 192 -3292 0
292 3292 0
-192 3292 0
292 -192 -3792 0
-292 3792 0
192 3792 0
2892 3392 0
2892 3892 0
-2892 -3392 -3892 0
-392 292 -3392 0
392 3392 0
-292 3392 0
392 -292 -3892 0
-392 3892 0
292 3892 0
2992 3492 0
2992 3992 0
-2992 -3492 -3992 0
-492 392 -3492 0
492 3492 0
-392 3492 0
492 -392 -3992 0
-492 3992 0
392 3992 0
593 0
-993 0
-1093 1593 0
-1093 2093 0
-1093 593 0
-1093 -693 0
1093 -1593 -2093 -593 693 0
-93 193 -1593 0
93 1593 0
-193 1593 0
93 -193 -2093 0
-93 2093 0
193 2093 0
-1193 1693 0
-1193 2193 0
-1193 693 0
-1193 -793 0
1193 -1693 -2193 -693 793 0
-193 293 -1693 0
193 1693 0
-293 1693 0
193 -293 -2193 0
-193 2193 0
293 2193 0
-1293 1793 0
-1293 2293 0
-1293 793 0
-1293 -893 0
1293 -1793 -2293 -793 893 0
-293 393 -1793 0
293 1793 0
-393 1793 0
293 -393 -2293 0
-293 2293 0
393 2293 0
-1393 1893 0
-1393 2393 0
-1393 893 0
-1393 -993 0
1393 -1893 -2393 -893 993 0
-393 493 -1893 0
393 1893 0
-493 1893 0
393 -493 -2393 0
-393 2393 0
493 2393 0
2693 3193 0
2693 3693 0
-2693 -3193 -3693 0
-193 93 -3193 0
193 3193 0
-93 3193 0
193 -93 -3693 0
-193 3693 0
93 3693 0
2793 3293 0
2793 3793 0
-2793 -3293 -3793 0
-293 193 -3293 0
293 3293 0
-193 3293 0
293 -193 -3793 0
-293 3793 0
193 3793 0
2893 3393 0
2893 3893 0
-2893 -3393 -3893 0
-393 293 -3393 0
393 3393 0
-293 3393 0
393 -293 -3893 0
-393 3893 0
293 3893 0
2993 3493 0
2993 3993 0
-2993 -3493 -3993 0
-493 393 -3493 0
493 3493 0
-393 3493 0
493 -393 -3993 0
-493 3993 0
393 3993 0
594 0
-994 0
-1094 1594 0
-1094 2094 0
-1094 594 0
-1094 -694 0
1094 -1594 -2094 -594 694 0
-94 194 -1594 0
94 1594 0
-194 1594 0
94 -194 -2094 0
-94 2094 0
194 2094 0
-1194 1694 0
-1194 2194 0
-1194 694 0
-1194 -794 0
1194 -1694 -2194 -694 794 0
-194 294 -1694 0
194 1694 0
-294 1694 0
194 -294 -2194 0
-194 2194 0
294 2194 0
-1294 1794 0
-1294 2294 0
-1294 794 0
-1294 -894 0
1294 -1794 -2294 -794 894 0
-294 394 -1794 0
294 1794 0
-394 1794 0
294 -394 -2294 0
-294 2294 0
394 2294 0
-1394 1894 0
-1394 2394 0
-1394 894 0
-1394 -994 0
1394 -1894 -2394 -894 994 0
-394 494 -1894 0
394 1894 0
-494 1894 0
394 -494 -2394 0
-394 2394 0
494 2394 0
2694 3194 0
2694 3694 0
-2694 -3194 -3694 0
-194 94 -3194 0
194 3194 0
-94 3194 0
194 -94 -3694 0
-194 3694 0
94 3694 0
2794 3294 0
2794 3794 0
-2794 -3294 -3794 0
-294 194 -3294 0
294 3294 0
-194 3294 0
294 -194 -3794 0
-294 3794 0
194 3794 0
2894 3394 0
2894 3894 0
-2894 -3394 -3894 0
-394 294 -3394 0
394 3394 0
-294 3394 0
394 -294 -3894 0
-394 3894 0
294 3894 0
2994 3494 0
2994 3994 0
-2994 -3494 -3994 0
-494 394 -3494 0
494 3494 0
-394 3494 0
494 -394 -3994 0
-494 3994 0
394 3994 0
595 0
-995 0
-1095 1595 0
-1095 2095 0
-1095 595 0
-1095 -695 0
1095 -1595 -2095 -595 695 0
-95 195 -1595 0
95 1595 0
-195 1595 0
95 -195 -2095 0
-95 2095 0
195 2095 0
-1195 1695 0
-1195 2195 0
-1195 695 0
-1195 -795 0
1195 -1695 -2195 -695 795 0
-195 295 -1695 0
195 1695 0
-295 1695 0
195 -295 -2195 0
-195 2195 0
295 2195 0
-1295 1795 0
-1295 2295 0
-1295 795 0
-1295 -895 0
1295 -1795 -2295 -795 895 0
-295 395 -1795 0
295 1795 0
-395 1795 0
295 -395 -2295 0
-295 2295 0
395 2295 0
-1395 1895 0
-1395 2395 0
-1395 895 0
-1395 -995 0
1395 -1895 -2395 -895 995 0
-395 495 -1895 0
395 1895 0
-495 1895 0
395 -495 -2395 0
-395 2395 0
495 2395 0
2695 3195 0
2695 3695 0
-2695 -3195 -3695 0
-195 95 -3195 0
195 3195 0
-95 3195 0
195 -95 -3695 0
-195 3695 0
95 3695 0
2795 3295 0
2795 3795 0
-2795 -3295 -3795 0
-295 195 -3295 0
295 3295 0
-195 3295 0
295 -195 -3795 0
-295 3795 0
195 3795 0
2895 3395 0
2895 3895 0
-2895 -3395 -3895 0
-395 295 -3395 0
395 3395 0
-295 3395 0
395 -295 -3895 0
-395 3895 0
295 3895 0
2995 3495 0
2995 3995 0
-2995 -3495 -3995 0
-495 395 -3495 0
495 3495 0
-395 3495 0
495 -395 -3995 0
-495 3995 0
395 3995 0
596 0
-996 0
-1096 1596 0
-1096 2096 0
-1096 596 0
-1096 -696 0
1096 -1596 -2096 -596 696 0
-96 196 -1596 0
96 1596 0
-196 1596 0
96 -196 -2096 0
-96 2096 0
196 2096 0
-1196 1696 0
-1196 2196 0
-1196 696 0
-1196 -796 0
1196 -1696 -2196 -696 796 0
-196 296 -1696 0
196 1696 0
-296 1696 0
196 -296 -2196 0
-196 2196 0
296 2196 0
-1296 1796 0
-1296 2296 0
-1296 796 0
-1296 -896 0
1296 -1796 -2296 -796 896 0
-296 396 -1796 0
296 1796 0
-396 1796 0
296 -396 -2296 0
-296 2296 0
396 2296 0
-1396 1896 0
-1396 2396 0
-1396 896 0
-1396 -996 0
1396 -1896 -2396 -896 996 0
-396 496 -1896 0
396 1896 0
-496 1896 0
396 -496 -2396 0
-396 2396 0
496 2396 0
2696 3196 0
2696 3696 0
-2696 -3196 -3696 0
-196 96 -3196 0
196 3196 0
-96 3196 0
196 -96 -3696 0
-196 3696 0
96 3696 0
2796 3296 0
2796 3796 0
-2796 -3296 -3796 0
-296 196 -3296 0
296 3296 0
-196 3296 0
296 -196 -3796 0
-296 3796 0
196 3796 0
2896 3396 0
2896 3896 0
-2896 -3396 -3896 0
-396 296 -3396 0
396 3396 0
-296 3396 0
396 -296 -3896 0
-396 3896 0
296 3896 0
2996 3496 0
2996 3996 0
-2996 -3496 -3996 0
-496 396 -3496 0
496 3496 0
-396 3496 0
496 -396 -3996 0
-496 3996 0
396 3996 0
597 0
-997 0
-1097 1597 0
-1097 2097 0
-1097 597 0
-1097 -697 0
1097 -1597 -2097 -597 697 0
-97 197 -1597 0
97 1597 0
-197 1597 0
97 -197 -2097 0
-97 2097 0
197 2097 0
-1197 1697 0
-1197 2197 0
-1197 697 0
-1197 -797 0
1197 -1697 -2197 -697 797 0
-197 297 -1697 0
197 1697 0
-297 1697 0
197 -297 -2197 0
-197 2197 0
297 2197 0
-1297 1797 0
-1297 2297 0
-1297 797 0
-1297 -897 0
1297 -1797 -2297 -797 897 0
-297 397 -1797 0
297 1797 0
-397 1797 0
297 -397 -2297 0
-297 2297 0
397 2297 0
-1397 1897 0
-1397 2397 0
-1397 897 0
-1397 -997 0
1397 -1897 -2397 -897 997 0
-397 497 -1897 0
397 1897 0
-497 1897 0
397 -497 -2397 0
-397 2397 0
497 2397 0
2697 3197 0
2697 3697 0
-2697 -3197 -3697 0
-197 97 -3197 0
197 3197 0
-97 3197 0
197 -97 -3697 0
-197 3697 0
97 3697 0
2797 3297 0
2797 3797 0
-2797 -3297 -3797 0
-297 197 -3297 0
297 3297 0
-197 3297 0
297 -197 -3797 0
-297 3797 0
197 3797 0
2897 3397 0
2897 3897 0
-2897 -3397 -3897 0
-397 297 -3397 0
397 3397 0
-297 3397 0
397 -297 -3897 0
-397 3897 0
297 3897 0
2997 3497 0
2997 3997 0
-2997 -3497 -3997 0
-497 397 -3497 0
497 3497 0
-397 3497 0
497 -397 -3997 0
-497 3997 0
397 3997 0
598 0
-998 0
-1098 1598 0
-1098 2098 0
-1098 598 0
-1098 -698 0
1098 -1598 -2098 -598 698 0
-98 198 -1598 0
98 1598 0
-198 1598 0
98 -198 -2098 0
-98 2098 0
198 2098 0
-1198 1698 0
-1198 2198 0
-1198 698 0
-1198 -798 0
1198 -1698 -2198 -698 798 0
-198 298 -1698 0
198 1698 0
-298 1698 0
198 -298 -2198 0
-198 2198 0
298 2198 0
-1298 1798 0
-1298 2298 0
-1298 798 0
-1298 -898 0
1298 -1798 -2298 -798 898 0
-298 398 -1798 0
298 1798 0
-398 1798 0
298 -398 -2298 0
-298 2298 0
398 2298 0
-1398 1898 0
-1398 2398 0
-1398 898 0
-1398 -998 0
1398 -1898 -2398 -898 998 0
-398 498 -1898 0
398 1898 0
-498 1898 0
398 -498 -2398 0
-398 2398 0
498 2398 0
2698 3198 0
2698 3698 0
-2698 -3198 -3698 0
-198 98 -3198 0
198 3198 0
-98 3198 0
198 -98 -3698 0
-198 3698 0
98 3698 0
2798 3298 0
2798 3798 0
-2798 -3298 -3798 0
-298 198 -3298 0
298 3298 0
-198 3298 0
298 -198 -3798 0
-298 3798 0
198 3798 0
2898 3398 0
2898 3898 0
-2898 -3398 -3898 0
-398 298 -3398 0
398 3398 0
-298 3398 0
398 -298 -3898 0
-398 3898 0
298 3898 0
2998 3498 0
2998 3998 0
-2998 -3498 -3998 0
-498 398 -3498 0
498 3498 0
-398 3498 0
498 -398 -3998 0
-498 3998 0
398 3998 0
599 0
-999 0
-1099 1599 0
-1099 2099 0
-1099 599 0
-1099 -699 0
1099 -1599 -2099 -599 699 0
-99 199 -1599 0
99 1599 0
-199 1599 0
99 -199 -2099 0
-99 2099 0
199 2099 0
-1199 1699 0
-1199 2199 0
-1199 699 0
-1199 -799 0
1199 -1699 -2199 -699 799 0
-199 299 -1699 0
199 1699 0
-299 1699 0
199 -299 -2199 0
-199 2199 0
299 2199 0
-1299 1799 0
-1299 2299 0
-1299 799 0
-1299 -899 0
1299 -1799 -2299 -799 899 0
-299 399 -1799 0
299 1799 0
-399 1799 0
299 -399 -2299 0
-299 2299 0
399 2299 0
-1399 1899 0
-1399 2399 0
-1399 899 0
-1399 -999 0
1399 -1899 -2399 -899 999 0
-399 499 -1899 0
399 1899 0
-499 1899 0
399 -499 -2399 0
-399 2399 0
499 2399 0
2699 3199 0
2699 3699 0
-2699 -3199 -3699 0
-199 99 -3199 0
199 3199 0
-99 3199 0
199 -99 -3699 0
-199 3699 0
99 3699 0
2799 3299 0
2799 3799 0
-2799 -3299 -3799 0
-299 199 -3299 0
299 3299 0
-199 3299 0
299 -199 -3799 0
-299 3799 0
199 3799 0
2899 3399 0
2899 3899 0
-2899 -3399 -3899 0
-399 299 -3399 0
399 3399 0
-299 3399 0
399 -299 -3899 0
-399 3899 0
299 3899 0
2999 3499 0
2999 3999 0
-2999 -3499 -3999 0
-499 399 -3499 0
499 3499 0
-399 3499 0
499 -399 -3999 0
-499 3999 0
399 3999 0
600 0
-1000 0
-1100 1600 0
-1100 2100 0
-1100 600 0
-1100 -700 0
1100 -1600 -2100 -600 700 0
-100 200 -1600 0
100 1600 0
-200 1600 0
100 -200 -2100 0
-100 2100 0
200 2100 0
-1200 1700 0
-1200 2200 0
-1200 700 0
-1200 -800 0
1200 -1700 -2200 -700 800 0
-200 300 -1700 0
200 1700 0
-300 1700 0
200 -300 -2200 0
-200 2200 0
300 2200 0
-1300 1800 0
-1300 2300 0
-1300 800 0
-1300 -900 0
1300 -1800 -2300 -800 900 0
-300 400 -1800 0
300 1800 0
-400 1800 0
300 -400 -2300 0
-300 2300 0
400 2300 0
-1400 1900 0
-1400 2400 0
-1400 900 0
-1400 -1000 0
1400 -1900 -2400 -900 1000 0
-400 500 -1900 0
400 1900 0
-500 1900 0
400 -500 -2400 0
-400 2400 0
500 2400 0
2700 3200 0
2700 3700 0
-2700 -3200 -3700 0
-200 100 -3200 0
200 3200 0
-100 3200 0
200 -100 -3700 0
-200 3700 0
100 3700 0
2800 3300 0
2800 3800 0
-2800 -3300 -3800 0
-300 200 -3300 0
300 3300 0
-200 3300 0
300 -200 -3800 0
-300 3800 0
200 3800 0
2900 3400 0
2900 3900 0
-2900 -3400 -3900 0
-400 300 -3400 0
400 3400 0
-300 3400 0
400 -300 -3900 0
-400 3900 0
300 3900 0
3000 3500 0
3000 4000 0
-3000 -3500 -4000 0
-500 400 -3500 0
500 3500 0
-400 3500 0
500 -400 -4000 0
-500 4000 0
400 4000 0
-5401 2901 0
5401 -2901 0
-5001 1001 0
5001 -1001 0
-5402 2902 0
5402 -2902 0
-5002 1002 0
5002 -1002 0
-5403 2903 0
5403 -2903 0
-5003 1003 0
5003 -1003 0
-5404 2904 0
5404 -2904 0
-5004 1004 0
5004 -1004 0
-5405 2905 0
5405 -2905 0
-5005 1005 0
5005 -1005 0
-5406 2906 0
5406 -2906 0
-5006 1006 0
5006 -1006 0
-5407 2907 0
5407 -2907 0
-5007 1007 0
5007 -1007 0
-5408 2908 0
5408 -2908 0
-5008 1008 0
5008 -1008 0
-5409 2909 0
5409 -2909 0
-5009 1009 0
5009 -1009 0
-5410 2910 0
5410 -2910 0
-5010 1010 0
5010 -1010 0
-5411 2911 0
5411 -2911 0
-5011 1011 0
5011 -1011 0
-5412 2912 0
5412 -2912 0
-5012 1012 0
5012 -1012 0
-5413 2913 0
5413 -2913 0
-5013 1013 0
5013 -1013 0
-5414 2914 0
5414 -2914 0
-5014 1014 0
5014 -1014 0
-5415 2915 0
5415 -2915 0
-5015 1015 0
5015 -1015 0
-5416 2916 0
5416 -2916 0
-5016 1016 0
5016 -1016 0
-5417 2917 0
5417 -2917 0
-5017 1017 0
5017 -1017 0
-5418 2918 0
5418 -2918 0
-5018 1018 0
5018 -1018 0
-5419 2919 0
5419 -2919 0
-5019 1019 0
5019 -1019 0
-5420 2920 0
5420 -2920 0
-5020 1020 0
5020 -1020 0
-5421 2921 0
5421 -2921 0
-5021 1021 0
5021 -1021 0
-5422 2922 0
5422 -2922 0
-5022 1022 0
5022 -1022 0
-5423 2923 0
5423 -2923 0
-5023 1023 0
5023 -1023 0
-5424 2924 0
5424 -2924 0
-5024 1024 0
5024 -1024 0
-5425 2925 0
5425 -2925 0
-5025 1025 0
5025 -1025 0
-5426 2926 0
5426 -2926 0
-5026 1026 0
5026 -1026 0
-5427 2927 0
5427 -2927 0
-5027 1027 0
5027 -1027 0
-5428 2928 0
5428 -2928 0
-5028 1028 0
5028 -1028 0
-5429 2929 0
5429 -2929 0
-5029 1029 0
5029 -1029 0
-5430 2930 0
5430 -2930 0
-5030 1030 0
5030 -1030 0
-5431 2931 0
5431 -2931 0
-5031 1031 0
5031 -1031 0
-5432 2932 0
5432 -2932 0
-5032 1032 0
5032 -1032 0
-5433 2933 0
5433 -2933 0
-5033 1033 0
5033 -1033 0
-5434 2934 0
5434 -2934 0
-5034 1034 0
5034 -1034 0
-5435 2935 0
5435 -2935 0
-5035 1035 0
5035 -1035 0
-5436 2936 0
5436 -2936 0
-5036 1036 0
5036 -1036 0
-5437 2937 0
5437 -2937 0
-5037 1037 0
5037 -1037 0
-5438 2938 0
5438 -2938 0
-5038 1038 0
5038 -1038 0
-5439 2939 0
5439 -2939 0
-5039 1039 0
5039 -1039 0
-5440 2940 0
5440 -2940 0
-5040 1040 0
5040 -1040 0
-5441 2941 0
5441 -2941 0
-5041 1041 0
5041 -1041 0
-5442 2942 0
5442 -2942 0
-5042 1042 0
5042 -1042 0
-5443 2943 0
5443 -2943 0
-5043 1043 0
5043 -1043 0
-5444 2944 0
5444 -2944 0
-5044 1044 0
5044 -1044 0
-5445 2945 0
5445 -2945 0
-5045 1045 0
5045 -1045 0
-5446 2946 0
5446 -2946 0
-5046 1046 0
5046 -1046 0
-5447 2947 0
5447 -2947 0
-5047 1047 0
5047 -1047 0
-5448 2948 0
5448 -2948 0
-5048 1048 0
5048 -1048 0
-5449 2949 0
5449 -2949 0
-5049 1049 0
5049 -1049 0
-5450 2950 0
5450 -2950 0
-5050 1050 0
5050 -1050 0
-5451 2951 0
5451 -2951 0
-5051 1051 0
5051 -1051 0
-5452 2952 0
5452 -2952 0
-5052 1052 0
5052 -1052 0
-5453 2953 0
5453 -2953 0
-5053 1053 0
5053 -1053 0
-5454 2954 0
5454 -2954 0
-5054 1054 0
5054 -1054 0
-5455 2955 0
5455 -2955 0
-5055 1055 0
5055 -1055 0
-5456 2956 0
5456 -2956 0
-5056 1056 0
5056 -1056 0
-5457 2957 0
5457 -2957 0
-5057 1057 0
5057 -1057 0
-5458 2958 0
5458 -2958 0
-5058 1058 0
5058 -1058 0
-5459 2959 0
5459 -2959 0
-5059 1059 0
5059 -1059 0
-5460 2960 0
5460 -2960 0
-5060 1060 0
5060 -1060 0
-5461 2961 0
5461 -2961 0
-5061 1061 0
5061 -1061 0
-5462 2962 0
5462 -2962 0
-5062 1062 0
5062 -1062 0
-5463 2963 0
5463 -2963 0
-5063 1063 0
5063 -1063 0
-5464 2964 0
5464 -2964 0
-5064 1064 0
5064 -1064 0
-5465 2965 0
5465 -2965 0
-5065 1065 0
5065 -1065 0
-5466 2966 0
5466 -2966 0
-5066 1066 0
5066 -1066 0
-5467 2967 0
5467 -2967 0
-5067 1067 0
5067 -1067 0
-5468 2968 0
5468 -2968 0
-5068 1068 0
5068 -1068 0
-5469 2969 0
5469 -2969 0
-5069 1069 0
5069 -1069 0
-5470 2970 0
5470 -2970 0
-5070 1070 0
5070 -1070 0
-5471 2971 0
5471 -2971 0
-5071 1071 0
5071 -1071 0
-5472 2972 0
5472 -2972 0
-5072 1072 0
5072 -1072 0
-5473 2973 0
5473 -2973 0
-5073 1073 0
5073 -1073 0
-5474 2974 0
5474 -2974 0
-5074 1074 0
5074 -1074 0
-5475 2975 0
5475 -2975 0
-5075 1075 0
5075 -1075 0
-5476 2976 0
5476 -2976 0
-5076 1076 0
5076 -1076 0
-5477 2977 0
5477 -2977 0
-5077 1077 0
5077 -1077 0
-5478 2978 0
5478 -2978 0
-5078 1078 0
5078 -1078 0
-5479 2979 0
5479 -2979 0
-5079 1079 0
5079 -1079 0
-5480 2980 0
5480 -2980 0
-5080 1080 0
5080 -1080 0
-5481 2981 0
5481 -2981 0
-5081 1081 0
5081 -1081 0
-5482 2982 0
5482 -2982 0
-5082 1082 0
5082 -1082 0
-5483 2983 0
5483 -2983 0
-5083 1083 0
5083 -1083 0
-5484 2984 0
5484 -2984 0
-5084 1084 0
5084 -1084 0
-5485 2985 0
5485 -2985 0
-5085 1085 0
5085 -1085 0
-5486 2986 0
5486 -2986 0
-5086 1086 0
5086 -1086 0
-5487 2987 0
5487 -2987 0
-5087 1087 0
5087 -1087 0
-5488 2988 0
5488 -2988 0
-5088 1088 0
5088 -1088 0
-5489 2989 0
5489 -2989 0
-5089 1089 0
5089 -1089 0
-5490 2990 0
5490 -2990 0
-5090 1090 0
5090 -1090 0
-5491 2991 0
5491 -2991 0
-5091 1091 0
5091 -1091 0
-5492 2992 0
5492 -2992 0
-5092 1092 0
5092 -1092 0
-5493 2993 0
5493 -2993 0
-5093 1093 0
5093 -1093 0
-5494 2994 0
5494 -2994 0
-5094 1094 0
5094 -1094 0
-5495 2995 0
5495 -2995 0
-5095 1095 0
5095 -1095 0
-5496 2996 0
5496 -2996 0
-5096 1096 0
5096 -1096 0
-5497 2997 0
5497 -2997 0
-5097 1097 0
5097 -1097 0
-5498 2998 0
5498 -2998 0
-5098 1098 0
5098 -1098 0
-5499 2999 0
5499 -2999 0
-5099 1099 0
5099 -1099 0
-5500 3000 0
5500 -3000 0
-5100 1100 0
5100 -1100 0
-5101 2601 1101 0
5101 -2601 0
5101 -1101 0
-5102 2602 1102 0
5102 -2602 0
5102 -1102 0
-5103 2603 1103 0
5103 -2603 0
5103 -1103 0
-5104 2604 1104 0
5104 -2604 0
5104 -1104 0
-5105 2605 1105 0
5105 -2605 0
5105 -1105 0
-5106 2606 1106 0
5106 -2606 0
5106 -1106 0
-5107 2607 1107 0
5107 -2607 0
5107 -1107 0
-5108 2608 1108 0
5108 -2608 0
5108 -1108 0
-5109 2609 1109 0
5109 -2609 0
5109 -1109 0
-5110 2610 1110 0
5110 -2610 0
5110 -1110 0
-5111 2611 1111 0
5111 -2611 0
5111 -1111 0
-5112 2612 1112 0
5112 -2612 0
5112 -1112 0
-5113 2613 1113 0
5113 -2613 0
5113 -1113 0
-5114 2614 1114 0
5114 -2614 0
5114 -1114 0
-5115 2615 1115 0
5115 -2615 0
5115 -1115 0
-5116 2616 1116 0
5116 -2616 0
5116 -1116 0
-5117 2617 1117 0
5117 -2617 0
5117 -1117 0
-5118 2618 1118 0
5118 -2618 0
5118 -1118 0
-5119 2619 1119 0
5119 -2619 0
5119 -1119 0
-5120 2620 1120 0
5120 -2620 0
5120 -1120 0
-5121 2621 1121 0
5121 -2621 0
5121 -1121 0
-5122 2622 1122 0
5122 -2622 0
5122 -1122 0
-5123 2623 1123 0
5123 -2623 0
5123 -1123 0
-5124 2624 1124 0
5124 -2624 0
5124 -1124 0
-5125 2625 1125 0
5125 -2625 0
5125 -1125 0
-5126 2626 1126 0
5126 -2626 0
5126 -1126 0
-5127 2627 1127 0
5127 -2627 0
5127 -1127 0
-5128 2628 1128 0
5128 -2628 0
5128 -1128 0
-5129 2629 1129 0
5129 -2629 0
5129 -1129 0
-5130 2630 1130 0
5130 -2630 0
5130 -1130 0
-5131 2631 1131 0
5131 -2631 0
5131 -1131 0
-5132 2632 1132 0
5132 -2632 0
5132 -1132 0
-5133 2633 1133 0
5133 -2633 0
5133 -1133 0
-5134 2634 1134 0
5134 -2634 0
5134 -1134 0
-5135 2635 1135 0
5135 -2635 0
5135 -1135 0
-5136 2636 1136 0
5136 -2636 0
5136 -1136 0
-5137 2637 1137 0
5137 -2637 0
5137 -1137 0
-5138 2638 1138 0
5138 -2638 0
5138 -1138 0
-5139 2639 1139 0
5139 -2639 0
5139 -1139 0
-5140 2640 1140 0
5140 -2640 0
5140 -1140 0
-5141 2641 1141 0
5141 -2641 0
5141 -1141 0
-5142 2642 1142 0
5142 -2642 0
5142 -1142 0
-5143 2643 1143 0
5143 -2643 0
5143 -1143 0
-5144 2644 1144 0
5144 -2644 0
5144 -1144 0
-5145 2645 1145 0
5145 -2645 0
5145 -1145 0
-5146 2646 1146 0
5146 -2646 0
5146 -1146 0
-5147 2647 1147 0
5147 -2647 0
5147 -1147 0
-5148 2648 1148 0
5148 -2648 0
5148 -1148 0
-5149 2649 1149 0
5149 -2649 0
5149 -1149 0
-5150 2650 1150 0
5150 -2650 0
5150 -1150 0
-5151 2651 1151 0
5151 -2651 0
5151 -1151 0
-5152 2652 1152 0
5152 -2652 0
5152 -1152 0
-5153 2653 1153 0
5153 -2653 0
5153 -1153 0
-5154 2654 1154 0
5154 -2654 0
5154 -1154 0
-5155 2655 1155 0
5155 -2655 0
5155 -1155 0
-5156 2656 1156 0
5156 -2656 0
5156 -1156 0
-5157 2657 1157 0
5157 -2657 0
5157 -1157 0
-5158 2658 1158 0
5158 -2658 0
5158 -1158 0
-5159 2659 1159 0
5159 -2659 0
5159 -1159 0
-5160 2660 1160 0
5160 -2660 0
5160 -1160 0
-5161 2661 1161 0
5161 -2661 0
5161 -1161 0
-5162 2662 1162 0
5162 -2662 0
5162 -1162 0
-5163 2663 1163 0
5163 -2663 0
5163 -1163 0
-5164 2664 1164 0
5164 -2664 0
5164 -1164 0
-5165 2665 1165 0
5165 -2665 0
5165 -1165 0
-5166 2666 1166 0
5166 -2666 0
5166 -1166 0
-5167 2667 1167 0
5167 -2667 0
5167 -1167 0
-5168 2668 1168 0
5168 -2668 0
5168 -1168 0
-5169 2669 1169 0
5169 -2669 0
5169 -1169 0
-5170 2670 1170 0
5170 -2670 0
5170 -1170 0
-5171 2671 1171 0
5171 -2671 0
5171 -1171 0
-5172 2672 1172 0
5172 -2672 0
5172 -1172 0
-5173 2673 1173 0
5173 -2673 0
5173 -1173 0
-5174 2674 1174 0
5174 -2674 0
5174 -1174 0
-5175 2675 1175 0
5175 -2675 0
5175 -1175 0
-5176 2676 1176 0
5176 -2676 0
5176 -1176 0
-5177 2677 1177 0
5177 -2677 0
5177 -1177 0
-5178 2678 1178 0
5178 -2678 0
5178 -1178 0
-5179 2679 1179 0
5179 -2679 0
5179 -1179 0
-5180 2680 1180 0
5180 -2680 0
5180 -1180 0
-5181 2681 1181 0
5181 -2681 0
5181 -1181 0
-5182 2682 1182 0
5182 -2682 0
5182 -1182 0
-5183 2683 1183 0
5183 -2683 0
5183 -1183 0
-5184 2684 1184 0
5184 -2684 0
5184 -1184 0
-5185 2685 1185 0
5185 -2685 0
5185 -1185 0
-5186 2686 1186 0
5186 -2686 0
5186 -1186 0
-5187 2687 1187 0
5187 -2687 0
5187 -1187 0
-5188 2688 1188 0
5188 -2688 0
5188 -1188 0
-5189 2689 1189 0
5189 -2689 0
5189 -1189 0
-5190 2690 1190 0
5190 -2690 0
5190 -1190 0
-5191 2691 1191 0
5191 -2691 0
5191 -1191 0
-5192 2692 1192 0
5192 -2692 0
5192 -1192 0
-5193 2693 1193 0
5193 -2693 0
5193 -1193 0
-5194 2694 1194 0
5194 -2694 0
5194 -1194 0
-5195 2695 1195 0
5195 -2695 0
5195 -1195 0
-5196 2696 1196 0
5196 -2696 0
5196 -1196 0
-5197 2697 1197 0
5197 -2697 0
5197 -1197 0
-5198 2698 1198 0
5198 -2698 0
5198 -1198 0
-5199 2699 1199 0
5199 -2699 0
5199 -1199 0
-5200 2700 1200 0
5200 -2700 0
5200 -1200 0
-5201 2701 1201 0
5201 -2701 0
5201 -1201 0
-5202 2702 1202 0
5202 -2702 0
5202 -1202 0
-5203 2703 1203 0
5203 -2703 0
5203 -1203 0
-5204 2704 1204 0
5204 -2704 0
5204 -1204 0
-5205 2705 1205 0
5205 -2705 0
5205 -1205 0
-5206 2706 1206 0
5206 -2706 0
5206 -1206 0
-5207 2707 1207 0
5207 -2707 0
5207 -1207 0
-5208 2708 1208 0
5208 -2708 0
5208 -1208 0
-5209 2709 1209 0
5209 -2709 0
5209 -1209 0
-5210 2710 1210 0
5210 -2710 0
5210 -1210 0
-5211 2711 1211 0
5211 -2711 0
5211 -1211 0
-5212 2712 1212 0
5212 -2712 0
5212 -1212 0
-5213 2713 1213 0
5213 -2713 0
5213 -1213 0
-5214 2714 1214 0
5214 -2714 0
5214 -1214 0
-5215 2715 1215 0
5215 -2715 0
5215 -1215 0
-5216 2716 1216 0
5216 -2716 0
5216 -1216 0
-5217 2717 1217 0
5217 -2717 0
5217 -1217 0
-5218 2718 1218 0
5218 -2718 0
5218 -1218 0
-5219 2719 1219 0
5219 -2719 0
5219 -1219 0
-5220 2720 1220 0
5220 -2720 0
5220 -1220 0
-5221 2721 1221 0
5221 -2721 0
5221 -1221 0
-5222 2722 1222 0
5222 -2722 0
5222 -1222 0
-5223 2723 1223 0
5223 -2723 0
5223 -1223 0
-5224 2724 1224 0
5224 -2724 0
5224 -1224 0
-5225 2725 1225 0
5225 -2725 0
5225 -1225 0
-5226 2726 1226 0
5226 -2726 0
5226 -1226 0
-5227 2727 1227 0
5227 -2727 0
5227 -1227 0
-5228 2728 1228 0
5228 -2728 0
5228 -1228 0
-5229 2729 1229 0
5229 -2729 0
5229 -1229 0
-5230 2730 1230 0
5230 -2730 0
5230 -1230 0
-5231 2731 1231 0
5231 -2731 0
5231 -1231 0
-5232 2732 1232 0
5232 -2732 0
5232 -1232 0
-5233 2733 1233 0
5233 -2733 0
5233 -1233 0
-5234 2734 1234 0
5234 -2734 0
5234 -1234 0
-5235 2735 1235 0
5235 -2735 0
5235 -1235 0
-5236 2736 1236 0
5236 -2736 0
5236 -1236 0
-5237 2737 1237 0
5237 -2737 0
5237 -1237 0
-5238 2738 1238 0
5238 -2738 0
5238 -1238 0
-5239 2739 1239 0
5239 -2739 0
5239 -1239 0
-5240 2740 1240 0
5240 -2740 0
5240 -1240 0
-5241 2741 1241 0
5241 -2741 0
5241 -1241 0
-5242 2742 1242 0
5242 -2742 0
5242 -1242 0
-5243 2743 1243 0
5243 -2743 0
5243 -1243 0
-5244 2744 1244 0
5244 -2744 0
5244 -1244 0
-5245 2745 1245 0
5245 -2745 0
5245 -1245 0
-5246 2746 1246 0
5246 -2746 0
5246 -1246 0
-5247 2747 1247 0
5247 -2747 0
5247 -1247 0
-5248 2748 1248 0
5248 -2748 0
5248 -1248 0
-5249 2749 1249 0
5249 -2749 0
5249 -1249 0
-5250 2750 1250 0
5250 -2750 0
5250 -1250 0
-5251 2751 1251 0
5251 -2751 0
5251 -1251 0
-5252 2752 1252 0
5252 -2752 0
5252 -1252 0
-5253 2753 1253 0
5253 -2753 0
5253 -1253 0
-5254 2754 1254 0
5254 -2754 0
5254 -1254 0
-5255 2755 1255 0
5255 -2755 0
5255 -1255 0
-5256 2756 1256 0
5256 -2756 0
5256 -1256 0
-5257 2757 1257 0
5257 -2757 0
5257 -1257 0
-5258 2758 1258 0
5258 -2758 0
5258 -1258 0
-5259 2759 1259 0
5259 -2759 0
5259 -1259 0
-5260 2760 1260 0
5260 -2760 0
5260 -1260 0
-5261 2761 1261 0
5261 -2761 0
5261 -1261 0
-5262 2762 1262 0
5262 -2762 0
5262 -1262 0
-5263 2763 1263 0
5263 -2763 0
5263 -1263 0
-5264 2764 1264 0
5264 -2764 0
5264 -1264 0
-5265 2765 1265 0
5265 -2765 0
5265 -1265 0
-5266 2766 1266 0
5266 -2766 0
5266 -1266 0
-5267 2767 1267 0
5267 -2767 0
5267 -1267 0
-5268 2768 1268 0
5268 -2768 0
5268 -1268 0
-5269 2769 1269 0
5269 -2769 0
5269 -1269 0
-5270 2770 1270 0
5270 -2770 0
5270 -1270 0
-5271 2771 1271 0
5271 -2771 0
5271 -1271 0
-5272 2772 1272 0
5272 -2772 0
5272 -1272 0
-5273 2773 1273 0
5273 -2773 0
5273 -1273 0
-5274 2774 1274 0
5274 -2774 0
5274 -1274 0
-5275 2775 1275 0
5275 -2775 0
5275 -1275 0
-5276 2776 1276 0
5276 -2776 0
5276 -1276 0
-5277 2777 1277 0
5277 -2777 0
5277 -1277 0
-5278 2778 1278 0
5278 -2778 0
5278 -1278 0
-5279 2779 1279 0
5279 -2779 0
5279 -1279 0
-5280 2780 1280 0
5280 -2780 0
5280 -1280 0
-5281 2781 1281 0
5281 -2781 0
5281 -1281 0
-5282 2782 1282 0
5282 -2782 0
5282 -1282 0
-5283 2783 1283 0
5283 -2783 0
5283 -1283 0
-5284 2784 1284 0
5284 -2784 0
5284 -1284 0
-5285 2785 1285 0
5285 -2785 0
5285 -1285 0
-5286 2786 1286 0
5286 -2786 0
5286 -1286 0
-5287 2787 1287 0
5287 -2787 0
5287 -1287 0
-5288 2788 1288 0
5288 -2788 0
5288 -1288 0
-5289 2789 1289 0
5289 -2789 0
5289 -1289 0
-5290 2790 1290 0
5290 -2790 0
5290 -1290 0
-5291 2791 1291 0
5291 -2791 0
5291 -1291 0
-5292 2792 1292 0
5292 -2792 0
5292 -1292 0
-5293 2793 1293 0
5293 -2793 0
5293 -1293 0
-5294 2794 1294 0
5294 -2794 0
5294 -1294 0
-5295 2795 1295 0
5295 -2795 0
5295 -1295 0
-5296 2796 1296 0
5296 -2796 0
5296 -1296 0
-5297 2797 1297 0
5297 -2797 0
5297 -1297 0
-5298 2798 1298 0
5298 -2798 0
5298 -1298 0
-5299 2799 1299 0
5299 -2799 0
5299 -1299 0
-5300 2800 1300 0
5300 -2800 0
5300 -1300 0
-5301 2801 1301 0
5301 -2801 0
5301 -1301 0
-5302 2802 1302 0
5302 -2802 0
5302 -1302 0
-5303 2803 1303 0
5303 -2803 0
5303 -1303 0
-5304 2804 1304 0
5304 -2804 0
5304 -1304 0
-5305 2805 1305 0
5305 -2805 0
5305 -1305 0
-5306 2806 1306 0
5306 -2806 0
5306 -1306 0
-5307 2807 1307 0
5307 -2807 0
5307 -1307 0
-5308 2808 1308 0
5308 -2808 0
5308 -1308 0
-5309 2809 1309 0
5309 -2809 0
5309 -1309 0
-5310 2810 1310 0
5310 -2810 0
5310 -1310 0
-5311 2811 1311 0
5311 -2811 0
5311 -1311 0
-5312 2812 1312 0
5312 -2812 0
5312 -1312 0
-5313 2813 1313 0
5313 -2813 0
5313 -1313 0
-5314 2814 1314 0
5314 -2814 0
5314 -1314 0
-5315 2815 1315 0
5315 -2815 0
5315 -1315 0
-5316 2816 1316 0
5316 -2816 0
5316 -1316 0
-5317 2817 1317 0
5317 -2817 0
5317 -1317 0
-5318 2818 1318 0
5318 -2818 0
5318 -1318 0
-5319 2819 1319 0
5319 -2819 0
5319 -1319 0
-5320 2820 1320 0
5320 -2820 0
5320 -1320 0
-5321 2821 1321 0
5321 -2821 0
5321 -1321 0
-5322 2822 1322 0
5322 -2822 0
5322 -1322 0
-5323 2823 1323 0
5323 -2823 0
5323 -1323 0
-5324 2824 1324 0
5324 -2824 0
5324 -1324 0
-5325 2825 1325 0
5325 -2825 0
5325 -1325 0
-5326 2826 1326 0
5326 -2826 0
5326 -1326 0
-5327 2827 1327 0
5327 -2827 0
5327 -1327 0
-5328 2828 1328 0
5328 -2828 0
5328 -1328 0
-5329 2829 1329 0
5329 -2829 0
5329 -1329 0
-5330 2830 1330 0
5330 -2830 0
5330 -1330 0
-5331 2831 1331 0
5331 -2831 0
5331 -1331 0
-5332 2832 1332 0
5332 -2832 0
5332 -1332 0
-5333 2833 1333 0
5333 -2833 0
5333 -1333 0
-5334 2834 1334 0
5334 -2834 0
5334 -1334 0
-5335 2835 1335 0
5335 -2835 0
5335 -1335 0
-5336 2836 1336 0
5336 -2836 0
5336 -1336 0
-5337 2837 1337 0
5337 -2837 0
5337 -1337 0
-5338 2838 1338 0
5338 -2838 0
5338 -1338 0
-5339 2839 1339 0
5339 -2839 0
5339 -1339 0
-5340 2840 1340 0
5340 -2840 0
5340 -1340 0
-5341 2841 1341 0
5341 -2841 0
5341 -1341 0
-5342 2842 1342 0
5342 -2842 0
5342 -1342 0
-5343 2843 1343 0
5343 -2843 0
5343 -1343 0
-5344 2844 1344 0
5344 -2844 0
5344 -1344 0
-5345 2845 1345 0
5345 -2845 0
5345 -1345 0
-5346 2846 1346 0
5346 -2846 0
5346 -1346 0
-5347 2847 1347 0
5347 -2847 0
5347 -1347 0
-5348 2848 1348 0
5348 -2848 0
5348 -1348 0
-5349 2849 1349 0
5349 -2849 0
5349 -1349 0
-5350 2850 1350 0
5350 -2850 0
5350 -1350 0
-5351 2851 1351 0
5351 -2851 0
5351 -1351 0
-5352 2852 1352 0
5352 -2852 0
5352 -1352 0
-5353 2853 1353 0
5353 -2853 0
5353 -1353 0
-5354 2854 1354 0
5354 -2854 0
5354 -1354 0
-5355 2855 1355 0
5355 -2855 0
5355 -1355 0
-5356 2856 1356 0
5356 -2856 0
5356 -1356 0
-5357 2857 1357 0
5357 -2857 0
5357 -1357 0
-5358 2858 1358 0
5358 -2858 0
5358 -1358 0
-5359 2859 1359 0
5359 -2859 0
5359 -1359 0
-5360 2860 1360 0
5360 -2860 0
5360 -1360 0
-5361 2861 1361 0
5361 -2861 0
5361 -1361 0
-5362 2862 1362 0
5362 -2862 0
5362 -1362 0
-5363 2863 1363 0
5363 -2863 0
5363 -1363 0
-5364 2864 1364 0
5364 -2864 0
5364 -1364 0
-5365 2865 1365 0
5365 -2865 0
5365 -1365 0
-5366 2866 1366 0
5366 -2866 0
5366 -1366 0
-5367 2867 1367 0
5367 -2867 0
5367 -1367 0
-5368 2868 1368 0
5368 -2868 0
5368 -1368 0
-5369 2869 1369 0
5369 -2869 0
5369 -1369 0
-5370 2870 1370 0
5370 -2870 0
5370 -1370 0
-5371 2871 1371 0
5371 -2871 0
5371 -1371 0
-5372 2872 1372 0
5372 -2872 0
5372 -1372 0
-5373 2873 1373 0
5373 -2873 0
5373 -1373 0
-5374 2874 1374 0
5374 -2874 0
5374 -1374 0
-5375 2875 1375 0
5375 -2875 0
5375 -1375 0
-5376 2876 1376 0
5376 -2876 0
5376 -1376 0
-5377 2877 1377 0
5377 -2877 0
5377 -1377 0
-5378 2878 1378 0
5378 -2878 0
5378 -1378 0
-5379 2879 1379 0
5379 -2879 0
5379 -1379 0
-5380 2880 1380 0
5380 -2880 0
5380 -1380 0
-5381 2881 1381 0
5381 -2881 0
5381 -1381 0
-5382 2882 1382 0
5382 -2882 0
5382 -1382 0
-5383 2883 1383 0
5383 -2883 0
5383 -1383 0
-5384 2884 1384 0
5384 -2884 0
5384 -1384 0
-5385 2885 1385 0
5385 -2885 0
5385 -1385 0
-5386 2886 1386 0
5386 -2886 0
5386 -1386 0
-5387 2887 1387 0
5387 -2887 0
5387 -1387 0
-5388 2888 1388 0
5388 -2888 0
5388 -1388 0
-5389 2889 1389 0
5389 -2889 0
5389 -1389 0
-5390 2890 1390 0
5390 -2890 0
5390 -1390 0
-5391 2891 1391 0
5391 -2891 0
5391 -1391 0
-5392 2892 1392 0
5392 -2892 0
5392 -1392 0
-5393 2893 1393 0
5393 -2893 0
5393 -1393 0
-5394 2894 1394 0
5394 -2894 0
5394 -1394 0
-5395 2895 1395 0
5395 -2895 0
5395 -1395 0
-5396 2896 1396 0
5396 -2896 0
5396 -1396 0
-5397 2897 1397 0
5397 -2897 0
5397 -1397 0
-5398 2898 1398 0
5398 -2898 0
5398 -1398 0
-5399 2899 1399 0
5399 -2899 0
5399 -1399 0
-5400 2900 1400 0
5400 -2900 0
5400 -1400 0
5501 5601 5701 5801 5901 0
-4001 1001 0
-4101 1101 0
-4201 1201 0
-4301 1301 0
-4601 2601 0
-4701 2701 0
-4801 2801 0
-4901 2901 0
-4601 -4101 0
-5601 4601 4101 0
5601 -4601 0
5601 -4101 0
-4701 -4201 0
-5701 4701 4201 0
5701 -4701 0
5701 -4201 0
-4801 -4301 0
-5801 4801 4301 0
5801 -4801 0
5801 -4301 0
-5901 4901 0
5901 -4901 0
-5501 4001 0
5501 -4001 0
5502 5602 5702 5802 5902 0
-4002 1002 0
-4102 1102 0
-4202 1202 0
-4302 1302 0
-4602 2602 0
-4702 2702 0
-4802 2802 0
-4902 2902 0
-4602 -4102 0
-5602 4602 4102 0
5602 -4602 0
5602 -4102 0
-4702 -4202 0
-5702 4702 4202 0
5702 -4702 0
5702 -4202 0
-4802 -4302 0
-5802 4802 4302 0
5802 -4802 0
5802 -4302 0
-5902 4902 0
5902 -4902 0
-5502 4002 0
5502 -4002 0
5503 5603 5703 5803 5903 0
-4003 1003 0
-4103 1103 0
-4203 1203 0
-4303 1303 0
-4603 2603 0
-4703 2703 0
-4803 2803 0
-4903 2903 0
-4603 -4103 0
-5603 4603 4103 0
5603 -4603 0
5603 -4103 0
-4703 -4203 0
-5703 4703 4203 0
5703 -4703 0
5703 -4203 0
-4803 -4303 0
-5803 4803 4303 0
5803 -4803 0
5803 -4303 0
-5903 4903 0
5903 -4903 0
-5503 4003 0
5503 -4003 0
5504 5604 5704 5804 5904 0
-4004 1004 0
-4104 1104 0
-4204 1204 0
-4304 1304 0
-4604 2604 0
-4704 2704 0
-4804 2804 0
-4904 2904 0
-4604 -4104 0
-5604 4604 4104 0
5604 -4604 0
5604 -4104 0
-4704 -4204 0
-5704 4704 4204 0
5704 -4704 0
5704 -4204 0
-4804 -4304 0
-5804 4804 4304 0
5804 -4804 0
5804 -4304 0
-5904 4904 0
5904 -4904 0
-5504 4004 0
5504 -4004 0
5505 5605 5705 5805 5905 0
-4005 1005 0
-4105 1105 0
-4205 1205 0
-4305 1305 0
-4605 2605 0
-4705 2705 0
-4805 2805 0
-4905 2905 0
-4605 -4105 0
-5605 4605 4105 0
5605 -4605 0
5605 -4105 0
-4705 -4205 0
-5705 4705 4205 0
5705 -4705 0
5705 -4205 0
-4805 -4305 0
-5805 4805 4305 0
5805 -4805 0
5805 -4305 0
-5905 4905 0
5905 -4905 0
-5505 4005 0
5505 -4005 0
5506 5606 5706 5806 5906 0
-4006 1006 0
-4106 1106 0
-4206 1206 0
-4306 1306 0
-4606 2606 0
-4706 2706 0
-4806 2806 0
-4906 2906 0
-4606 -4106 0
-5606 4606 4106 0
5606 -4606 0
5606 -4106 0
-4706 -4206 0
-5706 4706 4206 0
5706 -4706 0
5706 -4206 0
-4806 -4306 0
-5806 4806 4306 0
5806 -4806 0
5806 -4306 0
-5906 4906 0
5906 -4906 0
-5506 4006 0
5506 -4006 0
5507 5607 5707 5807 5907 0
-4007 1007 0
-4107 1107 0
-4207 1207 0
-4307 1307 0
-4607 2607 0
-4707 2707 0
-4807 2807 0
-4907 2907 0
-4607 -4107 0
-5607 4607 4107 0
5607 -4607 0
5607 -4107 0
-4707 -4207 0
-5707 4707 4207 0
5707 -4707 0
5707 -4207 0
-4807 -4307 0
-5807 4807 4307 0
5807 -4807 0
5807 -4307 0
-5907 4907 0
5907 -4907 0
-5507 4007 0
5507 -4007 0
5508 5608 5708 5808 5908 0
-4008 1008 0
-4108 1108 0
-4208 1208 0
-4308 1308 0
-4608 2608 0
-4708 2708 0
-4808 2808 0
-4908 2908 0
-4608 -4108 0
-5608 4608 4108 0
5608 -4608 0
5608 -4108 0
-4708 -4208 0
-5708 4708 4208 0
5708 -4708 0
5708 -4208 0
-4808 -4308 0
-5808 4808 4308 0
5808 -4808 0
5808 -4308 0
-5908 4908 0
5908 -4908 0
-5508 4008 0
5508 -4008 0
5509 5609 5709 5809 5909 0
-4009 1009 0
-4109 1109 0
-4209 1209 0
-4309 1309 0
-4609 2609 0
-4709 2709 0
-4809 2809 0
-4909 2909 0
-4609 -4109 0
-5609 4609 4109 0
5609 -4609 0
5609 -4109 0
-4709 -4209 0
-5709 4709 4209 0
5709 -4709 0
5709 -4209 0
-4809 -4309 0
-5809 4809 4309 0
5809 -4809 0
5809 -4309 0
-5909 4909 0
5909 -4909 0
-5509 4009 0
5509 -4009 0
5510 5610 5710 5810 5910 0
-4010 1010 0
-4110 1110 0
-4210 1210 0
-4310 1310 0
-4610 2610 0
-4710 2710 0
-4810 2810 0
-4910 2910 0
-4610 -4110 0
-5610 4610 4110 0
5610 -4610 0
5610 -4110 0
-4710 -4210 0
-5710 4710 4210 0
5710 -4710 0
5710 -4210 0
-4810 -4310 0
-5810 4810 4310 0
5810 -4810 0
5810 -4310 0
-5910 4910 0
5910 -4910 0
-5510 4010 0
5510 -4010 0
5511 5611 5711 5811 5911 0
-4011 1011 0
-4111 1111 0
-4211 1211 0
-4311 1311 0
-4611 2611 0
-4711 2711 0
-4811 2811 0
-4911 2911 0
-4611 -4111 0
-5611 4611 4111 0
5611 -4611 0
5611 -4111 0
-4711 -4211 0
-5711 4711 4211 0
5711 -4711 0
5711 -4211 0
-4811 -4311 0
-5811 4811 4311 0
5811 -4811 0
5811 -4311 0
-5911 4911 0
5911 -4911 0
-5511 4011 0
5511 -4011 0
5512 5612 5712 5812 5912 0
-4012 1012 0
-4112 1112 0
-4212 1212 0
-4312 1312 0
-4612 2612 0
-4712 2712 0
-4812 2812 0
-4912 2912 0
-4612 -4112 0
-5612 4612 4112 0
5612 -4612 0
5612 -4112 0
-4712 -4212 0
-5712 4712 4212 0
5712 -4712 0
5712 -4212 0
-4812 -4312 0
-5812 4812 4312 0
5812 -4812 0
5812 -4312 0
-5912 4912 0
5912 -4912 0
-5512 4012 0
5512 -4012 0
5513 5613 5713 5813 5913 0
-4013 1013 0
-4113 1113 0
-4213 1213 0
-4313 1313 0
-4613 2613 0
-4713 2713 0
-4813 2813 0
-4913 2913 0
-4613 -4113 0
-5613 4613 4113 0
5613 -4613 0
5613 -4113 0
-4713 -4213 0
-5713 4713 4213 0
5713 -4713 0
5713 -4213 0
-4813 -4313 0
-5813 4813 4313 0
5813 -4813 0
5813 -4313 0
-5913 4913 0
5913 -4913 0
-5513 4013 0
5513 -4013 0
5514 5614 5714 5814 5914 0
-4014 1014 0
-4114 1114 0
-4214 1214 0
-4314 1314 0
-4614 2614 0
-4714 2714 0
-4814 2814 0
-4914 2914 0
-4614 -4114 0
-5614 4614 4114 0
5614 -4614 0
5614 -4114 0
-4714 -4214 0
-5714 4714 4214 0
5714 -4714 0
5714 -4214 0
-4814 -4314 0
-5814 4814 4314 0
5814 -4814 0
5814 -4314 0
-5914 4914 0
5914 -4914 0
-5514 4014 0
5514 -4014 0
5515 5615 5715 5815 5915 0
-4015 1015 0
-4115 1115 0
-4215 1215 0
-4315 1315 0
-4615 2615 0
-4715 2715 0
-4815 2815 0
-4915 2915 0
-4615 -4115 0
-5615 4615 4115 0
5615 -4615 0
5615 -4115 0
-4715 -4215 0
-5715 4715 4215 0
5715 -4715 0
5715 -4215 0
-4815 -4315 0
-5815 4815 4315 0
5815 -4815 0
5815 -4315 0
-5915 4915 0
5915 -4915 0
-5515 4015 0
5515 -4015 0
5516 5616 5716 5816 5916 0
-4016 1016 0
-4116 1116 0
-4216 1216 0
-4316 1316 0
-4616 2616 0
-4716 2716 0
-4816 2816 0
-4916 2916 0
-4616 -4116 0
-5616 4616 4116 0
5616 -4616 0
5616 -4116 0
-4716 -4216 0
-5716 4716 4216 0
5716 -4716 0
5716 -4216 0
-4816 -4316 0
-5816 4816 4316 0
5816 -4816 0
5816 -4316 0
-5916 4916 0
5916 -4916 0
-5516 4016 0
5516 -4016 0
5517 5617 5717 5817 5917 0
-4017 1017 0
-4117 1117 0
-4217 1217 0
-4317 1317 0
-4617 2617 0
-4717 2717 0
-4817 2817 0
-4917 2917 0
-4617 -4117 0
-5617 4617 4117 0
5617 -4617 0
5617 -4117 0
-4717 -4217 0
-5717 4717 4217 0
5717 -4717 0
5717 -4217 0
-4817 -4317 0
-5817 4817 4317 0
5817 -4817 0
5817 -4317 0
-5917 4917 0
5917 -4917 0
-5517 4017 0
5517 -4017 0
5518 5618 5718 5818 5918 0
-4018 1018 0
-4118 1118 0
-4218 1218 0
-4318 1318 0
-4618 2618 0
-4718 2718 0
-4818 2818 0
-4918 2918 0
-4618 -4118 0
-5618 4618 4118 0
5618 -4618 0
5618 -4118 0
-4718 -4218 0
-5718 4718 4218 0
5718 -4718 0
5718 -4218 0
-4818 -4318 0
-5818 4818 4318 0
5818 -4818 0
5818 -4318 0
-5918 4918 0
5918 -4918 0
-5518 4018 0
5518 -4018 0
5519 5619 5719 5819 5919 0
-4019 1019 0
-4119 1119 0
-4219 1219 0
-4319 1319 0
-4619 2619 0
-4719 2719 0
-4819 2819 0
-4919 2919 0
-4619 -4119 0
-5619 4619 4119 0
5619 -4619 0
5619 -4119 0
-4719 -4219 0
-5719 4719 4219 0
5719 -4719 0
5719 -4219 0
-4819 -4319 0
-5819 4819 4319 0
5819 -4819 0
5819 -4319 0
-5919 4919 0
5919 -4919 0
-5519 4019 0
5519 -4019 0
5520 5620 5720 5820 5920 0
-4020 1020 0
-4120 1120 0
-4220 1220 0
-4320 1320 0
-4620 2620 0
-4720 2720 0
-4820 2820 0
-4920 2920 0
-4620 -4120 0
-5620 4620 4120 0
5620 -4620 0
5620 -4120 0
-4720 -4220 0
-5720 4720 4220 0
5720 -4720 0
5720 -4220 0
-4820 -4320 0
-5820 4820 4320 0
5820 -4820 0
5820 -4320 0
-5920 4920 0
5920 -4920 0
-5520 4020 0
5520 -4020 0
5521 5621 5721 5821 5921 0
-4021 1021 0
-4121 1121 0
-4221 1221 0
-4321 1321 0
-4621 2621 0
-4721 2721 0
-4821 2821 0
-4921 2921 0
-4621 -4121 0
-5621 4621 4121 0
5621 -4621 0
5621 -4121 0
-4721 -4221 0
-5721 4721 4221 0
5721 -4721 0
5721 -4221 0
-4821 -4321 0
-5821 4821 4321 0
5821 -4821 0
5821 -4321 0
-5921 4921 0
5921 -4921 0
-5521 4021 0
5521 -4021 0
5522 5622 5722 5822 5922 0
-4022 1022 0
-4122 1122 0
-4222 1222 0
-4322 1322 0
-4622 2622 0
-4722 2722 0
-4822 2822 0
-4922 2922 0
-4622 -4122 0
-5622 4622 4122 0
5622 -4622 0
5622 -4122 0
-4722 -4222 0
-5722 4722 4222 0
5722 -4722 0
5722 -4222 0
-4822 -4322 0
-5822 4822 4322 0
5822 -4822 0
5822 -4322 0
-5922 4922 0
5922 -4922 0
-5522 4022 0
5522 -4022 0
5523 5623 5723 5823 5923 0
-4023 1023 0
-4123 1123 0
-4223 1223 0
-4323 1323 0
-4623 2623 0
-4723 2723 0
-4823 2823 0
-4923 2923 0
-4623 -4123 0
-5623 4623 4123 0
5623 -4623 0
5623 -4123 0
-4723 -4223 0
-5723 4723 4223 0
5723 -4723 0
5723 -4223 0
-4823 -4323 0
-5823 4823 4323 0
5823 -4823 0
5823 -4323 0
-5923 4923 0
5923 -4923 0
-5523 4023 0
5523 -4023 0
5524 5624 5724 5824 5924 0
-4024 1024 0
-4124 1124 0
-4224 1224 0
-4324 1324 0
-4624 2624 0
-4724 2724 0
-4824 2824 0
-4924 2924 0
-4624 -4124 0
-5624 4624 4124 0
5624 -4624 0
5624 -4124 0
-4724 -4224 0
-5724 4724 4224 0
5724 -4724 0
5724 -4224 0
-4824 -4324 0
-5824 4824 4324 0
5824 -4824 0
5824 -4324 0
-5924 4924 0
5924 -4924 0
-5524 4024 0
5524 -4024 0
5525 5625 5725 5825 5925 0
-4025 1025 0
-4125 1125 0
-4225 1225 0
-4325 1325 0
-4625 2625 0
-4725 2725 0
-4825 2825 0
-4925 2925 0
-4625 -4125 0
-5625 4625 4125 0
5625 -4625 0
5625 -4125 0
-4725 -4225 0
-5725 4725 4225 0
5725 -4725 0
5725 -4225 0
-4825 -4325 0
-5825 4825 4325 0
5825 -4825 0
5825 -4325 0
-5925 4925 0
5925 -4925 0
-5525 4025 0
5525 -4025 0
5526 5626 5726 5826 5926 0
-4026 1026 0
-4126 1126 0
-4226 1226 0
-4326 1326 0
-4626 2626 0
-4726 2726 0
-4826 2826 0
-4926 2926 0
-4626 -4126 0
-5626 4626 4126 0
5626 -4626 0
5626 -4126 0
-4726 -4226 0
-5726 4726 4226 0
5726 -4726 0
5726 -4226 0
-4826 -4326 0
-5826 4826 4326 0
5826 -4826 0
5826 -4326 0
-5926 4926 0
5926 -4926 0
-5526 4026 0
5526 -4026 0
5527 5627 5727 5827 5927 0
-4027 1027 0
-4127 1127 0
-4227 1227 0
-4327 1327 0
-4627 2627 0
-4727 2727 0
-4827 2827 0
-4927 2927 0
-4627 -4127 0
-5627 4627 4127 0
5627 -4627 0
5627 -4127 0
-4727 -4227 0
-5727 4727 4227 0
5727 -4727 0
5727 -4227 0
-4827 -4327 0
-5827 4827 4327 0
5827 -4827 0
5827 -4327 0
-5927 4927 0
5927 -4927 0
-5527 4027 0
5527 -4027 0
5528 5628 5728 5828 5928 0
-4028 1028 0
-4128 1128 0
-4228 1228 0
-4328 1328 0
-4628 2628 0
-4728 2728 0
-4828 2828 0
-4928 2928 0
-4628 -4128 0
-5628 4628 4128 0
5628 -4628 0
5628 -4128 0
-4728 -4228 0
-5728 4728 4228 0
5728 -4728 0
5728 -4228 0
-4828 -4328 0
-5828 4828 4328 0
5828 -4828 0
5828 -4328 0
-5928 4928 0
5928 -4928 0
-5528 4028 0
5528 -4028 0
5529 5629 5729 5829 5929 0
-4029 1029 0
-4129 1129 0
-4229 1229 0
-4329 1329 0
-4629 2629 0
-4729 2729 0
-4829 2829 0
-4929 2929 0
-4629 -4129 0
-5629 4629 4129 0
5629 -4629 0
5629 -4129 0
-4729 -4229 0
-5729 4729 4229 0
5729 -4729 0
5729 -4229 0
-4829 -4329 0
-5829 4829 4329 0
5829 -4829 0
5829 -4329 0
-5929 4929 0
5929 -4929 0
-5529 4029 0
5529 -4029 0
5530 5630 5730 5830 5930 0
-4030 1030 0
-4130 1130 0
-4230 1230 0
-4330 1330 0
-4630 2630 0
-4730 2730 0
-4830 2830 0
-4930 2930 0
-4630 -4130 0
-5630 4630 4130 0
5630 -4630 0
5630 -4130 0
-4730 -4230 0
-5730 4730 4230 0
5730 -4730 0
5730 -4230 0
-4830 -4330 0
-5830 4830 4330 0
5830 -4830 0
5830 -4330 0
-5930 4930 0
5930 -4930 0
-5530 4030 0
5530 -4030 0
5531 5631 5731 5831 5931 0
-4031 1031 0
-4131 1131 0
-4231 1231 0
-4331 1331 0
-4631 2631 0
-4731 2731 0
-4831 2831 0
-4931 2931 0
-4631 -4131 0
-5631 4631 4131 0
5631 -4631 0
5631 -4131 0
-4731 -4231 0
-5731 4731 4231 0
5731 -4731 0
5731 -4231 0
-4831 -4331 0
-5831 4831 4331 0
5831 -4831 0
5831 -4331 0
-5931 4931 0
5931 -4931 0
-5531 4031 0
5531 -4031 0
5532 5632 5732 5832 5932 0
-4032 1032 0
-4132 1132 0
-4232 1232 0
-4332 1332 0
-4632 2632 0
-4732 2732 0
-4832 2832 0
-4932 2932 0
-4632 -4132 0
-5632 4632 4132 0
5632 -4632 0
5632 -4132 0
-4732 -4232 0
-5732 4732 4232 0
5732 -4732 0
5732 -4232 0
-4832 -4332 0
-5832 4832 4332 0
5832 -4832 0
5832 -4332 0
-5932 4932 0
5932 -4932 0
-5532 4032 0
5532 -4032 0
5533 5633 5733 5833 5933 0
-4033 1033 0
-4133 1133 0
-4233 1233 0
-4333 1333 0
-4633 2633 0
-4733 2733 0
-4833 2833 0
-4933 2933 0
-4633 -4133 0
-5633 4633 4133 0
5633 -4633 0
5633 -4133 0
-4733 -4233 0
-5733 4733 4233 0
5733 -4733 0
5733 -4233 0
-4833 -4333 0
-5833 4833 4333 0
5833 -4833 0
5833 -4333 0
-5933 4933 0
5933 -4933 0
-5533 4033 0
5533 -4033 0
5534 5634 5734 5834 5934 0
-4034 1034 0
-4134 1134 0
-4234 1234 0
-4334 1334 0
-4634 2634 0
-4734 2734 0
-4834 2834 0
-4934 2934 0
-4634 -4134 0
-5634 4634 4134 0
5634 -4634 0
5634 -4134 0
-4734 -4234 0
-5734 4734 4234 0
5734 -4734 0
5734 -4234 0
-4834 -4334 0
-5834 4834 4334 0
5834 -4834 0
5834 -4334 0
-5934 4934 0
5934 -4934 0
-5534 4034 0
5534 -4034 0
5535 5635 5735 5835 5935 0
-4035 1035 0
-4135 1135 0
-4235 1235 0
-4335 1335 0
-4635 2635 0
-4735 2735 0
-4835 2835 0
-4935 2935 0
-4635 -4135 0
-5635 4635 4135 0
5635 -4635 0
5635 -4135 0
-4735 -4235 0
-5735 4735 4235 0
5735 -4735 0
5735 -4235 0
-4835 -4335 0
-5835 4835 4335 0
5835 -4835 0
5835 -4335 0
-5935 4935 0
5935 -4935 0
-5535 4035 0
5535 -4035 0
5536 5636 5736 5836 5936 0
-4036 1036 0
-4136 1136 0
-4236 1236 0
-4336 1336 0
-4636 2636 0
-4736 2736 0
-4836 2836 0
-4936 2936 0
-4636 -4136 0
-5636 4636 4136 0
5636 -4636 0
5636 -4136 0
-4736 -4236 0
-5736 4736 4236 0
5736 -4736 0
5736 -4236 0
-4836 -4336 0
-5836 4836 4336 0
5836 -4836 0
5836 -4336 0
-5936 4936 0
5936 -4936 0
-5536 4036 0
5536 -4036 0
5537 5637 5737 5837 5937 0
-4037 1037 0
-4137 1137 0
-4237 1237 0
-4337 1337 0
-4637 2637 0
-4737 2737 0
-4837 2837 0
-4937 2937 0
-4637 -4137 0
-5637 4637 4137 0
5637 -4637 0
5637 -4137 0
-4737 -4237 0
-5737 4737 4237 0
5737 -4737 0
5737 -4237 0
-4837 -4337 0
-5837 4837 4337 0
5837 -4837 0
5837 -4337 0
-5937 4937 0
5937 -4937 0
-5537 4037 0
5537 -4037 0
5538 5638 5738 5838 5938 0
-4038 1038 0
-4138 1138 0
-4238 1238 0
-4338 1338 0
-4638 2638 0
-4738 2738 0
-4838 2838 0
-4938 2938 0
-4638 -4138 0
-5638 4638 4138 0
5638 -4638 0
5638 -4138 0
-4738 -4238 0
-5738 4738 4238 0
5738 -4738 0
5738 -4238 0
-4838 -4338 0
-5838 4838 4338 0
5838 -4838 0
5838 -4338 0
-5938 4938 0
5938 -4938 0
-5538 4038 0
5538 -4038 0
5539 5639 5739 5839 5939 0
-4039 1039 0
-4139 1139 0
-4239 1239 0
-4339 1339 0
-4639 2639 0
-4739 2739 0
-4839 2839 0
-4939 2939 0
-4639 -4139 0
-5639 4639 4139 0
5639 -4639 0
5639 -4139 0
-4739 -4239 0
-5739 4739 4239 0
5739 -4739 0
5739 -4239 0
-4839 -4339 0
-5839 4839 4339 0
5839 -4839 0
5839 -4339 0
-5939 4939 0
5939 -4939 0
-5539 4039 0
5539 -4039 0
5540 5640 5740 5840 5940 0
-4040 1040 0
-4140 1140 0
-4240 1240 0
-4340 1340 0
-4640 2640 0
-4740 2740 0
-4840 2840 0
-4940 2940 0
-4640 -4140 0
-5640 4640 4140 0
5640 -4640 0
5640 -4140 0
-4740 -4240 0
-5740 4740 4240 0
5740 -4740 0
5740 -4240 0
-4840 -4340 0
-5840 4840 4340 0
5840 -4840 0
5840 -4340 0
-5940 4940 0
5940 -4940 0
-5540 4040 0
5540 -4040 0
5541 5641 5741 5841 5941 0
-4041 1041 0
-4141 1141 0
-4241 1241 0
-4341 1341 0
-4641 2641 0
-4741 2741 0
-4841 2841 0
-4941 2941 0
-4641 -4141 0
-5641 4641 4141 0
5641 -4641 0
5641 -4141 0
-4741 -4241 0
-5741 4741 4241 0
5741 -4741 0
5741 -4241 0
-4841 -4341 0
-5841 4841 4341 0
5841 -4841 0
5841 -4341 0
-5941 4941 0
5941 -4941 0
-5541 4041 0
5541 -4041 0
5542 5642 5742 5842 5942 0
-4042 1042 0
-4142 1142 0
-4242 1242 0
-4342 1342 0
-4642 2642 0
-4742 2742 0
-4842 2842 0
-4942 2942 0
-4642 -4142 0
-5642 4642 4142 0
5642 -4642 0
5642 -4142 0
-4742 -4242 0
-5742 4742 4242 0
5742 -4742 0
5742 -4242 0
-4842 -4342 0
-5842 4842 4342 0
5842 -4842 0
5842 -4342 0
-5942 4942 0
5942 -4942 0
-5542 4042 0
5542 -4042 0
5543 5643 5743 5843 5943 0
-4043 1043 0
-4143 1143 0
-4243 1243 0
-4343 1343 0
-4643 2643 0
-4743 2743 0
-4843 2843 0
-4943 2943 0
-4643 -4143 0
-5643 4643 4143 0
5643 -4643 0
5643 -4143 0
-4743 -4243 0
-5743 4743 4243 0
5743 -4743 0
5743 -4243 0
-4843 -4343 0
-5843 4843 4343 0
5843 -4843 0
5843 -4343 0
-5943 4943 0
5943 -4943 0
-5543 4043 0
5543 -4043 0
5544 5644 5744 5844 5944 0
-4044 1044 0
-4144 1144 0
-4244 1244 0
-4344 1344 0
-4644 2644 0
-4744 2744 0
-4844 2844 0
-4944 2944 0
-4644 -4144 0
-5644 4644 4144 0
5644 -4644 0
5644 -4144 0
-4744 -4244 0
-5744 4744 4244 0
5744 -4744 0
5744 -4244 0
-4844 -4344 0
-5844 4844 4344 0
5844 -4844 0
5844 -4344 0
-5944 4944 0
5944 -4944 0
-5544 4044 0
5544 -4044 0
5545 5645 5745 5845 5945 0
-4045 1045 0
-4145 1145 0
-4245 1245 0
-4345 1345 0
-4645 2645 0
-4745 2745 0
-4845 2845 0
-4945 2945 0
-4645 -4145 0
-5645 4645 4145 0
5645 -4645 0
5645 -4145 0
-4745 -4245 0
-5745 4745 4245 0
5745 -4745 0
5745 -4245 0
-4845 -4345 0
-5845 4845 4345 0
5845 -4845 0
5845 -4345 0
-5945 4945 0
5945 -4945 0
-5545 4045 0
5545 -4045 0
5546 5646 5746 5846 5946 0
-4046 1046 0
-4146 1146 0
-4246 1246 0
-4346 1346 0
-4646 2646 0
-4746 2746 0
-4846 2846 0
-4946 2946 0
-4646 -4146 0
-5646 4646 4146 0
5646 -4646 0
5646 -4146 0
-4746 -4246 0
-5746 4746 4246 0
5746 -4746 0
5746 -4246 0
-4846 -4346 0
-5846 4846 4346 0
5846 -4846 0
5846 -4346 0
-5946 4946 0
5946 -4946 0
-5546 4046 0
5546 -4046 0
5547 5647 5747 5847 5947 0
-4047 1047 0
-4147 1147 0
-4247 1247 0
-4347 1347 0
-4647 2647 0
-4747 2747 0
-4847 2847 0
-4947 2947 0
-4647 -4147 0
-5647 4647 4147 0
5647 -4647 0
5647 -4147 0
-4747 -4247 0
-5747 4747 4247 0
5747 -4747 0
5747 -4247 0
-4847 -4347 0
-5847 4847 4347 0
5847 -4847 0
5847 -4347 0
-5947 4947 0
5947 -4947 0
-5547 4047 0
5547 -4047 0
5548 5648 5748 5848 5948 0
-4048 1048 0
-4148 1148 0
-4248 1248 0
-4348 1348 0
-4648 2648 0
-4748 2748 0
-4848 2848 0
-4948 2948 0
-4648 -4148 0
-5648 4648 4148 0
5648 -4648 0
5648 -4148 0
-4748 -4248 0
-5748 4748 4248 0
5748 -4748 0
5748 -4248 0
-4848 -4348 0
-5848 4848 4348 0
5848 -4848 0
5848 -4348 0
-5948 4948 0
5948 -4948 0
-5548 4048 0
5548 -4048 0
5549 5649 5749 5849 5949 0
-4049 1049 0
-4149 1149 0
-4249 1249 0
-4349 1349 0
-4649 2649 0
-4749 2749 0
-4849 2849 0
-4949 2949 0
-4649 -4149 0
-5649 4649 4149 0
5649 -4649 0
5649 -4149 0
-4749 -4249 0
-5749 4749 4249 0
5749 -4749 0
5749 -4249 0
-4849 -4349 0
-5849 4849 4349 0
5849 -4849 0
5849 -4349 0
-5949 4949 0
5949 -4949 0
-5549 4049 0
5549 -4049 0
5550 5650 5750 5850 5950 0
-4050 1050 0
-4150 1150 0
-4250 1250 0
-4350 1350 0
-4650 2650 0
-4750 2750 0
-4850 2850 0
-4950 2950 0
-4650 -4150 0
-5650 4650 4150 0
5650 -4650 0
5650 -4150 0
-4750 -4250 0
-5750 4750 4250 0
5750 -4750 0
5750 -4250 0
-4850 -4350 0
-5850 4850 4350 0
5850 -4850 0
5850 -4350 0
-5950 4950 0
5950 -4950 0
-5550 4050 0
5550 -4050 0
5551 5651 5751 5851 5951 0
-4051 1051 0
-4151 1151 0
-4251 1251 0
-4351 1351 0
-4651 2651 0
-4751 2751 0
-4851 2851 0
-4951 2951 0
-4651 -4151 0
-5651 4651 4151 0
5651 -4651 0
5651 -4151 0
-4751 -4251 0
-5751 4751 4251 0
5751 -4751 0
5751 -4251 0
-4851 -4351 0
-5851 4851 4351 0
5851 -4851 0
5851 -4351 0
-5951 4951 0
5951 -4951 0
-5551 4051 0
5551 -4051 0
5552 5652 5752 5852 5952 0
-4052 1052 0
-4152 1152 0
-4252 1252 0
-4352 1352 0
-4652 2652 0
-4752 2752 0
-4852 2852 0
-4952 2952 0
-4652 -4152 0
-5652 4652 4152 0
5652 -4652 0
5652 -4152 0
-4752 -4252 0
-5752 4752 4252 0
5752 -4752 0
5752 -4252 0
-4852 -4352 0
-5852 4852 4352 0
5852 -4852 0
5852 -4352 0
-5952 4952 0
5952 -4952 0
-5552 4052 0
5552 -4052 0
5553 5653 5753 5853 5953 0
-4053 1053 0
-4153 1153 0
-4253 1253 0
-4353 1353 0
-4653 2653 0
-4753 2753 0
-4853 2853 0
-4953 2953 0
-4653 -4153 0
-5653 4653 4153 0
5653 -4653 0
5653 -4153 0
-4753 -4253 0
-5753 4753 4253 0
5753 -4753 0
5753 -4253 0
-4853 -4353 0
-5853 4853 4353 0
5853 -4853 0
5853 -4353 0
-5953 4953 0
5953 -4953 0
-5553 4053 0
5553 -4053 0
5554 5654 5754 5854 5954 0
-4054 1054 0
-4154 1154 0
-4254 1254 0
-4354 1354 0
-4654 2654 0
-4754 2754 0
-4854 2854 0
-4954 2954 0
-4654 -4154 0
-5654 4654 4154 0
5654 -4654 0
5654 -4154 0
-4754 -4254 0
-5754 4754 4254 0
5754 -4754 0
5754 -4254 0
-4854 -4354 0
-5854 4854 4354 0
5854 -4854 0
5854 -4354 0
-5954 4954 0
5954 -4954 0
-5554 4054 0
5554 -4054 0
5555 5655 5755 5855 5955 0
-4055 1055 0
-4155 1155 0
-4255 1255 0
-4355 1355 0
-4655 2655 0
-4755 2755 0
-4855 2855 0
-4955 2955 0
-4655 -4155 0
-5655 4655 4155 0
5655 -4655 0
5655 -4155 0
-4755 -4255 0
-5755 4755 4255 0
5755 -4755 0
5755 -4255 0
-4855 -4355 0
-5855 4855 4355 0
5855 -4855 0
5855 -4355 0
-5955 4955 0
5955 -4955 0
-5555 4055 0
5555 -4055 0
5556 5656 5756 5856 5956 0
-4056 1056 0
-4156 1156 0
-4256 1256 0
-4356 1356 0
-4656 2656 0
-4756 2756 0
-4856 2856 0
-4956 2956 0
-4656 -4156 0
-5656 4656 4156 0
5656 -4656 0
5656 -4156 0
-4756 -4256 0
-5756 4756 4256 0
5756 -4756 0
5756 -4256 0
-4856 -4356 0
-5856 4856 4356 0
5856 -4856 0
5856 -4356 0
-5956 4956 0
5956 -4956 0
-5556 4056 0
5556 -4056 0
5557 5657 5757 5857 5957 0
-4057 1057 0
-4157 1157 0
-4257 1257 0
-4357 1357 0
-4657 2657 0
-4757 2757 0
-4857 2857 0
-4957 2957 0
-4657 -4157 0
-5657 4657 4157 0
5657 -4657 0
5657 -4157 0
-4757 -4257 0
-5757 4757 4257 0
5757 -4757 0
5757 -4257 0
-4857 -4357 0
-5857 4857 4357 0
5857 -4857 0
5857 -4357 0
-5957 4957 0
5957 -4957 0
-5557 4057 0
5557 -4057 0
5558 5658 5758 5858 5958 0
-4058 1058 0
-4158 1158 0
-4258 1258 0
-4358 1358 0
-4658 2658 0
-4758 2758 0
-4858 2858 0
-4958 2958 0
-4658 -4158 0
-5658 4658 4158 0
5658 -4658 0
5658 -4158 0
-4758 -4258 0
-5758 4758 4258 0
5758 -4758 0
5758 -4258 0
-4858 -4358 0
-5858 4858 4358 0
5858 -4858 0
5858 -4358 0
-5958 4958 0
5958 -4958 0
-5558 4058 0
5558 -4058 0
5559 5659 5759 5859 5959 0
-4059 1059 0
-4159 1159 0
-4259 1259 0
-4359 1359 0
-4659 2659 0
-4759 2759 0
-4859 2859 0
-4959 2959 0
-4659 -4159 0
-5659 4659 4159 0
5659 -4659 0
5659 -4159 0
-4759 -4259 0
-5759 4759 4259 0
5759 -4759 0
5759 -4259 0
-4859 -4359 0
-5859 4859 4359 0
5859 -4859 0
5859 -4359 0
-5959 4959 0
5959 -4959 0
-5559 4059 0
5559 -4059 0
5560 5660 5760 5860 5960 0
-4060 1060 0
-4160 1160 0
-4260 1260 0
-4360 1360 0
-4660 2660 0
-4760 2760 0
-4860 2860 0
-4960 2960 0
-4660 -4160 0
-5660 4660 4160 0
5660 -4660 0
5660 -4160 0
-4760 -4260 0
-5760 4760 4260 0
5760 -4760 0
5760 -4260 0
-4860 -4360 0
-5860 4860 4360 0
5860 -4860 0
5860 -4360 0
-5960 4960 0
5960 -4960 0
-5560 4060 0
5560 -4060 0
5561 5661 5761 5861 5961 0
-4061 1061 0
-4161 1161 0
-4261 1261 0
-4361 1361 0
-4661 2661 0
-4761 2761 0
-4861 2861 0
-4961 2961 0
-4661 -4161 0
-5661 4661 4161 0
5661 -4661 0
5661 -4161 0
-4761 -4261 0
-5761 4761 4261 0
5761 -4761 0
5761 -4261 0
-4861 -4361 0
-5861 4861 4361 0
5861 -4861 0
5861 -4361 0
-5961 4961 0
5961 -4961 0
-5561 4061 0
5561 -4061 0
5562 5662 5762 5862 5962 0
-4062 1062 0
-4162 1162 0
-4262 1262 0
-4362 1362 0
-4662 2662 0
-4762 2762 0
-4862 2862 0
-4962 2962 0
-4662 -4162 0
-5662 4662 4162 0
5662 -4662 0
5662 -4162 0
-4762 -4262 0
-5762 4762 4262 0
5762 -4762 0
5762 -4262 0
-4862 -4362 0
-5862 4862 4362 0
5862 -4862 0
5862 -4362 0
-5962 4962 0
5962 -4962 0
-5562 4062 0
5562 -4062 0
5563 5663 5763 5863 5963 0
-4063 1063 0
-4163 1163 0
-4263 1263 0
-4363 1363 0
-4663 2663 0
-4763 2763 0
-4863 2863 0
-4963 2963 0
-4663 -4163 0
-5663 4663 4163 0
5663 -4663 0
5663 -4163 0
-4763 -4263 0
-5763 4763 4263 0
5763 -4763 0
5763 -4263 0
-4863 -4363 0
-5863 4863 4363 0
5863 -4863 0
5863 -4363 0
-5963 4963 0
5963 -4963 0
-5563 4063 0
5563 -4063 0
5564 5664 5764 5864 5964 0
-4064 1064 0
-4164 1164 0
-4264 1264 0
-4364 1364 0
-4664 2664 0
-4764 2764 0
-4864 2864 0
-4964 2964 0
-4664 -4164 0
-5664 4664 4164 0
5664 -4664 0
5664 -4164 0
-4764 -4264 0
-5764 4764 4264 0
5764 -4764 0
5764 -4264 0
-4864 -4364 0
-5864 4864 4364 0
5864 -4864 0
5864 -4364 0
-5964 4964 0
5964 -4964 0
-5564 4064 0
5564 -4064 0
5565 5665 5765 5865 5965 0
-4065 1065 0
-4165 1165 0
-4265 1265 0
-4365 1365 0
-4665 2665 0
-4765 2765 0
-4865 2865 0
-4965 2965 0
-4665 -4165 0
-5665 4665 4165 0
5665 -4665 0
5665 -4165 0
-4765 -4265 0
-5765 4765 4265 0
5765 -4765 0
5765 -4265 0
-4865 -4365 0
-5865 4865 4365 0
5865 -4865 0
5865 -4365 0
-5965 4965 0
5965 -4965 0
-5565 4065 0
5565 -4065 0
5566 5666 5766 5866 5966 0
-4066 1066 0
-4166 1166 0
-4266 1266 0
-4366 1366 0
-4666 2666 0
-4766 2766 0
-4866 2866 0
-4966 2966 0
-4666 -4166 0
-5666 4666 4166 0
5666 -4666 0
5666 -4166 0
-4766 -4266 0
-5766 4766 4266 0
5766 -4766 0
5766 -4266 0
-4866 -4366 0
-5866 4866 4366 0
5866 -4866 0
5866 -4366 0
-5966 4966 0
5966 -4966 0
-5566 4066 0
5566 -4066 0
5567 5667 5767 5867 5967 0
-4067 1067 0
-4167 1167 0
-4267 1267 0
-4367 1367 0
-4667 2667 0
-4767 2767 0
-4867 2867 0
-4967 2967 0
-4667 -4167 0
-5667 4667 4167 0
5667 -4667 0
5667 -4167 0
-4767 -4267 0
-5767 4767 4267 0
5767 -4767 0
5767 -4267 0
-4867 -4367 0
-5867 4867 4367 0
5867 -4867 0
5867 -4367 0
-5967 4967 0
5967 -4967 0
-5567 4067 0
5567 -4067 0
5568 5668 5768 5868 5968 0
-4068 1068 0
-4168 1168 0
-4268 1268 0
-4368 1368 0
-4668 2668 0
-4768 2768 0
-4868 2868 0
-4968 2968 0
-4668 -4168 0
-5668 4668 4168 0
5668 -4668 0
5668 -4168 0
-4768 -4268 0
-5768 4768 4268 0
5768 -4768 0
5768 -4268 0
-4868 -4368 0
-5868 4868 4368 0
5868 -4868 0
5868 -4368 0
-5968 4968 0
5968 -4968 0
-5568 4068 0
5568 -4068 0
5569 5669 5769 5869 5969 0
-4069 1069 0
-4169 1169 0
-4269 1269 0
-4369 1369 0
-4669 2669 0
-4769 2769 0
-4869 2869 0
-4969 2969 0
-4669 -4169 0
-5669 4669 4169 0
5669 -4669 0
5669 -4169 0
-4769 -4269 0
-5769 4769 4269 0
5769 -4769 0
5769 -4269 0
-4869 -4369 0
-5869 4869 4369 0
5869 -4869 0
5869 -4369 0
-5969 4969 0
5969 -4969 0
-5569 4069 0
5569 -4069 0
5570 5670 5770 5870 5970 0
-4070 1070 0
-4170 1170 0
-4270 1270 0
-4370 1370 0
-4670 2670 0
-4770 2770 0
-4870 2870 0
-4970 2970 0
-4670 -4170 0
-5670 4670 4170 0
5670 -4670 0
5670 -4170 0
-4770 -4270 0
-5770 4770 4270 0
5770 -4770 0
5770 -4270 0
-4870 -4370 0
-5870 4870 4370 0
5870 -4870 0
5870 -4370 0
-5970 4970 0
5970 -4970 0
-5570 4070 0
5570 -4070 0
5571 5671 5771 5871 5971 0
-4071 1071 0
-4171 1171 0
-4271 1271 0
-4371 1371 0
-4671 2671 0
-4771 2771 0
-4871 2871 0
-4971 2971 0
-4671 -4171 0
-5671 4671 4171 0
5671 -4671 0
5671 -4171 0
-4771 -4271 0
-5771 4771 4271 0
5771 -4771 0
5771 -4271 0
-4871 -4371 0
-5871 4871 4371 0
5871 -4871 0
5871 -4371 0
-5971 4971 0
5971 -4971 0
-5571 4071 0
5571 -4071 0
5572 5672 5772 5872 5972 0
-4072 1072 0
-4172 1172 0
-4272 1272 0
-4372 1372 0
-4672 2672 0
-4772 2772 0
-4872 2872 0
-4972 2972 0
-4672 -4172 0
-5672 4672 4172 0
5672 -4672 0
5672 -4172 0
-4772 -4272 0
-5772 4772 4272 0
5772 -4772 0
5772 -4272 0
-4872 -4372 0
-5872 4872 4372 0
5872 -4872 0
5872 -4372 0
-5972 4972 0
5972 -4972 0
-5572 4072 0
5572 -4072 0
5573 5673 5773 5873 5973 0
-4073 1073 0
-4173 1173 0
-4273 1273 0
-4373 1373 0
-4673 2673 0
-4773 2773 0
-4873 2873 0
-4973 2973 0
-4673 -4173 0
-5673 4673 4173 0
5673 -4673 0
5673 -4173 0
-4773 -4273 0
-5773 4773 4273 0
5773 -4773 0
5773 -4273 0
-4873 -4373 0
-5873 4873 4373 0
5873 -4873 0
5873 -4373 0
-5973 4973 0
5973 -4973 0
-5573 4073 0
5573 -4073 0
5574 5674 5774 5874 5974 0
-4074 1074 0
-4174 1174 0
-4274 1274 0
-4374 1374 0
-4674 2674 0
-4774 2774 0
-4874 2874 0
-4974 2974 0
-4674 -4174 0
-5674 4674 4174 0
5674 -4674 0
5674 -4174 0
-4774 -4274 0
-5774 4774 4274 0
5774 -4774 0
5774 -4274 0
-4874 -4374 0
-5874 4874 4374 0
5874 -4874 0
5874 -4374 0
-5974 4974 0
5974 -4974 0
-5574 4074 0
5574 -4074 0
5575 5675 5775 5875 5975 0
-4075 1075 0
-4175 1175 0
-4275 1275 0
-4375 1375 0
-4675 2675 0
-4775 2775 0
-4875 2875 0
-4975 2975 0
-4675 -4175 0
-5675 4675 4175 0
5675 -4675 0
5675 -4175 0
-4775 -4275 0
-5775 4775 4275 0
5775 -4775 0
5775 -4275 0
-4875 -4375 0
-5875 4875 4375 0
5875 -4875 0
5875 -4375 0
-5975 4975 0
5975 -4975 0
-5575 4075 0
5575 -4075 0
5576 5676 5776 5876 5976 0
-4076 1076 0
-4176 1176 0
-4276 1276 0
-4376 1376 0
-4676 2676 0
-4776 2776 0
-4876 2876 0
-4976 2976 0
-4676 -4176 0
-5676 4676 4176 0
5676 -4676 0
5676 -4176 0
-4776 -4276 0
-5776 4776 4276 0
5776 -4776 0
5776 -4276 0
-4876 -4376 0
-5876 4876 4376 0
5876 -4876 0
5876 -4376 0
-5976 4976 0
5976 -4976 0
-5576 4076 0
5576 -4076 0
5577 5677 5777 5877 5977 0
-4077 1077 0
-4177 1177 0
-4277 1277 0
-4377 1377 0
-4677 2677 0
-4777 2777 0
-4877 2877 0
-4977 2977 0
-4677 -4177 0
-5677 4677 4177 0
5677 -4677 0
5677 -4177 0
-4777 -4277 0
-5777 4777 4277 0
5777 -4777 0
5777 -4277 0
-4877 -4377 0
-5877 4877 4377 0
5877 -4877 0
5877 -4377 0
-5977 4977 0
5977 -4977 0
-5577 4077 0
5577 -4077 0
5578 5678 5778 5878 5978 0
-4078 1078 0
-4178 1178 0
-4278 1278 0
-4378 1378 0
-4678 2678 0
-4778 2778 0
-4878 2878 0
-4978 2978 0
-4678 -4178 0
-5678 4678 4178 0
5678 -4678 0
5678 -4178 0
-4778 -4278 0
-5778 4778 4278 0
5778 -4778 0
5778 -4278 0
-4878 -4378 0
-5878 4878 4378 0
5878 -4878 0
5878 -4378 0
-5978 4978 0
5978 -4978 0
-5578 4078 0
5578 -4078 0
5579 5679 5779 5879 5979 0
-4079 1079 0
-4179 1179 0
-4279 1279 0
-4379 1379 0
-4679 2679 0
-4779 2779 0
-4879 2879 0
-4979 2979 0
-4679 -4179 0
-5679 4679 4179 0
5679 -4679 0
5679 -4179 0
-4779 -4279 0
-5779 4779 4279 0
5779 -4779 0
5779 -4279 0
-4879 -4379 0
-5879 4879 4379 0
5879 -4879 0
5879 -4379 0
-5979 4979 0
5979 -4979 0
-5579 4079 0
5579 -4079 0
5580 5680 5780 5880 5980 0
-4080 1080 0
-4180 1180 0
-4280 1280 0
-4380 1380 0
-4680 2680 0
-4780 2780 0
-4880 2880 0
-4980 2980 0
-4680 -4180 0
-5680 4680 4180 0
5680 -4680 0
5680 -4180 0
-4780 -4280 0
-5780 4780 4280 0
5780 -4780 0
5780 -4280 0
-4880 -4380 0
-5880 4880 4380 0
5880 -4880 0
5880 -4380 0
-5980 4980 0
5980 -4980 0
-5580 4080 0
5580 -4080 0
5581 5681 5781 5881 5981 0
-4081 1081 0
-4181 1181 0
-4281 1281 0
-4381 1381 0
-4681 2681 0
-4781 2781 0
-4881 2881 0
-4981 2981 0
-4681 -4181 0
-5681 4681 4181 0
5681 -4681 0
5681 -4181 0
-4781 -4281 0
-5781 4781 4281 0
5781 -4781 0
5781 -4281 0
-4881 -4381 0
-5881 4881 4381 0
5881 -4881 0
5881 -4381 0
-5981 4981 0
5981 -4981 0
-5581 4081 0
5581 -4081 0
5582 5682 5782 5882 5982 0
-4082 1082 0
-4182 1182 0
-4282 1282 0
-4382 1382 0
-4682 2682 0
-4782 2782 0
-4882 2882 0
-4982 2982 0
-4682 -4182 0
-5682 4682 4182 0
5682 -4682 0
5682 -4182 0
-4782 -4282 0
-5782 4782 4282 0
5782 -4782 0
5782 -4282 0
-4882 -4382 0
-5882 4882 4382 0
5882 -4882 0
5882 -4382 0
-5982 4982 0
5982 -4982 0
-5582 4082 0
5582 -4082 0
5583 5683 5783 5883 5983 0
-4083 1083 0
-4183 1183 0
-4283 1283 0
-4383 1383 0
-4683 2683 0
-4783 2783 0
-4883 2883 0
-4983 2983 0
-4683 -4183 0
-5683 4683 4183 0
5683 -4683 0
5683 -4183 0
-4783 -4283 0
-5783 4783 4283 0
5783 -4783 0
5783 -4283 0
-4883 -4383 0
-5883 4883 4383 0
5883 -4883 0
5883 -4383 0
-5983 4983 0
5983 -4983 0
-5583 4083 0
5583 -4083 0
5584 5684 5784 5884 5984 0
-4084 1084 0
-4184 1184 0
-4284 1284 0
-4384 1384 0
-4684 2684 0
-4784 2784 0
-4884 2884 0
-4984 2984 0
-4684 -4184 0
-5684 4684 4184 0
5684 -4684 0
5684 -4184 0
-4784 -4284 0
-5784 4784 4284 0
5784 -4784 0
5784 -4284 0
-4884 -4384 0
-5884 4884 4384 0
5884 -4884 0
5884 -4384 0
-5984 4984 0
5984 -4984 0
-5584 4084 0
5584 -4084 0
5585 5685 5785 5885 5985 0
-4085 1085 0
-4185 1185 0
-4285 1285 0
-4385 1385 0
-4685 2685 0
-4785 2785 0
-4885 2885 0
-4985 2985 0
-4685 -4185 0
-5685 4685 4185 0
5685 -4685 0
5685 -4185 0
-4785 -4285 0
-5785 4785 4285 0
5785 -4785 0
5785 -4285 0
-4885 -4385 0
-5885 4885 4385 0
5885 -4885 0
5885 -4385 0
-5985 4985 0
5985 -4985 0
-5585 4085 0
5585 -4085 0
5586 5686 5786 5886 5986 0
-4086 1086 0
-4186 1186 0
-4286 1286 0
-4386 1386 0
-4686 2686 0
-4786 2786 0
-4886 2886 0
-4986 2986 0
-4686 -4186 0
-5686 4686 4186 0
5686 -4686 0
5686 -4186 0
-4786 -4286 0
-5786 4786 4286 0
5786 -4786 0
5786 -4286 0
-4886 -4386 0
-5886 4886 4386 0
5886 -4886 0
5886 -4386 0
-5986 4986 0
5986 -4986 0
-5586 4086 0
5586 -4086 0
5587 5687 5787 5887 5987 0
-4087 1087 0
-4187 1187 0
-4287 1287 0
-4387 1387 0
-4687 2687 0
-4787 2787 0
-4887 2887 0
-4987 2987 0
-4687 -4187 0
-5687 4687 4187 0
5687 -4687 0
5687 -4187 0
-4787 -4287 0
-5787 4787 4287 0
5787 -4787 0
5787 -4287 0
-4887 -4387 0
-5887 4887 4387 0
5887 -4887 0
5887 -4387 0
-5987 4987 0
5987 -4987 0
-5587 4087 0
5587 -4087 0
5588 5688 5788 5888 5988 0
-4088 1088 0
-4188 1188 0
-4288 1288 0
-4388 1388 0
-4688 2688 0
-4788 2788 0
-4888 2888 0
-4988 2988 0
-4688 -4188 0
-5688 4688 4188 0
5688 -4688 0
5688 -4188 0
-4788 -4288 0
-5788 4788 4288 0
5788 -4788 0
5788 -4288 0
-4888 -4388 0
-5888 4888 4388 0
5888 -4888 0
5888 -4388 0
-5988 4988 0
5988 -4988 0
-5588 4088 0
5588 -4088 0
5589 5689 5789 5889 5989 0
-4089 1089 0
-4189 1189 0
-4289 1289 0
-4389 1389 0
-4689 2689 0
-4789 2789 0
-4889 2889 0
-4989 2989 0
-4689 -4189 0
-5689 4689 4189 0
5689 -4689 0
5689 -4189 0
-4789 -4289 0
-5789 4789 4289 0
5789 -4789 0
5789 -4289 0
-4889 -4389 0
-5889 4889 4389 0
5889 -4889 0
5889 -4389 0
-5989 4989 0
5989 -4989 0
-5589 4089 0
5589 -4089 0
5590 5690 5790 5890 5990 0
-4090 1090 0
-4190 1190 0
-4290 1290 0
-4390 1390 0
-4690 2690 0
-4790 2790 0
-4890 2890 0
-4990 2990 0
-4690 -4190 0
-5690 4690 4190 0
5690 -4690 0
5690 -4190 0
-4790 -4290 0
-5790 4790 4290 0
5790 -4790 0
5790 -4290 0
-4890 -4390 0
-5890 4890 4390 0
5890 -4890 0
5890 -4390 0
-5990 4990 0
5990 -4990 0
-5590 4090 0
5590 -4090 0
5591 5691 5791 5891 5991 0
-4091 1091 0
-4191 1191 0
-4291 1291 0
-4391 1391 0
-4691 2691 0
-4791 2791 0
-4891 2891 0
-4991 2991 0
-4691 -4191 0
-5691 4691 4191 0
5691 -4691 0
5691 -4191 0
-4791 -4291 0
-5791 4791 4291 0
5791 -4791 0
5791 -4291 0
-4891 -4391 0
-5891 4891 4391 0
5891 -4891 0
5891 -4391 0
-5991 4991 0
5991 -4991 0
-5591 4091 0
5591 -4091 0
5592 5692 5792 5892 5992 0
-4092 1092 0
-4192 1192 0
-4292 1292 0
-4392 1392 0
-4692 2692 0
-4792 2792 0
-4892 2892 0
-4992 2992 0
-4692 -4192 0
-5692 4692 4192 0
5692 -4692 0
5692 -4192 0
-4792 -4292 0
-5792 4792 4292 0
5792 -4792 0
5792 -4292 0
-4892 -4392 0
-5892 4892 4392 0
5892 -4892 0
5892 -4392 0
-5992 4992 0
5992 -4992 0
-5592 4092 0
5592 -4092 0
5593 5693 5793 5893 5993 0
-4093 1093 0
-4193 1193 0
-4293 1293 0
-4393 1393 0
-4693 2693 0
-4793 2793 0
-4893 2893 0
-4993 2993 0
-4693 -4193 0
-5693 4693 4193 0
5693 -4693 0
5693 -4193 0
-4793 -4293 0
-5793 4793 4293 0
5793 -4793 0
5793 -4293 0
-4893 -4393 0
-5893 4893 4393 0
5893 -4893 0
5893 -4393 0
-5993 4993 0
5993 -4993 0
-5593 4093 0
5593 -4093 0
5594 5694 5794 5894 5994 0
-4094 1094 0
-4194 1194 0
-4294 1294 0
-4394 1394 0
-4694 2694 0
-4794 2794 0
-4894 2894 0
-4994 2994 0
-4694 -4194 0
-5694 4694 4194 0
5694 -4694 0
5694 -4194 0
-4794 -4294 0
-5794 4794 4294 0
5794 -4794 0
5794 -4294 0
-4894 -4394 0
-5894 4894 4394 0
5894 -4894 0
5894 -4394 0
-5994 4994 0
5994 -4994 0
-5594 4094 0
5594 -4094 0
5595 5695 5795 5895 5995 0
-4095 1095 0
-4195 1195 0
-4295 1295 0
-4395 1395 0
-4695 2695 0
-4795 2795 0
-4895 2895 0
-4995 2995 0
-4695 -4195 0
-5695 4695 4195 0
5695 -4695 0
5695 -4195 0
-4795 -4295 0
-5795 4795 4295 0
5795 -4795 0
5795 -4295 0
-4895 -4395 0
-5895 4895 4395 0
5895 -4895 0
5895 -4395 0
-5995 4995 0
5995 -4995 0
-5595 4095 0
5595 -4095 0
5596 5696 5796 5896 5996 0
-4096 1096 0
-4196 1196 0
-4296 1296 0
-4396 1396 0
-4696 2696 0
-4796 2796 0
-4896 2896 0
-4996 2996 0
-4696 -4196 0
-5696 4696 4196 0
5696 -4696 0
5696 -4196 0
-4796 -4296 0
-5796 4796 4296 0
5796 -4796 0
5796 -4296 0
-4896 -4396 0
-5896 4896 4396 0
5896 -4896 0
5896 -4396 0
-5996 4996 0
5996 -4996 0
-5596 4096 0
5596 -4096 0
5597 5697 5797 5897 5997 0
-4097 1097 0
-4197 1197 0
-4297 1297 0
-4397 1397 0
-4697 2697 0
-4797 2797 0
-4897 2897 0
-4997 2997 0
-4697 -4197 0
-5697 4697 4197 0
5697 -4697 0
5697 -4197 0
-4797 -4297 0
-5797 4797 4297 0
5797 -4797 0
5797 -4297 0
-4897 -4397 0
-5897 4897 4397 0
5897 -4897 0
5897 -4397 0
-5997 4997 0
5997 -4997 0
-5597 4097 0
5597 -4097 0
5598 5698 5798 5898 5998 0
-4098 1098 0
-4198 1198 0
-4298 1298 0
-4398 1398 0
-4698 2698 0
-4798 2798 0
-4898 2898 0
-4998 2998 0
-4698 -4198 0
-5698 4698 4198 0
5698 -4698 0
5698 -4198 0
-4798 -4298 0
-5798 4798 4298 0
5798 -4798 0
5798 -4298 0
-4898 -4398 0
-5898 4898 4398 0
5898 -4898 0
5898 -4398 0
-5998 4998 0
5998 -4998 0
-5598 4098 0
5598 -4098 0
5599 5699 5799 5899 5999 0
-4099 1099 0
-4199 1199 0
-4299 1299 0
-4399 1399 0
-4699 2699 0
-4799 2799 0
-4899 2899 0
-4999 2999 0
-4699 -4199 0
-5699 4699 4199 0
5699 -4699 0
5699 -4199 0
-4799 -4299 0
-5799 4799 4299 0
5799 -4799 0
5799 -4299 0
-4899 -4399 0
-5899 4899 4399 0
5899 -4899 0
5899 -4399 0
-5999 4999 0
5999 -4999 0
-5599 4099 0
5599 -4099 0
-6000 0
5001 6001 0
5101 6001 0
5001 5101 6002 0
5201 6003 0
5301 6003 0
5201 5301 6004 0
-6001 6005 0
-6003 6005 0
-6001 -6003 6006 0
-6002 6007 0
-6004 6007 0
-6002 -6004 6008 0
-6006 6009 0
-6007 6009 0
-6006 -6007 6010 0
5401 6011 0
-6000 6011 0
5401 -6000 6012 0
-6000 6013 0
-6000 6013 0
-6000 -6000 6014 0
-6011 6015 0
-6013 6015 0
-6011 -6013 6016 0
-6012 6017 0
-6014 6017 0
-6012 -6014 6018 0
-6016 6019 0
-6017 6019 0
-6016 -6017 6020 0
-6005 6021 0
-6015 6021 0
-6005 -6015 6022 0
-6010 6023 0
-6020 6023 0
-6010 -6020 6024 0
-6022 6025 0
-6023 6025 0
-6022 -6023 6026 0
-6009 6027 0
-6019 6027 0
-6009 -6019 6028 0
-6008 6029 0
-6018 6029 0
-6008 -6018 6030 0
-6028 6031 0
-6029 6031 0
-6028 -6029 6032 0
-6025 6033 0
-6027 6033 0
-6025 -6027 6034 0
-6026 6035 0
-6031 6035 0
-6026 -6031 6036 0
-6035 0
6002 6003 6004 6005 6006 6007 6008 6009 6010 6011 6012 6013 6014 6015 6016 6017 6018 6019 6020 6021 6022 6023 6024 6025 6026 6027 6028 6029 6030 6031 6032 6033 6034 6035 6036 6037 6038 6039 6040 6041 6042 6043 6044 6045 6046 6047 6048 6049 6050 6051 6052 6053 6054 6055 6056 6057 6058 6059 6060 6061 6062 6063 6064 6065 6066 6067 6068 6069 6070 6071 6072 6073 6074 6075 6076 6077 6078 6079 6080 6081 6082 6083 6084 6085 6086 6087 6088 6089 6090 6091 6092 6093 6094 6095 6096 6097 6098 6099 6100 0
6102 -6002 0
6602 -6002 0
-6102 -6602 6002 0
-6102 7102 0
-6102 8102 0
6102 -7102 -8102 0
-6602 7602 0
-6602 8602 0
6602 -7602 -8602 0
-1 2 -7102 0
1 7102 0
-2 7102 0
-501 502 -7602 0
501 7602 0
-502 7602 0
1 -2 -8102 0
-1 8102 0
2 8102 0
501 -502 -8602 0
-501 8602 0
502 8602 0
6202 -6002 0
6702 -6002 0
-6202 -6702 6002 0
-6202 7202 0
-6202 8202 0
6202 -7202 -8202 0
-6702 7702 0
-6702 8702 0
6702 -7702 -8702 0
-101 102 -7202 0
101 7202 0
-102 7202 0
-601 602 -7702 0
601 7702 0
-602 7702 0
101 -102 -8202 0
-101 8202 0
102 8202 0
601 -602 -8702 0
-601 8702 0
602 8702 0
6302 -6002 0
6802 -6002 0
-6302 -6802 6002 0
-6302 7302 0
-6302 8302 0
6302 -7302 -8302 0
-6802 7802 0
-6802 8802 0
6802 -7802 -8802 0
-201 202 -7302 0
201 7302 0
-202 7302 0
-701 702 -7802 0
701 7802 0
-702 7802 0
201 -202 -8302 0
-201 8302 0
202 8302 0
701 -702 -8802 0
-701 8802 0
702 8802 0
6402 -6002 0
6902 -6002 0
-6402 -6902 6002 0
-6402 7402 0
-6402 8402 0
6402 -7402 -8402 0
-6902 7902 0
-6902 8902 0
6902 -7902 -8902 0
-301 302 -7402 0
301 7402 0
-302 7402 0
-801 802 -7902 0
801 7902 0
-802 7902 0
301 -302 -8402 0
-301 8402 0
302 8402 0
801 -802 -8902 0
-801 8902 0
802 8902 0
6502 -6002 0
7002 -6002 0
-6502 -7002 6002 0
-6502 7502 0
-6502 8502 0
6502 -7502 -8502 0
-7002 8002 0
-7002 9002 0
7002 -8002 -9002 0
-401 402 -7502 0
401 7502 0
-402 7502 0
-901 902 -8002 0
901 8002 0
-902 8002 0
401 -402 -8502 0
-401 8502 0
402 8502 0
901 -902 -9002 0
-901 9002 0
902 9002 0
6103 -6003 0
6603 -6003 0
-6103 -6603 6003 0
-6103 7103 0
-6103 8103 0
6103 -7103 -8103 0
-6603 7603 0
-6603 8603 0
6603 -7603 -8603 0
-1 3 -7103 0
1 7103 0
-3 7103 0
-501 503 -7603 0
501 7603 0
-503 7603 0
1 -3 -8103 0
-1 8103 0
3 8103 0
501 -503 -8603 0
-501 8603 0
503 8603 0
6203 -6003 0
6703 -6003 0
-6203 -6703 6003 0
-6203 7203 0
-6203 8203 0
6203 -7203 -8203 0
-6703 7703 0
-6703 8703 0
6703 -7703 -8703 0
-101 103 -7203 0
101 7203 0
-103 7203 0
-601 603 -7703 0
601 7703 0
-603 7703 0
101 -103 -8203 0
-101 8203 0
103 8203 0
601 -603 -8703 0
-601 8703 0
603 8703 0
6303 -6003 0
6803 -6003 0
-6303 -6803 6003 0
-6303 7303 0
-6303 8303 0
6303 -7303 -8303 0
-6803 7803 0
-6803 8803 0
6803 -7803 -8803 0
-201 203 -7303 0
201 7303 0
-203 7303 0
-701 703 -7803 0
701 7803 0
-703 7803 0
201 -203 -8303 0
-201 8303 0
203 8303 0
701 -703 -8803 0
-701 8803 0
703 8803 0
6403 -6003 0
6903 -6003 0
-6403 -6903 6003 0
-6403 7403 0
-6403 8403 0
6403 -7403 -8403 0
-6903 7903 0
-6903 8903 0
6903 -7903 -8903 0
-301 303 -7403 0
301 7403 0
-303 7403 0
-801 803 -7903 0
801 7903 0
-803 7903 0
301 -303 -8403 0
-301 8403 0
303 8403 0
801 -803 -8903 0
-801 8903 0
803 8903 0
6503 -6003 0
7003 -6003 0
-6503 -7003 6003 0
-6503 7503 0
-6503 8503 0
6503 -7503 -8503 0
-7003 8003 0
-7003 9003 0
7003 -8003 -9003 0
-401 403 -7503 0
401 7503 0
-403 7503 0
-901 903 -8003 0
901 8003 0
-903 8003 0
401 -403 -8503 0
-401 8503 0
403 8503 0
901 -903 -9003 0
-901 9003 0
903 9003 0
6104 -6004 0
6604 -6004 0
-6104 -6604 6004 0
-6104 7104 0
-6104 8104 0
6104 -7104 -8104 0
-6604 7604 0
-6604 8604 0
6604 -7604 -8604 0
-1 4 -7104 0
1 7104 0
-4 7104 0
-501 504 -7604 0
501 7604 0
-504 7604 0
1 -4 -8104 0
-1 8104 0
4 8104 0
501 -504 -8604 0
-501 8604 0
504 8604 0
6204 -6004 0
6704 -6004 0
-6204 -6704 6004 0
-6204 7204 0
-6204 8204 0
6204 -7204 -8204 0
-6704 7704 0
-6704 8704 0
6704 -7704 -8704 0
-101 104 -7204 0
101 7204 0
-104 7204 0
-601 604 -7704 0
601 7704 0
-604 7704 0
101 -104 -8204 0
-101 8204 0
104 8204 0
601 -604 -8704 0
-601 8704 0
604 8704 0
6304 -6004 0
6804 -6004 0
-6304 -6804 6004 0
-6304 7304 0
-6304 8304 0
6304 -7304 -8304 0
-6804 7804 0
-6804 8804 0
6804 -7804 -8804 0
-201 204 -7304 0
201 7304 0
-204 7304 0
-701 704 -7804 0
701 7804 0
-704 7804 0
201 -204 -8304 0
-201 8304 0
204 8304 0
701 -704 -8804 0
-701 8804 0
704 8804 0
6404 -6004 0
6904 -6004 0
-6404 -6904 6004 0
-6404 7404 0
-6404 8404 0
6404 -7404 -8404 0
-6904 7904 0
-6904 8904 0
6904 -7904 -8904 0
-301 304 -7404 0
301 7404 0
-304 7404 0
-801 804 -7904 0
801 7904 0
-804 7904 0
301 -304 -8404 0
-301 8404 0
304 8404 0
801 -804 -8904 0
-801 8904 0
804 8904 0
6504 -6004 0
7004 -6004 0
-6504 -7004 6004 0
-6504 7504 0
-6504 8504 0
6504 -7504 -8504 0
-7004 8004 0
-7004 9004 0
7004 -8004 -9004 0
-401 404 -7504 0
401 7504 0
-404 7504 0
-901 904 -8004 0
901 8004 0
-904 8004 0
401 -404 -8504 0
-401 8504 0
404 8504 0
901 -904 -9004 0
-901 9004 0
904 9004 0
6105 -6005 0
6605 -6005 0
-6105 -6605 6005 0
-6105 7105 0
-6105 8105 0
6105 -7105 -8105 0
-6605 7605 0
-6605 8605 0
6605 -7605 -8605 0
-1 5 -7105 0
1 7105 0
-5 7105 0
-501 505 -7605 0
501 7605 0
-505 7605 0
1 -5 -8105 0
-1 8105 0
5 8105 0
501 -505 -8605 0
-501 8605 0
505 8605 0
6205 -6005 0
6705 -6005 0
-6205 -6705 6005 0
-6205 7205 0
-6205 8205 0
6205 -7205 -8205 0
-6705 7705 0
-6705 8705 0
6705 -7705 -8705 0
-101 105 -7205 0
101 7205 0
-105 7205 0
-601 605 -7705 0
601 7705 0
-605 7705 0
101 -105 -8205 0
-101 8205 0
105 8205 0
601 -605 -8705 0
-601 8705 0
605 8705 0
6305 -6005 0
6805 -6005 0
-6305 -6805 6005 0
-6305 7305 0
-6305 8305 0
6305 -7305 -8305 0
-6805 7805 0
-6805 8805 0
6805 -7805 -8805 0
-201 205 -7305 0
201 7305 0
-205 7305 0
-701 705 -7805 0
701 7805 0
-705 7805 0
201 -205 -8305 0
-201 8305 0
205 8305 0
701 -705 -8805 0
-701 8805 0
705 8805 0
6405 -6005 0
6905 -6005 0
-6405 -6905 6005 0
-6405 7405 0
-6405 8405 0
6405 -7405 -8405 0
-6905 7905 0
-6905 8905 0
6905 -7905 -8905 0
-301 305 -7405 0
301 7405 0
-305 7405 0
-801 805 -7905 0
801 7905 0
-805 7905 0
301 -305 -8405 0
-301 8405 0
305 8405 0
801 -805 -8905 0
-801 8905 0
805 8905 0
6505 -6005 0
7005 -6005 0
-6505 -7005 6005 0
-6505 7505 0
-6505 8505 0
6505 -7505 -8505 0
-7005 8005 0
-7005 9005 0
7005 -8005 -9005 0
-401 405 -7505 0
401 7505 0
-405 7505 0
-901 905 -8005 0
901 8005 0
-905 8005 0
401 -405 -8505 0
-401 8505 0
405 8505 0
901 -905 -9005 0
-901 9005 0
905 9005 0
6106 -6006 0
6606 -6006 0
-6106 -6606 6006 0
-6106 7106 0
-6106 8106 0
6106 -7106 -8106 0
-6606 7606 0
-6606 8606 0
6606 -7606 -8606 0
-1 6 -7106 0
1 7106 0
-6 7106 0
-501 506 -7606 0
501 7606 0
-506 7606 0
1 -6 -8106 0
-1 8106 0
6 8106 0
501 -506 -8606 0
-501 8606 0
506 8606 0
6206 -6006 0
6706 -6006 0
-6206 -6706 6006 0
-6206 7206 0
-6206 8206 0
6206 -7206 -8206 0
-6706 7706 0
-6706 8706 0
6706 -7706 -8706 0
-101 106 -7206 0
101 7206 0
-106 7206 0
-601 606 -7706 0
601 7706 0
-606 7706 0
101 -106 -8206 0
-101 8206 0
106 8206 0
601 -606 -8706 0
-601 8706 0
606 8706 0
6306 -6006 0
6806 -6006 0
-6306 -6806 6006 0
-6306 7306 0
-6306 8306 0
6306 -7306 -8306 0
-6806 7806 0
-6806 8806 0
6806 -7806 -8806 0
-201 206 -7306 0
201 7306 0
-206 7306 0
-701 706 -7806 0
701 7806 0
-706 7806 0
201 -206 -8306 0
-201 8306 0
206 8306 0
701 -706 -8806 0
-701 8806 0
706 8806 0
6406 -6006 0
6906 -6006 0
-6406 -6906 6006 0
-6406 7406 0
-6406 8406 0
6406 -7406 -8406 0
-6906 7906 0
-6906 8906 0
6906 -7906 -8906 0
-301 306 -7406 0
301 7406 0
-306 7406 0
-801 806 -7906 0
801 7906 0
-806 7906 0
301 -306 -8406 0
-301 8406 0
306 8406 0
801 -806 -8906 0
-801 8906 0
806 8906 0
6506 -6006 0
7006 -6006 0
-6506 -7006 6006 0
-6506 7506 0
-6506 8506 0
6506 -7506 -8506 0
-7006 8006 0
-7006 9006 0
7006 -8006 -9006 0
-401 406 -7506 0
401 7506 0
-406 7506 0
-901 906 -8006 0
901 8006 0
-906 8006 0
401 -406 -8506 0
-401 8506 0
406 8506 0
901 -906 -9006 0
-901 9006 0
906 9006 0
6107 -6007 0
6607 -6007 0
-6107 -6607 6007 0
-6107 7107 0
-6107 8107 0
6107 -7107 -8107 0
-6607 7607 0
-6607 8607 0
6607 -7607 -8607 0
-1 7 -7107 0
1 7107 0
-7 7107 0
-501 507 -7607 0
501 7607 0
-507 7607 0
1 -7 -8107 0
-1 8107 0
7 8107 0
501 -507 -8607 0
-501 8607 0
507 8607 0
6207 -6007 0
6707 -6007 0
-6207 -6707 6007 0
-6207 7207 0
-6207 8207 0
6207 -7207 -8207 0
-6707 7707 0
-6707 8707 0
6707 -7707 -8707 0
-101 107 -7207 0
101 7207 0
-107 7207 0
-601 607 -7707 0
601 7707 0
-607 7707 0
101 -107 -8207 0
-101 8207 0
107 8207 0
601 -607 -8707 0
-601 8707 0
607 8707 0
6307 -6007 0
6807 -6007 0
-6307 -6807 6007 0
-6307 7307 0
-6307 8307 0
6307 -7307 -8307 0
-6807 7807 0
-6807 8807 0
6807 -7807 -8807 0
-201 207 -7307 0
201 7307 0
-207 7307 0
-701 707 -7807 0
701 7807 0
-707 7807 0
201 -207 -8307 0
-201 8307 0
207 8307 0
701 -707 -8807 0
-701 8807 0
707 8807 0
6407 -6007 0
6907 -6007 0
-6407 -6907 6007 0
-6407 7407 0
-6407 8407 0
6407 -7407 -8407 0
-6907 7907 0
-6907 8907 0
6907 -7907 -8907 0
-301 307 -7407 0
301 7407 0
-307 7407 0
-801 807 -7907 0
801 7907 0
-807 7907 0
301 -307 -8407 0
-301 8407 0
307 8407 0
801 -807 -8907 0
-801 8907 0
807 8907 0
6507 -6007 0
7007 -6007 0
-6507 -7007 6007 0
-6507 7507 0
-6507 8507 0
6507 -7507 -8507 0
-7007 8007 0
-7007 9007 0
7007 -8007 -9007 0
-401 407 -7507 0
401 7507 0
-407 7507 0
-901 907 -8007 0
901 8007 0
-907 8007 0
401 -407 -8507 0
-401 8507 0
407 8507 0
901 -907 -9007 0
-901 9007 0
907 9007 0
6108 -6008 0
6608 -6008 0
-6108 -6608 6008 0
-6108 7108 0
-6108 8108 0
6108 -7108 -8108 0
-6608 7608 0
-6608 8608 0
6608 -7608 -8608 0
-1 8 -7108 0
1 7108 0
-8 7108 0
-501 508 -7608 0
501 7608 0
-508 7608 0
1 -8 -8108 0
-1 8108 0
8 8108 0
501 -508 -8608 0
-501 8608 0
508 8608 0
6208 -6008 0
6708 -6008 0
-6208 -6708 6008 0
-6208 7208 0
-6208 8208 0
6208 -7208 -8208 0
-6708 7708 0
-6708 8708 0
6708 -7708 -8708 0
-101 108 -7208 0
101 7208 0
-108 7208 0
-601 608 -7708 0
601 7708 0
-608 7708 0
101 -108 -8208 0
-101 8208 0
108 8208 0
601 -608 -8708 0
-601 8708 0
608 8708 0
6308 -6008 0
6808 -6008 0
-6308 -6808 6008 0
-6308 7308 0
-6308 8308 0
6308 -7308 -8308 0
-6808 7808 0
-6808 8808 0
6808 -7808 -8808 0
-201 208 -7308 0
201 7308 0
-208 7308 0
-701 708 -7808 0
701 7808 0
-708 7808 0
201 -208 -8308 0
-201 8308 0
208 8308 0
701 -708 -8808 0
-701 8808 0
708 8808 0
6408 -6008 0
6908 -6008 0
-6408 -6908 6008 0
-6408 7408 0
-6408 8408 0
6408 -7408 -8408 0
-6908 7908 0
-6908 8908 0
6908 -7908 -8908 0
-301 308 -7408 0
301 7408 0
-308 7408 0
-801 808 -7908 0
801 7908 0
-808 7908 0
301 -308 -8408 0
-301 8408 0
308 8408 0
801 -808 -8908 0
-801 8908 0
808 8908 0
6508 -6008 0
7008 -6008 0
-6508 -7008 6008 0
-6508 7508 0
-6508 8508 0
6508 -7508 -8508 0
-7008 8008 0
-7008 9008 0
7008 -8008 -9008 0
-401 408 -7508 0
401 7508 0
-408 7508 0
-901 908 -8008 0
901 8008 0
-908 8008 0
401 -408 -8508 0
-401 8508 0
408 8508 0
901 -908 -9008 0
-901 9008 0
908 9008 0
6109 -6009 0
6609 -6009 0
-6109 -6609 6009 0
-6109 7109 0
-6109 8109 0
6109 -7109 -8109 0
-6609 7609 0
-6609 8609 0
6609 -7609 -8609 0
-1 9 -7109 0
1 7109 0
-9 7109 0
-501 509 -7609 0
501 7609 0
-509 7609 0
1 -9 -8109 0
-1 8109 0
9 8109 0
501 -509 -8609 0
-501 8609 0
509 8609 0
6209 -6009 0
6709 -6009 0
-6209 -6709 6009 0
-6209 7209 0
-6209 8209 0
6209 -7209 -8209 0
-6709 7709 0
-6709 8709 0
6709 -7709 -8709 0
-101 109 -7209 0
101 7209 0
-109 7209 0
-601 609 -7709 0
601 7709 0
-609 7709 0
101 -109 -8209 0
-101 8209 0
109 8209 0
601 -609 -8709 0
-601 8709 0
609 8709 0
6309 -6009 0
6809 -6009 0
-6309 -6809 6009 0
-6309 7309 0
-6309 8309 0
6309 -7309 -8309 0
-6809 7809 0
-6809 8809 0
6809 -7809 -8809 0
-201 209 -7309 0
201 7309 0
-209 7309 0
-701 709 -7809 0
701 7809 0
-709 7809 0
201 -209 -8309 0
-201 8309 0
209 8309 0
701 -709 -8809 0
-701 8809 0
709 8809 0
6409 -6009 0
6909 -6009 0
-6409 -6909 6009 0
-6409 7409 0
-6409 8409 0
6409 -7409 -8409 0
-6909 7909 0
-6909 8909 0
6909 -7909 -8909 0
-301 309 -7409 0
301 7409 0
-309 7409 0
-801 809 -7909 0
801 7909 0
-809 7909 0
301 -309 -8409 0
-301 8409 0
309 8409 0
801 -809 -8909 0
-801 8909 0
809 8909 0
6509 -6009 0
7009 -6009 0
-6509 -7009 6009 0
-6509 7509 0
-6509 8509 0
6509 -7509 -8509 0
-7009 8009 0
-7009 9009 0
7009 -8009 -9009 0
-401 409 -7509 0
401 7509 0
-409 7509 0
-901 909 -8009 0
901 8009 0
-909 8009 0
401 -409 -8509 0
-401 8509 0
409 8509 0
901 -909 -9009 0
-901 9009 0
909 9009 0
6110 -6010 0
6610 -6010 0
-6110 -6610 6010 0
-6110 7110 0
-6110 8110 0
6110 -7110 -8110 0
-6610 7610 0
-6610 8610 0
6610 -7610 -8610 0
-1 10 -7110 0
1 7110 0
-10 7110 0
-501 510 -7610 0
501 7610 0
-510 7610 0
1 -10 -8110 0
-1 8110 0
10 8110 0
501 -510 -8610 0
-501 8610 0
510 8610 0
6210 -6010 0
6710 -6010 0
-6210 -6710 6010 0
-6210 7210 0
-6210 8210 0
6210 -7210 -8210 0
-6710 7710 0
-6710 8710 0
6710 -7710 -8710 0
-101 110 -7210 0
101 7210 0
-110 7210 0
-601 610 -7710 0
601 7710 0
-610 7710 0
101 -110 -8210 0
-101 8210 0
110 8210 0
601 -610 -8710 0
-601 8710 0
610 8710 0
6310 -6010 0
6810 -6010 0
-6310 -6810 6010 0
-6310 7310 0
-6310 8310 0
6310 -7310 -8310 0
-6810 7810 0
-6810 8810 0
6810 -7810 -8810 0
-201 210 -7310 0
201 7310 0
-210 7310 0
-701 710 -7810 0
701 7810 0
-710 7810 0
201 -210 -8310 0
-201 8310 0
210 8310 0
701 -710 -8810 0
-701 8810 0
710 8810 0
6410 -6010 0
6910 -6010 0
-6410 -6910 6010 0
-6410 7410 0
-6410 8410 0
6410 -7410 -8410 0
-6910 7910 0
-6910 8910 0
6910 -7910 -8910 0
-301 310 -7410 0
301 7410 0
-310 7410 0
-801 810 -7910 0
801 7910 0
-810 7910 0
301 -310 -8410 0
-301 8410 0
310 8410 0
801 -810 -8910 0
-801 8910 0
810 8910 0
6510 -6010 0
7010 -6010 0
-6510 -7010 6010 0
-6510 7510 0
-6510 8510 0
6510 -7510 -8510 0
-7010 8010 0
-7010 9010 0
7010 -8010 -9010 0
-401 410 -7510 0
401 7510 0
-410 7510 0
-901 910 -8010 0
901 8010 0
-910 8010 0
401 -410 -8510 0
-401 8510 0
410 8510 0
901 -910 -9010 0
-901 9010 0
910 9010 0
6111 -6011 0
6611 -6011 0
-6111 -6611 6011 0
-6111 7111 0
-6111 8111 0
6111 -7111 -8111 0
-6611 7611 0
-6611 8611 0
6611 -7611 -8611 0
-1 11 -7111 0
1 7111 0
-11 7111 0
-501 511 -7611 0
501 7611 0
-511 7611 0
1 -11 -8111 0
-1 8111 0
11 8111 0
501 -511 -8611 0
-501 8611 0
511 8611 0
6211 -6011 0
6711 -6011 0
-6211 -6711 6011 0
-6211 7211 0
-6211 8211 0
6211 -7211 -8211 0
-6711 7711 0
-6711 8711 0
6711 -7711 -8711 0
-101 111 -7211 0
101 7211 0
-111 7211 0
-601 611 -7711 0
601 7711 0
-611 7711 0
101 -111 -8211 0
-101 8211 0
111 8211 0
601 -611 -8711 0
-601 8711 0
611 8711 0
6311 -6011 0
6811 -6011 0
-6311 -6811 6011 0
-6311 7311 0
-6311 8311 0
6311 -7311 -8311 0
-6811 7811 0
-6811 8811 0
6811 -7811 -8811 0
-201 211 -7311 0
201 7311 0
-211 7311 0
-701 711 -7811 0
701 7811 0
-711 7811 0
201 -211 -8311 0
-201 8311 0
211 8311 0
701 -711 -8811 0
-701 8811 0
711 8811 0
6411 -6011 0
6911 -6011 0
-6411 -6911 6011 0
-6411 7411 0
-6411 8411 0
6411 -7411 -8411 0
-6911 7911 0
-6911 8911 0
6911 -7911 -8911 0
-301 311 -7411 0
301 7411 0
-311 7411 0
-801 811 -7911 0
801 7911 0
-811 7911 0
301 -311 -8411 0
-301 8411 0
311 8411 0
801 -811 -8911 0
-801 8911 0
811 8911 0
6511 -6011 0
7011 -6011 0
-6511 -7011 6011 0
-6511 7511 0
-6511 8511 0
6511 -7511 -8511 0
-7011 8011 0
-7011 9011 0
7011 -8011 -9011 0
-401 411 -7511 0
401 7511 0
-411 7511 0
-901 911 -8011 0
901 8011 0
-911 8011 0
401 -411 -8511 0
-401 8511 0
411 8511 0
901 -911 -9011 0
-901 9011 0
911 9011 0
6112 -6012 0
6612 -6012 0
-6112 -6612 6012 0
-6112 7112 0
-6112 8112 0
6112 -7112 -8112 0
-6612 7612 0
-6612 8612 0
6612 -7612 -8612 0
-1 12 -7112 0
1 7112 0
-12 7112 0
-501 512 -7612 0
501 7612 0
-512 7612 0
1 -12 -8112 0
-1 8112 0
12 8112 0
501 -512 -8612 0
-501 8612 0
512 8612 0
6212 -6012 0
6712 -6012 0
-6212 -6712 6012 0
-6212 7212 0
-6212 8212 0
6212 -7212 -8212 0
-6712 7712 0
-6712 8712 0
6712 -7712 -8712 0
-101 112 -7212 0
101 7212 0
-112 7212 0
-601 612 -7712 0
601 7712 0
-612 7712 0
101 -112 -8212 0
-101 8212 0
112 8212 0
601 -612 -8712 0
-601 8712 0
612 8712 0
6312 -6012 0
6812 -6012 0
-6312 -6812 6012 0
-6312 7312 0
-6312 8312 0
6312 -7312 -8312 0
-6812 7812 0
-6812 8812 0
6812 -7812 -8812 0
-201 212 -7312 0
201 7312 0
-212 7312 0
-701 712 -7812 0
701 7812 0
-712 7812 0
201 -212 -8312 0
-201 8312 0
212 8312 0
701 -712 -8812 0
-701 8812 0
712 8812 0
6412 -6012 0
6912 -6012 0
-6412 -6912 6012 0
-6412 7412 0
-6412 8412 0
6412 -7412 -8412 0
-6912 7912 0
-6912 8912 0
6912 -7912 -8912 0
-301 312 -7412 0
301 7412 0
-312 7412 0
-801 812 -7912 0
801 7912 0
-812 7912 0
301 -312 -8412 0
-301 8412 0
312 8412 0
801 -812 -8912 0
-801 8912 0
812 8912 0
6512 -6012 0
7012 -6012 0
-6512 -7012 6012 0
-6512 7512 0
-6512 8512 0
6512 -7512 -8512 0
-7012 8012 0
-7012 9012 0
7012 -8012 -9012 0
-401 412 -7512 0
401 7512 0
-412 7512 0
-901 912 -8012 0
901 8012 0
-912 8012 0
401 -412 -8512 0
-401 8512 0
412 8512 0
901 -912 -9012 0
-901 9012 0
912 9012 0
6113 -6013 0
6613 -6013 0
-6113 -6613 6013 0
-6113 7113 0
-6113 8113 0
6113 -7113 -8113 0
-6613 7613 0
-6613 8613 0
6613 -7613 -8613 0
-1 13 -7113 0
1 7113 0
-13 7113 0
-501 513 -7613 0
501 7613 0
-513 7613 0
1 -13 -8113 0
-1 8113 0
13 8113 0
501 -513 -8613 0
-501 8613 0
513 8613 0
6213 -6013 0
6713 -6013 0
-6213 -6713 6013 0
-6213 7213 0
-6213 8213 0
6213 -7213 -8213 0
-6713 7713 0
-6713 8713 0
6713 -7713 -8713 0
-101 113 -7213 0
101 7213 0
-113 7213 0
-601 613 -7713 0
601 7713 0
-613 7713 0
101 -113 -8213 0
-101 8213 0
113 8213 0
601 -613 -8713 0
-601 8713 0
613 8713 0
6313 -6013 0
6813 -6013 0
-6313 -6813 6013 0
-6313 7313 0
-6313 8313 0
6313 -7313 -8313 0
-6813 7813 0
-6813 8813 0
6813 -7813 -8813 0
-201 213 -7313 0
201 7313 0
-213 7313 0
-701 713 -7813 0
701 7813 0
-713 7813 0
201 -213 -8313 0
-201 8313 0
213 8313 0
701 -713 -8813 0
-701 8813 0
713 8813 0
6413 -6013 0
6913 -6013 0
-6413 -6913 6013 0
-6413 7413 0
-6413 8413 0
6413 -7413 -8413 0
-6913 7913 0
-6913 8913 0
6913 -7913 -8913 0
-301 313 -7413 0
301 7413 0
-313 7413 0
-801 813 -7913 0
801 7913 0
-813 7913 0
301 -313 -8413 0
-301 8413 0
313 8413 0
801 -813 -8913 0
-801 8913 0
813 8913 0
6513 -6013 0
7013 -6013 0
-6513 -7013 6013 0
-6513 7513 0
-6513 8513 0
6513 -7513 -8513 0
-7013 8013 0
-7013 9013 0
7013 -8013 -9013 0
-401 413 -7513 0
401 7513 0
-413 7513 0
-901 913 -8013 0
901 8013 0
-913 8013 0
401 -413 -8513 0
-401 8513 0
413 8513 0
901 -913 -9013 0
-901 9013 0
913 9013 0
6114 -6014 0
6614 -6014 0
-6114 -6614 6014 0
-6114 7114 0
-6114 8114 0
6114 -7114 -8114 0
-6614 7614 0
-6614 8614 0
6614 -7614 -8614 0
-1 14 -7114 0
1 7114 0
-14 7114 0
-501 514 -7614 0
501 7614 0
-514 7614 0
1 -14 -8114 0
-1 8114 0
14 8114 0
501 -514 -8614 0
-501 8614 0
514 8614 0
6214 -6014 0
6714 -6014 0
-6214 -6714 6014 0
-6214 7214 0
-6214 8214 0
6214 -7214 -8214 0
-6714 7714 0
-6714 8714 0
6714 -7714 -8714 0
-101 114 -7214 0
101 7214 0
-114 7214 0
-601 614 -7714 0
601 7714 0
-614 7714 0
101 -114 -8214 0
-101 8214 0
114 8214 0
601 -614 -8714 0
-601 8714 0
614 8714 0
6314 -6014 0
6814 -6014 0
-6314 -6814 6014 0
-6314 7314 0
-6314 8314 0
6314 -7314 -8314 0
-6814 7814 0
-6814 8814 0
6814 -7814 -8814 0
-201 214 -7314 0
201 7314 0
-214 7314 0
-701 714 -7814 0
701 7814 0
-714 7814 0
201 -214 -8314 0
-201 8314 0
214 8314 0
701 -714 -8814 0
-701 8814 0
714 8814 0
6414 -6014 0
6914 -6014 0
-6414 -6914 6014 0
-6414 7414 0
-6414 8414 0
6414 -7414 -8414 0
-6914 7914 0
-6914 8914 0
6914 -7914 -8914 0
-301 314 -7414 0
301 7414 0
-314 7414 0
-801 814 -7914 0
801 7914 0
-814 7914 0
301 -314 -8414 0
-301 8414 0
314 8414 0
801 -814 -8914 0
-801 8914 0
814 8914 0
6514 -6014 0
7014 -6014 0
-6514 -7014 6014 0
-6514 7514 0
-6514 8514 0
6514 -7514 -8514 0
-7014 8014 0
-7014 9014 0
7014 -8014 -9014 0
-401 414 -7514 0
401 7514 0
-414 7514 0
-901 914 -8014 0
901 8014 0
-914 8014 0
401 -414 -8514 0
-401 8514 0
414 8514 0
901 -914 -9014 0
-901 9014 0
914 9014 0
6115 -6015 0
6615 -6015 0
-6115 -6615 6015 0
-6115 7115 0
-6115 8115 0
6115 -7115 -8115 0
-6615 7615 0
-6615 8615 0
6615 -7615 -8615 0
-1 15 -7115 0
1 7115 0
-15 7115 0
-501 515 -7615 0
501 7615 0
-515 7615 0
1 -15 -8115 0
-1 8115 0
15 8115 0
501 -515 -8615 0
-501 8615 0
515 8615 0
6215 -6015 0
6715 -6015 0
-6215 -6715 6015 0
-6215 7215 0
-6215 8215 0
6215 -7215 -8215 0
-6715 7715 0
-6715 8715 0
6715 -7715 -8715 0
-101 115 -7215 0
101 7215 0
-115 7215 0
-601 615 -7715 0
601 7715 0
-615 7715 0
101 -115 -8215 0
-101 8215 0
115 8215 0
601 -615 -8715 0
-601 8715 0
615 8715 0
6315 -6015 0
6815 -6015 0
-6315 -6815 6015 0
-6315 7315 0
-6315 8315 0
6315 -7315 -8315 0
-6815 7815 0
-6815 8815 0
6815 -7815 -8815 0
-201 215 -7315 0
201 7315 0
-215 7315 0
-701 715 -7815 0
701 7815 0
-715 7815 0
201 -215 -8315 0
-201 8315 0
215 8315 0
701 -715 -8815 0
-701 8815 0
715 8815 0
6415 -6015 0
6915 -6015 0
-6415 -6915 6015 0
-6415 7415 0
-6415 8415 0
6415 -7415 -8415 0
-6915 7915 0
-6915 8915 0
6915 -7915 -8915 0
-301 315 -7415 0
301 7415 0
-315 7415 0
-801 815 -7915 0
801 7915 0
-815 7915 0
301 -315 -8415 0
-301 8415 0
315 8415 0
801 -815 -8915 0
-801 8915 0
815 8915 0
6515 -6015 0
7015 -6015 0
-6515 -7015 6015 0
-6515 7515 0
-6515 8515 0
6515 -7515 -8515 0
-7015 8015 0
-7015 9015 0
7015 -8015 -9015 0
-401 415 -7515 0
401 7515 0
-415 7515 0
-901 915 -8015 0
901 8015 0
-915 8015 0
401 -415 -8515 0
-401 8515 0
415 8515 0
901 -915 -9015 0
-901 9015 0
915 9015 0
6116 -6016 0
6616 -6016 0
-6116 -6616 6016 0
-6116 7116 0
-6116 8116 0
6116 -7116 -8116 0
-6616 7616 0
-6616 8616 0
6616 -7616 -8616 0
-1 16 -7116 0
1 7116 0
-16 7116 0
-501 516 -7616 0
501 7616 0
-516 7616 0
1 -16 -8116 0
-1 8116 0
16 8116 0
501 -516 -8616 0
-501 8616 0
516 8616 0
6216 -6016 0
6716 -6016 0
-6216 -6716 6016 0
-6216 7216 0
-6216 8216 0
6216 -7216 -8216 0
-6716 7716 0
-6716 8716 0
6716 -7716 -8716 0
-101 116 -7216 0
101 7216 0
-116 7216 0
-601 616 -7716 0
601 7716 0
-616 7716 0
101 -116 -8216 0
-101 8216 0
116 8216 0
601 -616 -8716 0
-601 8716 0
616 8716 0
6316 -6016 0
6816 -6016 0
-6316 -6816 6016 0
-6316 7316 0
-6316 8316 0
6316 -7316 -8316 0
-6816 7816 0
-6816 8816 0
6816 -7816 -8816 0
-201 216 -7316 0
201 7316 0
-216 7316 0
-701 716 -7816 0
701 7816 0
-716 7816 0
201 -216 -8316 0
-201 8316 0
216 8316 0
701 -716 -8816 0
-701 8816 0
716 8816 0
6416 -6016 0
6916 -6016 0
-6416 -6916 6016 0
-6416 7416 0
-6416 8416 0
6416 -7416 -8416 0
-6916 7916 0
-6916 8916 0
6916 -7916 -8916 0
-301 316 -7416 0
301 7416 0
-316 7416 0
-801 816 -7916 0
801 7916 0
-816 7916 0
301 -316 -8416 0
-301 8416 0
316 8416 0
801 -816 -8916 0
-801 8916 0
816 8916 0
6516 -6016 0
7016 -6016 0
-6516 -7016 6016 0
-6516 7516 0
-6516 8516 0
6516 -7516 -8516 0
-7016 8016 0
-7016 9016 0
7016 -8016 -9016 0
-401 416 -7516 0
401 7516 0
-416 7516 0
-901 916 -8016 0
901 8016 0
-916 8016 0
401 -416 -8516 0
-401 8516 0
416 8516 0
901 -916 -9016 0
-901 9016 0
916 9016 0
6117 -6017 0
6617 -6017 0
-6117 -6617 6017 0
-6117 7117 0
-6117 8117 0
6117 -7117 -8117 0
-6617 7617 0
-6617 8617 0
6617 -7617 -8617 0
-1 17 -7117 0
1 7117 0
-17 7117 0
-501 517 -7617 0
501 7617 0
-517 7617 0
1 -17 -8117 0
-1 8117 0
17 8117 0
501 -517 -8617 0
-501 8617 0
517 8617 0
6217 -6017 0
6717 -6017 0
-6217 -6717 6017 0
-6217 7217 0
-6217 8217 0
6217 -7217 -8217 0
-6717 7717 0
-6717 8717 0
6717 -7717 -8717 0
-101 117 -7217 0
101 7217 0
-117 7217 0
-601 617 -7717 0
601 7717 0
-617 7717 0
101 -117 -8217 0
-101 8217 0
117 8217 0
601 -617 -8717 0
-601 8717 0
617 8717 0
6317 -6017 0
6817 -6017 0
-6317 -6817 6017 0
-6317 7317 0
-6317 8317 0
6317 -7317 -8317 0
-6817 7817 0
-6817 8817 0
6817 -7817 -8817 0
-201 217 -7317 0
201 7317 0
-217 7317 0
-701 717 -7817 0
701 7817 0
-717 7817 0
201 -217 -8317 0
-201 8317 0
217 8317 0
701 -717 -8817 0
-701 8817 0
717 8817 0
6417 -6017 0
6917 -6017 0
-6417 -6917 6017 0
-6417 7417 0
-6417 8417 0
6417 -7417 -8417 0
-6917 7917 0
-6917 8917 0
6917 -7917 -8917 0
-301 317 -7417 0
301 7417 0
-317 7417 0
-801 817 -7917 0
801 7917 0
-817 7917 0
301 -317 -8417 0
-301 8417 0
317 8417 0
801 -817 -8917 0
-801 8917 0
817 8917 0
6517 -6017 0
7017 -6017 0
-6517 -7017 6017 0
-6517 7517 0
-6517 8517 0
6517 -7517 -8517 0
-7017 8017 0
-7017 9017 0
7017 -8017 -9017 0
-401 417 -7517 0
401 7517 0
-417 7517 0
-901 917 -8017 0
901 8017 0
-917 8017 0
401 -417 -8517 0
-401 8517 0
417 8517 0
901 -917 -9017 0
-901 9017 0
917 9017 0
6118 -6018 0
6618 -6018 0
-6118 -6618 6018 0
-6118 7118 0
-6118 8118 0
6118 -7118 -8118 0
-6618 7618 0
-6618 8618 0
6618 -7618 -8618 0
-1 18 -7118 0
1 7118 0
-18 7118 0
-501 518 -7618 0
501 7618 0
-518 7618 0
1 -18 -8118 0
-1 8118 0
18 8118 0
501 -518 -8618 0
-501 8618 0
518 8618 0
6218 -6018 0
6718 -6018 0
-6218 -6718 6018 0
-6218 7218 0
-6218 8218 0
6218 -7218 -8218 0
-6718 7718 0
-6718 8718 0
6718 -7718 -8718 0
-101 118 -7218 0
101 7218 0
-118 7218 0
-601 618 -7718 0
601 7718 0
-618 7718 0
101 -118 -8218 0
-101 8218 0
118 8218 0
601 -618 -8718 0
-601 8718 0
618 8718 0
6318 -6018 0
6818 -6018 0
-6318 -6818 6018 0
-6318 7318 0
-6318 8318 0
6318 -7318 -8318 0
-6818 7818 0
-6818 8818 0
6818 -7818 -8818 0
-201 218 -7318 0
201 7318 0
-218 7318 0
-701 718 -7818 0
701 7818 0
-718 7818 0
201 -218 -8318 0
-201 8318 0
218 8318 0
701 -718 -8818 0
-701 8818 0
718 8818 0
6418 -6018 0
6918 -6018 0
-6418 -6918 6018 0
-6418 7418 0
-6418 8418 0
6418 -7418 -8418 0
-6918 7918 0
-6918 8918 0
6918 -7918 -8918 0
-301 318 -7418 0
301 7418 0
-318 7418 0
-801 818 -7918 0
801 7918 0
-818 7918 0
301 -318 -8418 0
-301 8418 0
318 8418 0
801 -818 -8918 0
-801 8918 0
818 8918 0
6518 -6018 0
7018 -6018 0
-6518 -7018 6018 0
-6518 7518 0
-6518 8518 0
6518 -7518 -8518 0
-7018 8018 0
-7018 9018 0
7018 -8018 -9018 0
-401 418 -7518 0
401 7518 0
-418 7518 0
-901 918 -8018 0
901 8018 0
-918 8018 0
401 -418 -8518 0
-401 8518 0
418 8518 0
901 -918 -9018 0
-901 9018 0
918 9018 0
6119 -6019 0
6619 -6019 0
-6119 -6619 6019 0
-6119 7119 0
-6119 8119 0
6119 -7119 -8119 0
-6619 7619 0
-6619 8619 0
6619 -7619 -8619 0
-1 19 -7119 0
1 7119 0
-19 7119 0
-501 519 -7619 0
501 7619 0
-519 7619 0
1 -19 -8119 0
-1 8119 0
19 8119 0
501 -519 -8619 0
-501 8619 0
519 8619 0
6219 -6019 0
6719 -6019 0
-6219 -6719 6019 0
-6219 7219 0
-6219 8219 0
6219 -7219 -8219 0
-6719 7719 0
-6719 8719 0
6719 -7719 -8719 0
-101 119 -7219 0
101 7219 0
-119 7219 0
-601 619 -7719 0
601 7719 0
-619 7719 0
101 -119 -8219 0
-101 8219 0
119 8219 0
601 -619 -8719 0
-601 8719 0
619 8719 0
6319 -6019 0
6819 -6019 0
-6319 -6819 6019 0
-6319 7319 0
-6319 8319 0
6319 -7319 -8319 0
-6819 7819 0
-6819 8819 0
6819 -7819 -8819 0
-201 219 -7319 0
201 7319 0
-219 7319 0
-701 719 -7819 0
701 7819 0
-719 7819 0
201 -219 -8319 0
-201 8319 0
219 8319 0
701 -719 -8819 0
-701 8819 0
719 8819 0
6419 -6019 0
6919 -6019 0
-6419 -6919 6019 0
-6419 7419 0
-6419 8419 0
6419 -7419 -8419 0
-6919 7919 0
-6919 8919 0
6919 -7919 -8919 0
-301 319 -7419 0
301 7419 0
-319 7419 0
-801 819 -7919 0
801 7919 0
-819 7919 0
301 -319 -8419 0
-301 8419 0
319 8419 0
801 -819 -8919 0
-801 8919 0
819 8919 0
6519 -6019 0
7019 -6019 0
-6519 -7019 6019 0
-6519 7519 0
-6519 8519 0
6519 -7519 -8519 0
-7019 8019 0
-7019 9019 0
7019 -8019 -9019 0
-401 419 -7519 0
401 7519 0
-419 7519 0
-901 919 -8019 0
901 8019 0
-919 8019 0
401 -419 -8519 0
-401 8519 0
419 8519 0
901 -919 -9019 0
-901 9019 0
919 9019 0
6120 -6020 0
6620 -6020 0
-6120 -6620 6020 0
-6120 7120 0
-6120 8120 0
6120 -7120 -8120 0
-6620 7620 0
-6620 8620 0
6620 -7620 -8620 0
-1 20 -7120 0
1 7120 0
-20 7120 0
-501 520 -7620 0
501 7620 0
-520 7620 0
1 -20 -8120 0
-1 8120 0
20 8120 0
501 -520 -8620 0
-501 8620 0
520 8620 0
6220 -6020 0
6720 -6020 0
-6220 -6720 6020 0
-6220 7220 0
-6220 8220 0
6220 -7220 -8220 0
-6720 7720 0
-6720 8720 0
6720 -7720 -8720 0
-101 120 -7220 0
101 7220 0
-120 7220 0
-601 620 -7720 0
601 7720 0
-620 7720 0
101 -120 -8220 0
-101 8220 0
120 8220 0
601 -620 -8720 0
-601 8720 0
620 8720 0
6320 -6020 0
6820 -6020 0
-6320 -6820 6020 0
-6320 7320 0
-6320 8320 0
6320 -7320 -8320 0
-6820 7820 0
-6820 8820 0
6820 -7820 -8820 0
-201 220 -7320 0
201 7320 0
-220 7320 0
-701 720 -7820 0
701 7820 0
-720 7820 0
201 -220 -8320 0
-201 8320 0
220 8320 0
701 -720 -8820 0
-701 8820 0
720 8820 0
6420 -6020 0
6920 -6020 0
-6420 -6920 6020 0
-6420 7420 0
-6420 8420 0
6420 -7420 -8420 0
-6920 7920 0
-6920 8920 0
6920 -7920 -8920 0
-301 320 -7420 0
301 7420 0
-320 7420 0
-801 820 -7920 0
801 7920 0
-820 7920 0
301 -320 -8420 0
-301 8420 0
320 8420 0
801 -820 -8920 0
-801 8920 0
820 8920 0
6520 -6020 0
7020 -6020 0
-6520 -7020 6020 0
-6520 7520 0
-6520 8520 0
6520 -7520 -8520 0
-7020 8020 0
-7020 9020 0
7020 -8020 -9020 0
-401 420 -7520 0
401 7520 0
-420 7520 0
-901 920 -8020 0
901 8020 0
-920 8020 0
401 -420 -8520 0
-401 8520 0
420 8520 0
901 -920 -9020 0
-901 9020 0
920 9020 0
6121 -6021 0
6621 -6021 0
-6121 -6621 6021 0
-6121 7121 0
-6121 8121 0
6121 -7121 -8121 0
-6621 7621 0
-6621 8621 0
6621 -7621 -8621 0
-1 21 -7121 0
1 7121 0
-21 7121 0
-501 521 -7621 0
501 7621 0
-521 7621 0
1 -21 -8121 0
-1 8121 0
21 8121 0
501 -521 -8621 0
-501 8621 0
521 8621 0
6221 -6021 0
6721 -6021 0
-6221 -6721 6021 0
-6221 7221 0
-6221 8221 0
6221 -7221 -8221 0
-6721 7721 0
-6721 8721 0
6721 -7721 -8721 0
-101 121 -7221 0
101 7221 0
-121 7221 0
-601 621 -7721 0
601 7721 0
-621 7721 0
101 -121 -8221 0
-101 8221 0
121 8221 0
601 -621 -8721 0
-601 8721 0
621 8721 0
6321 -6021 0
6821 -6021 0
-6321 -6821 6021 0
-6321 7321 0
-6321 8321 0
6321 -7321 -8321 0
-6821 7821 0
-6821 8821 0
6821 -7821 -8821 0
-201 221 -7321 0
201 7321 0
-221 7321 0
-701 721 -7821 0
701 7821 0
-721 7821 0
201 -221 -8321 0
-201 8321 0
221 8321 0
701 -721 -8821 0
-701 8821 0
721 8821 0
6421 -6021 0
6921 -6021 0
-6421 -6921 6021 0
-6421 7421 0
-6421 8421 0
6421 -7421 -8421 0
-6921 7921 0
-6921 8921 0
6921 -7921 -8921 0
-301 321 -7421 0
301 7421 0
-321 7421 0
-801 821 -7921 0
801 7921 0
-821 7921 0
301 -321 -8421 0
-301 8421 0
321 8421 0
801 -821 -8921 0
-801 8921 0
821 8921 0
6521 -6021 0
7021 -6021 0
-6521 -7021 6021 0
-6521 7521 0
-6521 8521 0
6521 -7521 -8521 0
-7021 8021 0
-7021 9021 0
7021 -8021 -9021 0
-401 421 -7521 0
401 7521 0
-421 7521 0
-901 921 -8021 0
901 8021 0
-921 8021 0
401 -421 -8521 0
-401 8521 0
421 8521 0
901 -921 -9021 0
-901 9021 0
921 9021 0
6122 -6022 0
6622 -6022 0
-6122 -6622 6022 0
-6122 7122 0
-6122 8122 0
6122 -7122 -8122 0
-6622 7622 0
-6622 8622 0
6622 -7622 -8622 0
-1 22 -7122 0
1 7122 0
-22 7122 0
-501 522 -7622 0
501 7622 0
-522 7622 0
1 -22 -8122 0
-1 8122 0
22 8122 0
501 -522 -8622 0
-501 8622 0
522 8622 0
6222 -6022 0
6722 -6022 0
-6222 -6722 6022 0
-6222 7222 0
-6222 8222 0
6222 -7222 -8222 0
-6722 7722 0
-6722 8722 0
6722 -7722 -8722 0
-101 122 -7222 0
101 7222 0
-122 7222 0
-601 622 -7722 0
601 7722 0
-622 7722 0
101 -122 -8222 0
-101 8222 0
122 8222 0
601 -622 -8722 0
-601 8722 0
622 8722 0
6322 -6022 0
6822 -6022 0
-6322 -6822 6022 0
-6322 7322 0
-6322 8322 0
6322 -7322 -8322 0
-6822 7822 0
-6822 8822 0
6822 -7822 -8822 0
-201 222 -7322 0
201 7322 0
-222 7322 0
-701 722 -7822 0
701 7822 0
-722 7822 0
201 -222 -8322 0
-201 8322 0
222 8322 0
701 -722 -8822 0
-701 8822 0
722 8822 0
6422 -6022 0
6922 -6022 0
-6422 -6922 6022 0
-6422 7422 0
-6422 8422 0
6422 -7422 -8422 0
-6922 7922 0
-6922 8922 0
6922 -7922 -8922 0
-301 322 -7422 0
301 7422 0
-322 7422 0
-801 822 -7922 0
801 7922 0
-822 7922 0
301 -322 -8422 0
-301 8422 0
322 8422 0
801 -822 -8922 0
-801 8922 0
822 8922 0
6522 -6022 0
7022 -6022 0
-6522 -7022 6022 0
-6522 7522 0
-6522 8522 0
6522 -7522 -8522 0
-7022 8022 0
-7022 9022 0
7022 -8022 -9022 0
-401 422 -7522 0
401 7522 0
-422 7522 0
-901 922 -8022 0
901 8022 0
-922 8022 0
401 -422 -8522 0
-401 8522 0
422 8522 0
901 -922 -9022 0
-901 9022 0
922 9022 0
6123 -6023 0
6623 -6023 0
-6123 -6623 6023 0
-6123 7123 0
-6123 8123 0
6123 -7123 -8123 0
-6623 7623 0
-6623 8623 0
6623 -7623 -8623 0
-1 23 -7123 0
1 7123 0
-23 7123 0
-501 523 -7623 0
501 7623 0
-523 7623 0
1 -23 -8123 0
-1 8123 0
23 8123 0
501 -523 -8623 0
-501 8623 0
523 8623 0
6223 -6023 0
6723 -6023 0
-6223 -6723 6023 0
-6223 7223 0
-6223 8223 0
6223 -7223 -8223 0
-6723 7723 0
-6723 8723 0
6723 -7723 -8723 0
-101 123 -7223 0
101 7223 0
-123 7223 0
-601 623 -7723 0
601 7723 0
-623 7723 0
101 -123 -8223 0
-101 8223 0
123 8223 0
601 -623 -8723 0
-601 8723 0
623 8723 0
6323 -6023 0
6823 -6023 0
-6323 -6823 6023 0
-6323 7323 0
-6323 8323 0
6323 -7323 -8323 0
-6823 7823 0
-6823 8823 0
6823 -7823 -8823 0
-201 223 -7323 0
201 7323 0
-223 7323 0
-701 723 -7823 0
701 7823 0
-723 7823 0
201 -223 -8323 0
-201 8323 0
223 8323 0
701 -723 -8823 0
-701 8823 0
723 8823 0
6423 -6023 0
6923 -6023 0
-6423 -6923 6023 0
-6423 7423 0
-6423 8423 0
6423 -7423 -8423 0
-6923 7923 0
-6923 8923 0
6923 -7923 -8923 0
-301 323 -7423 0
301 7423 0
-323 7423 0
-801 823 -7923 0
801 7923 0
-823 7923 0
301 -323 -8423 0
-301 8423 0
323 8423 0
801 -823 -8923 0
-801 8923 0
823 8923 0
6523 -6023 0
7023 -6023 0
-6523 -7023 6023 0
-6523 7523 0
-6523 8523 0
6523 -7523 -8523 0
-7023 8023 0
-7023 9023 0
7023 -8023 -9023 0
-401 423 -7523 0
401 7523 0
-423 7523 0
-901 923 -8023 0
901 8023 0
-923 8023 0
401 -423 -8523 0
-401 8523 0
423 8523 0
901 -923 -9023 0
-901 9023 0
923 9023 0
6124 -6024 0
6624 -6024 0
-6124 -6624 6024 0
-6124 7124 0
-6124 8124 0
6124 -7124 -8124 0
-6624 7624 0
-6624 8624 0
6624 -7624 -8624 0
-1 24 -7124 0
1 7124 0
-24 7124 0
-501 524 -7624 0
501 7624 0
-524 7624 0
1 -24 -8124 0
-1 8124 0
24 8124 0
501 -524 -8624 0
-501 8624 0
524 8624 0
6224 -6024 0
6724 -6024 0
-6224 -6724 6024 0
-6224 7224 0
-6224 8224 0
6224 -7224 -8224 0
-6724 7724 0
-6724 8724 0
6724 -7724 -8724 0
-101 124 -7224 0
101 7224 0
-124 7224 0
-601 624 -7724 0
601 7724 0
-624 7724 0
101 -124 -8224 0
-101 8224 0
124 8224 0
601 -624 -8724 0
-601 8724 0
624 8724 0
6324 -6024 0
6824 -6024 0
-6324 -6824 6024 0
-6324 7324 0
-6324 8324 0
6324 -7324 -8324 0
-6824 7824 0
-6824 8824 0
6824 -7824 -8824 0
-201 224 -7324 0
201 7324 0
-224 7324 0
-701 724 -7824 0
701 7824 0
-724 7824 0
201 -224 -8324 0
-201 8324 0
224 8324 0
701 -724 -8824 0
-701 8824 0
724 8824 0
6424 -6024 0
6924 -6024 0
-6424 -6924 6024 0
-6424 7424 0
-6424 8424 0
6424 -7424 -8424 0
-6924 7924 0
-6924 8924 0
6924 -7924 -8924 0
-301 324 -7424 0
301 7424 0
-324 7424 0
-801 824 -7924 0
801 7924 0
-824 7924 0
301 -324 -8424 0
-301 8424 0
324 8424 0
801 -824 -8924 0
-801 8924 0
824 8924 0
6524 -6024 0
7024 -6024 0
-6524 -7024 6024 0
-6524 7524 0
-6524 8524 0
6524 -7524 -8524 0
-7024 8024 0
-7024 9024 0
7024 -8024 -9024 0
-401 424 -7524 0
401 7524 0
-424 7524 0
-901 924 -8024 0
901 8024 0
-924 8024 0
401 -424 -8524 0
-401 8524 0
424 8524 0
901 -924 -9024 0
-901 9024 0
924 9024 0
6125 -6025 0
6625 -6025 0
-6125 -6625 6025 0
-6125 7125 0
-6125 8125 0
6125 -7125 -8125 0
-6625 7625 0
-6625 8625 0
6625 -7625 -8625 0
-1 25 -7125 0
1 7125 0
-25 7125 0
-501 525 -7625 0
501 7625 0
-525 7625 0
1 -25 -8125 0
-1 8125 0
25 8125 0
501 -525 -8625 0
-501 8625 0
525 8625 0
6225 -6025 0
6725 -6025 0
-6225 -6725 6025 0
-6225 7225 0
-6225 8225 0
6225 -7225 -8225 0
-6725 7725 0
-6725 8725 0
6725 -7725 -8725 0
-101 125 -7225 0
101 7225 0
-125 7225 0
-601 625 -7725 0
601 7725 0
-625 7725 0
101 -125 -8225 0
-101 8225 0
125 8225 0
601 -625 -8725 0
-601 8725 0
625 8725 0
6325 -6025 0
6825 -6025 0
-6325 -6825 6025 0
-6325 7325 0
-6325 8325 0
6325 -7325 -8325 0
-6825 7825 0
-6825 8825 0
6825 -7825 -8825 0
-201 225 -7325 0
201 7325 0
-225 7325 0
-701 725 -7825 0
701 7825 0
-725 7825 0
201 -225 -8325 0
-201 8325 0
225 8325 0
701 -725 -8825 0
-701 8825 0
725 8825 0
6425 -6025 0
6925 -6025 0
-6425 -6925 6025 0
-6425 7425 0
-6425 8425 0
6425 -7425 -8425 0
-6925 7925 0
-6925 8925 0
6925 -7925 -8925 0
-301 325 -7425 0
301 7425 0
-325 7425 0
-801 825 -7925 0
801 7925 0
-825 7925 0
301 -325 -8425 0
-301 8425 0
325 8425 0
801 -825 -8925 0
-801 8925 0
825 8925 0
6525 -6025 0
7025 -6025 0
-6525 -7025 6025 0
-6525 7525 0
-6525 8525 0
6525 -7525 -8525 0
-7025 8025 0
-7025 9025 0
7025 -8025 -9025 0
-401 425 -7525 0
401 7525 0
-425 7525 0
-901 925 -8025 0
901 8025 0
-925 8025 0
401 -425 -8525 0
-401 8525 0
425 8525 0
901 -925 -9025 0
-901 9025 0
925 9025 0
6126 -6026 0
6626 -6026 0
-6126 -6626 6026 0
-6126 7126 0
-6126 8126 0
6126 -7126 -8126 0
-6626 7626 0
-6626 8626 0
6626 -7626 -8626 0
-1 26 -7126 0
1 7126 0
-26 7126 0
-501 526 -7626 0
501 7626 0
-526 7626 0
1 -26 -8126 0
-1 8126 0
26 8126 0
501 -526 -8626 0
-501 8626 0
526 8626 0
6226 -6026 0
6726 -6026 0
-6226 -6726 6026 0
-6226 7226 0
-6226 8226 0
6226 -7226 -8226 0
-6726 7726 0
-6726 8726 0
6726 -7726 -8726 0
-101 126 -7226 0
101 7226 0
-126 7226 0
-601 626 -7726 0
601 7726 0
-626 7726 0
101 -126 -8226 0
-101 8226 0
126 8226 0
601 -626 -8726 0
-601 8726 0
626 8726 0
6326 -6026 0
6826 -6026 0
-6326 -6826 6026 0
-6326 7326 0
-6326 8326 0
6326 -7326 -8326 0
-6826 7826 0
-6826 8826 0
6826 -7826 -8826 0
-201 226 -7326 0
201 7326 0
-226 7326 0
-701 726 -7826 0
701 7826 0
-726 7826 0
201 -226 -8326 0
-201 8326 0
226 8326 0
701 -726 -8826 0
-701 8826 0
726 8826 0
6426 -6026 0
6926 -6026 0
-6426 -6926 6026 0
-6426 7426 0
-6426 8426 0
6426 -7426 -8426 0
-6926 7926 0
-6926 8926 0
6926 -7926 -8926 0
-301 326 -7426 0
301 7426 0
-326 7426 0
-801 826 -7926 0
801 7926 0
-826 7926 0
301 -326 -8426 0
-301 8426 0
326 8426 0
801 -826 -8926 0
-801 8926 0
826 8926 0
6526 -6026 0
7026 -6026 0
-6526 -7026 6026 0
-6526 7526 0
-6526 8526 0
6526 -7526 -8526 0
-7026 8026 0
-7026 9026 0
7026 -8026 -9026 0
-401 426 -7526 0
401 7526 0
-426 7526 0
-901 926 -8026 0
901 8026 0
-926 8026 0
401 -426 -8526 0
-401 8526 0
426 8526 0
901 -926 -9026 0
-901 9026 0
926 9026 0
6127 -6027 0
6627 -6027 0
-6127 -6627 6027 0
-6127 7127 0
-6127 8127 0
6127 -7127 -8127 0
-6627 7627 0
-6627 8627 0
6627 -7627 -8627 0
-1 27 -7127 0
1 7127 0
-27 7127 0
-501 527 -7627 0
501 7627 0
-527 7627 0
1 -27 -8127 0
-1 8127 0
27 8127 0
501 -527 -8627 0
-501 8627 0
527 8627 0
6227 -6027 0
6727 -6027 0
-6227 -6727 6027 0
-6227 7227 0
-6227 8227 0
6227 -7227 -8227 0
-6727 7727 0
-6727 8727 0
6727 -7727 -8727 0
-101 127 -7227 0
101 7227 0
-127 7227 0
-601 627 -7727 0
601 7727 0
-627 7727 0
101 -127 -8227 0
-101 8227 0
127 8227 0
601 -627 -8727 0
-601 8727 0
627 8727 0
6327 -6027 0
6827 -6027 0
-6327 -6827 6027 0
-6327 7327 0
-6327 8327 0
6327 -7327 -8327 0
-6827 7827 0
-6827 8827 0
6827 -7827 -8827 0
-201 227 -7327 0
201 7327 0
-227 7327 0
-701 727 -7827 0
701 7827 0
-727 7827 0
201 -227 -8327 0
-201 8327 0
227 8327 0
701 -727 -8827 0
-701 8827 0
727 8827 0
6427 -6027 0
6927 -6027 0
-6427 -6927 6027 0
-6427 7427 0
-6427 8427 0
6427 -7427 -8427 0
-6927 7927 0
-6927 8927 0
6927 -7927 -8927 0
-301 327 -7427 0
301 7427 0
-327 7427 0
-801 827 -7927 0
801 7927 0
-827 7927 0
301 -327 -8427 0
-301 8427 0
327 8427 0
801 -827 -8927 0
-801 8927 0
827 8927 0
6527 -6027 0
7027 -6027 0
-6527 -7027 6027 0
-6527 7527 0
-6527 8527 0
6527 -7527 -8527 0
-7027 8027 0
-7027 9027 0
7027 -8027 -9027 0
-401 427 -7527 0
401 7527 0
-427 7527 0
-901 927 -8027 0
901 8027 0
-927 8027 0
401 -427 -8527 0
-401 8527 0
427 8527 0
901 -927 -9027 0
-901 9027 0
927 9027 0
6128 -6028 0
6628 -6028 0
-6128 -6628 6028 0
-6128 7128 0
-6128 8128 0
6128 -7128 -8128 0
-6628 7628 0
-6628 8628 0
6628 -7628 -8628 0
-1 28 -7128 0
1 7128 0
-28 7128 0
-501 528 -7628 0
501 7628 0
-528 7628 0
1 -28 -8128 0
-1 8128 0
28 8128 0
501 -528 -8628 0
-501 8628 0
528 8628 0
6228 -6028 0
6728 -6028 0
-6228 -6728 6028 0
-6228 7228 0
-6228 8228 0
6228 -7228 -8228 0
-6728 7728 0
-6728 8728 0
6728 -7728 -8728 0
-101 128 -7228 0
101 7228 0
-128 7228 0
-601 628 -7728 0
601 7728 0
-628 7728 0
101 -128 -8228 0
-101 8228 0
128 8228 0
601 -628 -8728 0
-601 8728 0
628 8728 0
6328 -6028 0
6828 -6028 0
-6328 -6828 6028 0
-6328 7328 0
-6328 8328 0
6328 -7328 -8328 0
-6828 7828 0
-6828 8828 0
6828 -7828 -8828 0
-201 228 -7328 0
201 7328 0
-228 7328 0
-701 728 -7828 0
701 7828 0
-728 7828 0
201 -228 -8328 0
-201 8328 0
228 8328 0
701 -728 -8828 0
-701 8828 0
728 8828 0
6428 -6028 0
6928 -6028 0
-6428 -6928 6028 0
-6428 7428 0
-6428 8428 0
6428 -7428 -8428 0
-6928 7928 0
-6928 8928 0
6928 -7928 -8928 0
-301 328 -7428 0
301 7428 0
-328 7428 0
-801 828 -7928 0
801 7928 0
-828 7928 0
301 -328 -8428 0
-301 8428 0
328 8428 0
801 -828 -8928 0
-801 8928 0
828 8928 0
6528 -6028 0
7028 -6028 0
-6528 -7028 6028 0
-6528 7528 0
-6528 8528 0
6528 -7528 -8528 0
-7028 8028 0
-7028 9028 0
7028 -8028 -9028 0
-401 428 -7528 0
401 7528 0
-428 7528 0
-901 928 -8028 0
901 8028 0
-928 8028 0
401 -428 -8528 0
-401 8528 0
428 8528 0
901 -928 -9028 0
-901 9028 0
928 9028 0
6129 -6029 0
6629 -6029 0
-6129 -6629 6029 0
-6129 7129 0
-6129 8129 0
6129 -7129 -8129 0
-6629 7629 0
-6629 8629 0
6629 -7629 -8629 0
-1 29 -7129 0
1 7129 0
-29 7129 0
-501 529 -7629 0
501 7629 0
-529 7629 0
1 -29 -8129 0
-1 8129 0
29 8129 0
501 -529 -8629 0
-501 8629 0
529 8629 0
6229 -6029 0
6729 -6029 0
-6229 -6729 6029 0
-6229 7229 0
-6229 8229 0
6229 -7229 -8229 0
-6729 7729 0
-6729 8729 0
6729 -7729 -8729 0
-101 129 -7229 0
101 7229 0
-129 7229 0
-601 629 -7729 0
601 7729 0
-629 7729 0
101 -129 -8229 0
-101 8229 0
129 8229 0
601 -629 -8729 0
-601 8729 0
629 8729 0
6329 -6029 0
6829 -6029 0
-6329 -6829 6029 0
-6329 7329 0
-6329 8329 0
6329 -7329 -8329 0
-6829 7829 0
-6829 8829 0
6829 -7829 -8829 0
-201 229 -7329 0
201 7329 0
-229 7329 0
-701 729 -7829 0
701 7829 0
-729 7829 0
201 -229 -8329 0
-201 8329 0
229 8329 0
701 -729 -8829 0
-701 8829 0
729 8829 0
6429 -6029 0
6929 -6029 0
-6429 -6929 6029 0
-6429 7429 0
-6429 8429 0
6429 -7429 -8429 0
-6929 7929 0
-6929 8929 0
6929 -7929 -8929 0
-301 329 -7429 0
301 7429 0
-329 7429 0
-801 829 -7929 0
801 7929 0
-829 7929 0
301 -329 -8429 0
-301 8429 0
329 8429 0
801 -829 -8929 0
-801 8929 0
829 8929 0
6529 -6029 0
7029 -6029 0
-6529 -7029 6029 0
-6529 7529 0
-6529 8529 0
6529 -7529 -8529 0
-7029 8029 0
-7029 9029 0
7029 -8029 -9029 0
-401 429 -7529 0
401 7529 0
-429 7529 0
-901 929 -8029 0
901 8029 0
-929 8029 0
401 -429 -8529 0
-401 8529 0
429 8529 0
901 -929 -9029 0
-901 9029 0
929 9029 0
6130 -6030 0
6630 -6030 0
-6130 -6630 6030 0
-6130 7130 0
-6130 8130 0
6130 -7130 -8130 0
-6630 7630 0
-6630 8630 0
6630 -7630 -8630 0
-1 30 -7130 0
1 7130 0
-30 7130 0
-501 530 -7630 0
501 7630 0
-530 7630 0
1 -30 -8130 0
-1 8130 0
30 8130 0
501 -530 -8630 0
-501 8630 0
530 8630 0
6230 -6030 0
6730 -6030 0
-6230 -6730 6030 0
-6230 7230 0
-6230 8230 0
6230 -7230 -8230 0
-6730 7730 0
-6730 8730 0
6730 -7730 -8730 0
-101 130 -7230 0
101 7230 0
-130 7230 0
-601 630 -7730 0
601 7730 0
-630 7730 0
101 -130 -8230 0
-101 8230 0
130 8230 0
601 -630 -8730 0
-601 8730 0
630 8730 0
6330 -6030 0
6830 -6030 0
-6330 -6830 6030 0
-6330 7330 0
-6330 8330 0
6330 -7330 -8330 0
-6830 7830 0
-6830 8830 0
6830 -7830 -8830 0
-201 230 -7330 0
201 7330 0
-230 7330 0
-701 730 -7830 0
701 7830 0
-730 7830 0
201 -230 -8330 0
-201 8330 0
230 8330 0
701 -730 -8830 0
-701 8830 0
730 8830 0
6430 -6030 0
6930 -6030 0
-6430 -6930 6030 0
-6430 7430 0
-6430 8430 0
6430 -7430 -8430 0
-6930 7930 0
-6930 8930 0
6930 -7930 -8930 0
-301 330 -7430 0
301 7430 0
-330 7430 0
-801 830 -7930 0
801 7930 0
-830 7930 0
301 -330 -8430 0
-301 8430 0
330 8430 0
801 -830 -8930 0
-801 8930 0
830 8930 0
6530 -6030 0
7030 -6030 0
-6530 -7030 6030 0
-6530 7530 0
-6530 8530 0
6530 -7530 -8530 0
-7030 8030 0
-7030 9030 0
7030 -8030 -9030 0
-401 430 -7530 0
401 7530 0
-430 7530 0
-901 930 -8030 0
901 8030 0
-930 8030 0
401 -430 -8530 0
-401 8530 0
430 8530 0
901 -930 -9030 0
-901 9030 0
930 9030 0
6131 -6031 0
6631 -6031 0
-6131 -6631 6031 0
-6131 7131 0
-6131 8131 0
6131 -7131 -8131 0
-6631 7631 0
-6631 8631 0
6631 -7631 -8631 0
-1 31 -7131 0
1 7131 0
-31 7131 0
-501 531 -7631 0
501 7631 0
-531 7631 0
1 -31 -8131 0
-1 8131 0
31 8131 0
501 -531 -8631 0
-501 8631 0
531 8631 0
6231 -6031 0
6731 -6031 0
-6231 -6731 6031 0
-6231 7231 0
-6231 8231 0
6231 -7231 -8231 0
-6731 7731 0
-6731 8731 0
6731 -7731 -8731 0
-101 131 -7231 0
101 7231 0
-131 7231 0
-601 631 -7731 0
601 7731 0
-631 7731 0
101 -131 -8231 0
-101 8231 0
131 8231 0
601 -631 -8731 0
-601 8731 0
631 8731 0
6331 -6031 0
6831 -6031 0
-6331 -6831 6031 0
-6331 7331 0
-6331 8331 0
6331 -7331 -8331 0
-6831 7831 0
-6831 8831 0
6831 -7831 -8831 0
-201 231 -7331 0
201 7331 0
-231 7331 0
-701 731 -7831 0
701 7831 0
-731 7831 0
201 -231 -8331 0
-201 8331 0
231 8331 0
701 -731 -8831 0
-701 8831 0
731 8831 0
6431 -6031 0
6931 -6031 0
-6431 -6931 6031 0
-6431 7431 0
-6431 8431 0
6431 -7431 -8431 0
-6931 7931 0
-6931 8931 0
6931 -7931 -8931 0
-301 331 -7431 0
301 7431 0
-331 7431 0
-801 831 -7931 0
801 7931 0
-831 7931 0
301 -331 -8431 0
-301 8431 0
331 8431 0
801 -831 -8931 0
-801 8931 0
831 8931 0
6531 -6031 0
7031 -6031 0
-6531 -7031 6031 0
-6531 7531 0
-6531 8531 0
6531 -7531 -8531 0
-7031 8031 0
-7031 9031 0
7031 -8031 -9031 0
-401 431 -7531 0
401 7531 0
-431 7531 0
-901 931 -8031 0
901 8031 0
-931 8031 0
401 -431 -8531 0
-401 8531 0
431 8531 0
901 -931 -9031 0
-901 9031 0
931 9031 0
6132 -6032 0
6632 -6032 0
-6132 -6632 6032 0
-6132 7132 0
-6132 8132 0
6132 -7132 -8132 0
-6632 7632 0
-6632 8632 0
6632 -7632 -8632 0
-1 32 -7132 0
1 7132 0
-32 7132 0
-501 532 -7632 0
501 7632 0
-532 7632 0
1 -32 -8132 0
-1 8132 0
32 8132 0
501 -532 -8632 0
-501 8632 0
532 8632 0
6232 -6032 0
6732 -6032 0
-6232 -6732 6032 0
-6232 7232 0
-6232 8232 0
6232 -7232 -8232 0
-6732 7732 0
-6732 8732 0
6732 -7732 -8732 0
-101 132 -7232 0
101 7232 0
-132 7232 0
-601 632 -7732 0
601 7732 0
-632 7732 0
101 -132 -8232 0
-101 8232 0
132 8232 0
601 -632 -8732 0
-601 8732 0
632 8732 0
6332 -6032 0
6832 -6032 0
-6332 -6832 6032 0
-6332 7332 0
-6332 8332 0
6332 -7332 -8332 0
-6832 7832 0
-6832 8832 0
6832 -7832 -8832 0
-201 232 -7332 0
201 7332 0
-232 7332 0
-701 732 -7832 0
701 7832 0
-732 7832 0
201 -232 -8332 0
-201 8332 0
232 8332 0
701 -732 -8832 0
-701 8832 0
732 8832 0
6432 -6032 0
6932 -6032 0
-6432 -6932 6032 0
-6432 7432 0
-6432 8432 0
6432 -7432 -8432 0
-6932 7932 0
-6932 8932 0
6932 -7932 -8932 0
-301 332 -7432 0
301 7432 0
-332 7432 0
-801 832 -7932 0
801 7932 0
-832 7932 0
301 -332 -8432 0
-301 8432 0
332 8432 0
801 -832 -8932 0
-801 8932 0
832 8932 0
6532 -6032 0
7032 -6032 0
-6532 -7032 6032 0
-6532 7532 0
-6532 8532 0
6532 -7532 -8532 0
-7032 8032 0
-7032 9032 0
7032 -8032 -9032 0
-401 432 -7532 0
401 7532 0
-432 7532 0
-901 932 -8032 0
901 8032 0
-932 8032 0
401 -432 -8532 0
-401 8532 0
432 8532 0
901 -932 -9032 0
-901 9032 0
932 9032 0
6133 -6033 0
6633 -6033 0
-6133 -6633 6033 0
-6133 7133 0
-6133 8133 0
6133 -7133 -8133 0
-6633 7633 0
-6633 8633 0
6633 -7633 -8633 0
-1 33 -7133 0
1 7133 0
-33 7133 0
-501 533 -7633 0
501 7633 0
-533 7633 0
1 -33 -8133 0
-1 8133 0
33 8133 0
501 -533 -8633 0
-501 8633 0
533 8633 0
6233 -6033 0
6733 -6033 0
-6233 -6733 6033 0
-6233 7233 0
-6233 8233 0
6233 -7233 -8233 0
-6733 7733 0
-6733 8733 0
6733 -7733 -8733 0
-101 133 -7233 0
101 7233 0
-133 7233 0
-601 633 -7733 0
601 7733 0
-633 7733 0
101 -133 -8233 0
-101 8233 0
133 8233 0
601 -633 -8733 0
-601 8733 0
633 8733 0
6333 -6033 0
6833 -6033 0
-6333 -6833 6033 0
-6333 7333 0
-6333 8333 0
6333 -7333 -8333 0
-6833 7833 0
-6833 8833 0
6833 -7833 -8833 0
-201 233 -7333 0
201 7333 0
-233 7333 0
-701 733 -7833 0
701 7833 0
-733 7833 0
201 -233 -8333 0
-201 8333 0
233 8333 0
701 -733 -8833 0
-701 8833 0
733 8833 0
6433 -6033 0
6933 -6033 0
-6433 -6933 6033 0
-6433 7433 0
-6433 8433 0
6433 -7433 -8433 0
-6933 7933 0
-6933 8933 0
6933 -7933 -8933 0
-301 333 -7433 0
301 7433 0
-333 7433 0
-801 833 -7933 0
801 7933 0
-833 7933 0
301 -333 -8433 0
-301 8433 0
333 8433 0
801 -833 -8933 0
-801 8933 0
833 8933 0
6533 -6033 0
7033 -6033 0
-6533 -7033 6033 0
-6533 7533 0
-6533 8533 0
6533 -7533 -8533 0
-7033 8033 0
-7033 9033 0
7033 -8033 -9033 0
-401 433 -7533 0
401 7533 0
-433 7533 0
-901 933 -8033 0
901 8033 0
-933 8033 0
401 -433 -8533 0
-401 8533 0
433 8533 0
901 -933 -9033 0
-901 9033 0
933 9033 0
6134 -6034 0
6634 -6034 0
-6134 -6634 6034 0
-6134 7134 0
-6134 8134 0
6134 -7134 -8134 0
-6634 7634 0
-6634 8634 0
6634 -7634 -8634 0
-1 34 -7134 0
1 7134 0
-34 7134 0
-501 534 -7634 0
501 7634 0
-534 7634 0
1 -34 -8134 0
-1 8134 0
34 8134 0
501 -534 -8634 0
-501 8634 0
534 8634 0
6234 -6034 0
6734 -6034 0
-6234 -6734 6034 0
-6234 7234 0
-6234 8234 0
6234 -7234 -8234 0
-6734 7734 0
-6734 8734 0
6734 -7734 -8734 0
-101 134 -7234 0
101 7234 0
-134 7234 0
-601 634 -7734 0
601 7734 0
-634 7734 0
101 -134 -8234 0
-101 8234 0
134 8234 0
601 -634 -8734 0
-601 8734 0
634 8734 0
6334 -6034 0
6834 -6034 0
-6334 -6834 6034 0
-6334 7334 0
-6334 8334 0
6334 -7334 -8334 0
-6834 7834 0
-6834 8834 0
6834 -7834 -8834 0
-201 234 -7334 0
201 7334 0
-234 7334 0
-701 734 -7834 0
701 7834 0
-734 7834 0
201 -234 -8334 0
-201 8334 0
234 8334 0
701 -734 -8834 0
-701 8834 0
734 8834 0
6434 -6034 0
6934 -6034 0
-6434 -6934 6034 0
-6434 7434 0
-6434 8434 0
6434 -7434 -8434 0
-6934 7934 0
-6934 8934 0
6934 -7934 -8934 0
-301 334 -7434 0
301 7434 0
-334 7434 0
-801 834 -7934 0
801 7934 0
-834 7934 0
301 -334 -8434 0
-301 8434 0
334 8434 0
801 -834 -8934 0
-801 8934 0
834 8934 0
6534 -6034 0
7034 -6034 0
-6534 -7034 6034 0
-6534 7534 0
-6534 8534 0
6534 -7534 -8534 0
-7034 8034 0
-7034 9034 0
7034 -8034 -9034 0
-401 434 -7534 0
401 7534 0
-434 7534 0
-901 934 -8034 0
901 8034 0
-934 8034 0
401 -434 -8534 0
-401 8534 0
434 8534 0
901 -934 -9034 0
-901 9034 0
934 9034 0
6135 -6035 0
6635 -6035 0
-6135 -6635 6035 0
-6135 7135 0
-6135 8135 0
6135 -7135 -8135 0
-6635 7635 0
-6635 8635 0
6635 -7635 -8635 0
-1 35 -7135 0
1 7135 0
-35 7135 0
-501 535 -7635 0
501 7635 0
-535 7635 0
1 -35 -8135 0
-1 8135 0
35 8135 0
501 -535 -8635 0
-501 8635 0
535 8635 0
6235 -6035 0
6735 -6035 0
-6235 -6735 6035 0
-6235 7235 0
-6235 8235 0
6235 -7235 -8235 0
-6735 7735 0
-6735 8735 0
6735 -7735 -8735 0
-101 135 -7235 0
101 7235 0
-135 7235 0
-601 635 -7735 0
601 7735 0
-635 7735 0
101 -135 -8235 0
-101 8235 0
135 8235 0
601 -635 -8735 0
-601 8735 0
635 8735 0
6335 -6035 0
6835 -6035 0
-6335 -6835 6035 0
-6335 7335 0
-6335 8335 0
6335 -7335 -8335 0
-6835 7835 0
-6835 8835 0
6835 -7835 -8835 0
-201 235 -7335 0
201 7335 0
-235 7335 0
-701 735 -7835 0
701 7835 0
-735 7835 0
201 -235 -8335 0
-201 8335 0
235 8335 0
701 -735 -8835 0
-701 8835 0
735 8835 0
6435 -6035 0
6935 -6035 0
-6435 -6935 6035 0
-6435 7435 0
-6435 8435 0
6435 -7435 -8435 0
-6935 7935 0
-6935 8935 0
6935 -7935 -8935 0
-301 335 -7435 0
301 7435 0
-335 7435 0
-801 835 -7935 0
801 7935 0
-835 7935 0
301 -335 -8435 0
-301 8435 0
335 8435 0
801 -835 -8935 0
-801 8935 0
835 8935 0
6535 -6035 0
7035 -6035 0
-6535 -7035 6035 0
-6535 7535 0
-6535 8535 0
6535 -7535 -8535 0
-7035 8035 0
-7035 9035 0
7035 -8035 -9035 0
-401 435 -7535 0
401 7535 0
-435 7535 0
-901 935 -8035 0
901 8035 0
-935 8035 0
401 -435 -8535 0
-401 8535 0
435 8535 0
901 -935 -9035 0
-901 9035 0
935 9035 0
6136 -6036 0
6636 -6036 0
-6136 -6636 6036 0
-6136 7136 0
-6136 8136 0
6136 -7136 -8136 0
-6636 7636 0
-6636 8636 0
6636 -7636 -8636 0
-1 36 -7136 0
1 7136 0
-36 7136 0
-501 536 -7636 0
501 7636 0
-536 7636 0
1 -36 -8136 0
-1 8136 0
36 8136 0
501 -536 -8636 0
-501 8636 0
536 8636 0
6236 -6036 0
6736 -6036 0
-6236 -6736 6036 0
-6236 7236 0
-6236 8236 0
6236 -7236 -8236 0
-6736 7736 0
-6736 8736 0
6736 -7736 -8736 0
-101 136 -7236 0
101 7236 0
-136 7236 0
-601 636 -7736 0
601 7736 0
-636 7736 0
101 -136 -8236 0
-101 8236 0
136 8236 0
601 -636 -8736 0
-601 8736 0
636 8736 0
6336 -6036 0
6836 -6036 0
-6336 -6836 6036 0
-6336 7336 0
-6336 8336 0
6336 -7336 -8336 0
-6836 7836 0
-6836 8836 0
6836 -7836 -8836 0
-201 236 -7336 0
201 7336 0
-236 7336 0
-701 736 -7836 0
701 7836 0
-736 7836 0
201 -236 -8336 0
-201 8336 0
236 8336 0
701 -736 -8836 0
-701 8836 0
736 8836 0
6436 -6036 0
6936 -6036 0
-6436 -6936 6036 0
-6436 7436 0
-6436 8436 0
6436 -7436 -8436 0
-6936 7936 0
-6936 8936 0
6936 -7936 -8936 0
-301 336 -7436 0
301 7436 0
-336 7436 0
-801 836 -7936 0
801 7936 0
-836 7936 0
301 -336 -8436 0
-301 8436 0
336 8436 0
801 -836 -8936 0
-801 8936 0
836 8936 0
6536 -6036 0
7036 -6036 0
-6536 -7036 6036 0
-6536 7536 0
-6536 8536 0
6536 -7536 -8536 0
-7036 8036 0
-7036 9036 0
7036 -8036 -9036 0
-401 436 -7536 0
401 7536 0
-436 7536 0
-901 936 -8036 0
901 8036 0
-936 8036 0
401 -436 -8536 0
-401 8536 0
436 8536 0
901 -936 -9036 0
-901 9036 0
936 9036 0
6137 -6037 0
6637 -6037 0
-6137 -6637 6037 0
-6137 7137 0
-6137 8137 0
6137 -7137 -8137 0
-6637 7637 0
-6637 8637 0
6637 -7637 -8637 0
-1 37 -7137 0
1 7137 0
-37 7137 0
-501 537 -7637 0
501 7637 0
-537 7637 0
1 -37 -8137 0
-1 8137 0
37 8137 0
501 -537 -8637 0
-501 8637 0
537 8637 0
6237 -6037 0
6737 -6037 0
-6237 -6737 6037 0
-6237 7237 0
-6237 8237 0
6237 -7237 -8237 0
-6737 7737 0
-6737 8737 0
6737 -7737 -8737 0
-101 137 -7237 0
101 7237 0
-137 7237 0
-601 637 -7737 0
601 7737 0
-637 7737 0
101 -137 -8237 0
-101 8237 0
137 8237 0
601 -637 -8737 0
-601 8737 0
637 8737 0
6337 -6037 0
6837 -6037 0
-6337 -6837 6037 0
-6337 7337 0
-6337 8337 0
6337 -7337 -8337 0
-6837 7837 0
-6837 8837 0
6837 -7837 -8837 0
-201 237 -7337 0
201 7337 0
-237 7337 0
-701 737 -7837 0
701 7837 0
-737 7837 0
201 -237 -8337 0
-201 8337 0
237 8337 0
701 -737 -8837 0
-701 8837 0
737 8837 0
6437 -6037 0
6937 -6037 0
-6437 -6937 6037 0
-6437 7437 0
-6437 8437 0
6437 -7437 -8437 0
-6937 7937 0
-6937 8937 0
6937 -7937 -8937 0
-301 337 -7437 0
301 7437 0
-337 7437 0
-801 837 -7937 0
801 7937 0
-837 7937 0
301 -337 -8437 0
-301 8437 0
337 8437 0
801 -837 -8937 0
-801 8937 0
837 8937 0
6537 -6037 0
7037 -6037 0
-6537 -7037 6037 0
-6537 7537 0
-6537 8537 0
6537 -7537 -8537 0
-7037 8037 0
-7037 9037 0
7037 -8037 -9037 0
-401 437 -7537 0
401 7537 0
-437 7537 0
-901 937 -8037 0
901 8037 0
-937 8037 0
401 -437 -8537 0
-401 8537 0
437 8537 0
901 -937 -9037 0
-901 9037 0
937 9037 0
6138 -6038 0
6638 -6038 0
-6138 -6638 6038 0
-6138 7138 0
-6138 8138 0
6138 -7138 -8138 0
-6638 7638 0
-6638 8638 0
6638 -7638 -8638 0
-1 38 -7138 0
1 7138 0
-38 7138 0
-501 538 -7638 0
501 7638 0
-538 7638 0
1 -38 -8138 0
-1 8138 0
38 8138 0
501 -538 -8638 0
-501 8638 0
538 8638 0
6238 -6038 0
6738 -6038 0
-6238 -6738 6038 0
-6238 7238 0
-6238 8238 0
6238 -7238 -8238 0
-6738 7738 0
-6738 8738 0
6738 -7738 -8738 0
-101 138 -7238 0
101 7238 0
-138 7238 0
-601 638 -7738 0
601 7738 0
-638 7738 0
101 -138 -8238 0
-101 8238 0
138 8238 0
601 -638 -8738 0
-601 8738 0
638 8738 0
6338 -6038 0
6838 -6038 0
-6338 -6838 6038 0
-6338 7338 0
-6338 8338 0
6338 -7338 -8338 0
-6838 7838 0
-6838 8838 0
6838 -7838 -8838 0
-201 238 -7338 0
201 7338 0
-238 7338 0
-701 738 -7838 0
701 7838 0
-738 7838 0
201 -238 -8338 0
-201 8338 0
238 8338 0
701 -738 -8838 0
-701 8838 0
738 8838 0
6438 -6038 0
6938 -6038 0
-6438 -6938 6038 0
-6438 7438 0
-6438 8438 0
6438 -7438 -8438 0
-6938 7938 0
-6938 8938 0
6938 -7938 -8938 0
-301 338 -7438 0
301 7438 0
-338 7438 0
-801 838 -7938 0
801 7938 0
-838 7938 0
301 -338 -8438 0
-301 8438 0
338 8438 0
801 -838 -8938 0
-801 8938 0
838 8938 0
6538 -6038 0
7038 -6038 0
-6538 -7038 6038 0
-6538 7538 0
-6538 8538 0
6538 -7538 -8538 0
-7038 8038 0
-7038 9038 0
7038 -8038 -9038 0
-401 438 -7538 0
401 7538 0
-438 7538 0
-901 938 -8038 0
901 8038 0
-938 8038 0
401 -438 -8538 0
-401 8538 0
438 8538 0
901 -938 -9038 0
-901 9038 0
938 9038 0
6139 -6039 0
6639 -6039 0
-6139 -6639 6039 0
-6139 7139 0
-6139 8139 0
6139 -7139 -8139 0
-6639 7639 0
-6639 8639 0
6639 -7639 -8639 0
-1 39 -7139 0
1 7139 0
-39 7139 0
-501 539 -7639 0
501 7639 0
-539 7639 0
1 -39 -8139 0
-1 8139 0
39 8139 0
501 -539 -8639 0
-501 8639 0
539 8639 0
6239 -6039 0
6739 -6039 0
-6239 -6739 6039 0
-6239 7239 0
-6239 8239 0
6239 -7239 -8239 0
-6739 7739 0
-6739 8739 0
6739 -7739 -8739 0
-101 139 -7239 0
101 7239 0
-139 7239 0
-601 639 -7739 0
601 7739 0
-639 7739 0
101 -139 -8239 0
-101 8239 0
139 8239 0
601 -639 -8739 0
-601 8739 0
639 8739 0
6339 -6039 0
6839 -6039 0
-6339 -6839 6039 0
-6339 7339 0
-6339 8339 0
6339 -7339 -8339 0
-6839 7839 0
-6839 8839 0
6839 -7839 -8839 0
-201 239 -7339 0
201 7339 0
-239 7339 0
-701 739 -7839 0
701 7839 0
-739 7839 0
201 -239 -8339 0
-201 8339 0
239 8339 0
701 -739 -8839 0
-701 8839 0
739 8839 0
6439 -6039 0
6939 -6039 0
-6439 -6939 6039 0
-6439 7439 0
-6439 8439 0
6439 -7439 -8439 0
-6939 7939 0
-6939 8939 0
6939 -7939 -8939 0
-301 339 -7439 0
301 7439 0
-339 7439 0
-801 839 -7939 0
801 7939 0
-839 7939 0
301 -339 -8439 0
-301 8439 0
339 8439 0
801 -839 -8939 0
-801 8939 0
839 8939 0
6539 -6039 0
7039 -6039 0
-6539 -7039 6039 0
-6539 7539 0
-6539 8539 0
6539 -7539 -8539 0
-7039 8039 0
-7039 9039 0
7039 -8039 -9039 0
-401 439 -7539 0
401 7539 0
-439 7539 0
-901 939 -8039 0
901 8039 0
-939 8039 0
401 -439 -8539 0
-401 8539 0
439 8539 0
901 -939 -9039 0
-901 9039 0
939 9039 0
6140 -6040 0
6640 -6040 0
-6140 -6640 6040 0
-6140 7140 0
-6140 8140 0
6140 -7140 -8140 0
-6640 7640 0
-6640 8640 0
6640 -7640 -8640 0
-1 40 -7140 0
1 7140 0
-40 7140 0
-501 540 -7640 0
501 7640 0
-540 7640 0
1 -40 -8140 0
-1 8140 0
40 8140 0
501 -540 -8640 0
-501 8640 0
540 8640 0
6240 -6040 0
6740 -6040 0
-6240 -6740 6040 0
-6240 7240 0
-6240 8240 0
6240 -7240 -8240 0
-6740 7740 0
-6740 8740 0
6740 -7740 -8740 0
-101 140 -7240 0
101 7240 0
-140 7240 0
-601 640 -7740 0
601 7740 0
-640 7740 0
101 -140 -8240 0
-101 8240 0
140 8240 0
601 -640 -8740 0
-601 8740 0
640 8740 0
6340 -6040 0
6840 -6040 0
-6340 -6840 6040 0
-6340 7340 0
-6340 8340 0
6340 -7340 -8340 0
-6840 7840 0
-6840 8840 0
6840 -7840 -8840 0
-201 240 -7340 0
201 7340 0
-240 7340 0
-701 740 -7840 0
701 7840 0
-740 7840 0
201 -240 -8340 0
-201 8340 0
240 8340 0
701 -740 -8840 0
-701 8840 0
740 8840 0
6440 -6040 0
6940 -6040 0
-6440 -6940 6040 0
-6440 7440 0
-6440 8440 0
6440 -7440 -8440 0
-6940 7940 0
-6940 8940 0
6940 -7940 -8940 0
-301 340 -7440 0
301 7440 0
-340 7440 0
-801 840 -7940 0
801 7940 0
-840 7940 0
301 -340 -8440 0
-301 8440 0
340 8440 0
801 -840 -8940 0
-801 8940 0
840 8940 0
6540 -6040 0
7040 -6040 0
-6540 -7040 6040 0
-6540 7540 0
-6540 8540 0
6540 -7540 -8540 0
-7040 8040 0
-7040 9040 0
7040 -8040 -9040 0
-401 440 -7540 0
401 7540 0
-440 7540 0
-901 940 -8040 0
901 8040 0
-940 8040 0
401 -440 -8540 0
-401 8540 0
440 8540 0
901 -940 -9040 0
-901 9040 0
940 9040 0
6141 -6041 0
6641 -6041 0
-6141 -6641 6041 0
-6141 7141 0
-6141 8141 0
6141 -7141 -8141 0
-6641 7641 0
-6641 8641 0
6641 -7641 -8641 0
-1 41 -7141 0
1 7141 0
-41 7141 0
-501 541 -7641 0
501 7641 0
-541 7641 0
1 -41 -8141 0
-1 8141 0
41 8141 0
501 -541 -8641 0
-501 8641 0
541 8641 0
6241 -6041 0
6741 -6041 0
-6241 -6741 6041 0
-6241 7241 0
-6241 8241 0
6241 -7241 -8241 0
-6741 7741 0
-6741 8741 0
6741 -7741 -8741 0
-101 141 -7241 0
101 7241 0
-141 7241 0
-601 641 -7741 0
601 7741 0
-641 7741 0
101 -141 -8241 0
-101 8241 0
141 8241 0
601 -641 -8741 0
-601 8741 0
641 8741 0
6341 -6041 0
6841 -6041 0
-6341 -6841 6041 0
-6341 7341 0
-6341 8341 0
6341 -7341 -8341 0
-6841 7841 0
-6841 8841 0
6841 -7841 -8841 0
-201 241 -7341 0
201 7341 0
-241 7341 0
-701 741 -7841 0
701 7841 0
-741 7841 0
201 -241 -8341 0
-201 8341 0
241 8341 0
701 -741 -8841 0
-701 8841 0
741 8841 0
6441 -6041 0
6941 -6041 0
-6441 -6941 6041 0
-6441 7441 0
-6441 8441 0
6441 -7441 -8441 0
-6941 7941 0
-6941 8941 0
6941 -7941 -8941 0
-301 341 -7441 0
301 7441 0
-341 7441 0
-801 841 -7941 0
801 7941 0
-841 7941 0
301 -341 -8441 0
-301 8441 0
341 8441 0
801 -841 -8941 0
-801 8941 0
841 8941 0
6541 -6041 0
7041 -6041 0
-6541 -7041 6041 0
-6541 7541 0
-6541 8541 0
6541 -7541 -8541 0
-7041 8041 0
-7041 9041 0
7041 -8041 -9041 0
-401 441 -7541 0
401 7541 0
-441 7541 0
-901 941 -8041 0
901 8041 0
-941 8041 0
401 -441 -8541 0
-401 8541 0
441 8541 0
901 -941 -9041 0
-901 9041 0
941 9041 0
6142 -6042 0
6642 -6042 0
-6142 -6642 6042 0
-6142 7142 0
-6142 8142 0
6142 -7142 -8142 0
-6642 7642 0
-6642 8642 0
6642 -7642 -8642 0
-1 42 -7142 0
1 7142 0
-42 7142 0
-501 542 -7642 0
501 7642 0
-542 7642 0
1 -42 -8142 0
-1 8142 0
42 8142 0
501 -542 -8642 0
-501 8642 0
542 8642 0
6242 -6042 0
6742 -6042 0
-6242 -6742 6042 0
-6242 7242 0
-6242 8242 0
6242 -7242 -8242 0
-6742 7742 0
-6742 8742 0
6742 -7742 -8742 0
-101 142 -7242 0
101 7242 0
-142 7242 0
-601 642 -7742 0
601 7742 0
-642 7742 0
101 -142 -8242 0
-101 8242 0
142 8242 0
601 -642 -8742 0
-601 8742 0
642 8742 0
6342 -6042 0
6842 -6042 0
-6342 -6842 6042 0
-6342 7342 0
-6342 8342 0
6342 -7342 -8342 0
-6842 7842 0
-6842 8842 0
6842 -7842 -8842 0
-201 242 -7342 0
201 7342 0
-242 7342 0
-701 742 -7842 0
701 7842 0
-742 7842 0
201 -242 -8342 0
-201 8342 0
242 8342 0
701 -742 -8842 0
-701 8842 0
742 8842 0
6442 -6042 0
6942 -6042 0
-6442 -6942 6042 0
-6442 7442 0
-6442 8442 0
6442 -7442 -8442 0
-6942 7942 0
-6942 8942 0
6942 -7942 -8942 0
-301 342 -7442 0
301 7442 0
-342 7442 0
-801 842 -7942 0
801 7942 0
-842 7942 0
301 -342 -8442 0
-301 8442 0
342 8442 0
801 -842 -8942 0
-801 8942 0
842 8942 0
6542 -6042 0
7042 -6042 0
-6542 -7042 6042 0
-6542 7542 0
-6542 8542 0
6542 -7542 -8542 0
-7042 8042 0
-7042 9042 0
7042 -8042 -9042 0
-401 442 -7542 0
401 7542 0
-442 7542 0
-901 942 -8042 0
901 8042 0
-942 8042 0
401 -442 -8542 0
-401 8542 0
442 8542 0
901 -942 -9042 0
-901 9042 0
942 9042 0
6143 -6043 0
6643 -6043 0
-6143 -6643 6043 0
-6143 7143 0
-6143 8143 0
6143 -7143 -8143 0
-6643 7643 0
-6643 8643 0
6643 -7643 -8643 0
-1 43 -7143 0
1 7143 0
-43 7143 0
-501 543 -7643 0
501 7643 0
-543 7643 0
1 -43 -8143 0
-1 8143 0
43 8143 0
501 -543 -8643 0
-501 8643 0
543 8643 0
6243 -6043 0
6743 -6043 0
-6243 -6743 6043 0
-6243 7243 0
-6243 8243 0
6243 -7243 -8243 0
-6743 7743 0
-6743 8743 0
6743 -7743 -8743 0
-101 143 -7243 0
101 7243 0
-143 7243 0
-601 643 -7743 0
601 7743 0
-643 7743 0
101 -143 -8243 0
-101 8243 0
143 8243 0
601 -643 -8743 0
-601 8743 0
643 8743 0
6343 -6043 0
6843 -6043 0
-6343 -6843 6043 0
-6343 7343 0
-6343 8343 0
6343 -7343 -8343 0
-6843 7843 0
-6843 8843 0
6843 -7843 -8843 0
-201 243 -7343 0
201 7343 0
-243 7343 0
-701 743 -7843 0
701 7843 0
-743 7843 0
201 -243 -8343 0
-201 8343 0
243 8343 0
701 -743 -8843 0
-701 8843 0
743 8843 0
6443 -6043 0
6943 -6043 0
-6443 -6943 6043 0
-6443 7443 0
-6443 8443 0
6443 -7443 -8443 0
-6943 7943 0
-6943 8943 0
6943 -7943 -8943 0
-301 343 -7443 0
301 7443 0
-343 7443 0
-801 843 -7943 0
801 7943 0
-843 7943 0
301 -343 -8443 0
-301 8443 0
343 8443 0
801 -843 -8943 0
-801 8943 0
843 8943 0
6543 -6043 0
7043 -6043 0
-6543 -7043 6043 0
-6543 7543 0
-6543 8543 0
6543 -7543 -8543 0
-7043 8043 0
-7043 9043 0
7043 -8043 -9043 0
-401 443 -7543 0
401 7543 0
-443 7543 0
-901 943 -8043 0
901 8043 0
-943 8043 0
401 -443 -8543 0
-401 8543 0
443 8543 0
901 -943 -9043 0
-901 9043 0
943 9043 0
6144 -6044 0
6644 -6044 0
-6144 -6644 6044 0
-6144 7144 0
-6144 8144 0
6144 -7144 -8144 0
-6644 7644 0
-6644 8644 0
6644 -7644 -8644 0
-1 44 -7144 0
1 7144 0
-44 7144 0
-501 544 -7644 0
501 7644 0
-544 7644 0
1 -44 -8144 0
-1 8144 0
44 8144 0
501 -544 -8644 0
-501 8644 0
544 8644 0
6244 -6044 0
6744 -6044 0
-6244 -6744 6044 0
-6244 7244 0
-6244 8244 0
6244 -7244 -8244 0
-6744 7744 0
-6744 8744 0
6744 -7744 -8744 0
-101 144 -7244 0
101 7244 0
-144 7244 0
-601 644 -7744 0
601 7744 0
-644 7744 0
101 -144 -8244 0
-101 8244 0
144 8244 0
601 -644 -8744 0
-601 8744 0
644 8744 0
6344 -6044 0
6844 -6044 0
-6344 -6844 6044 0
-6344 7344 0
-6344 8344 0
6344 -7344 -8344 0
-6844 7844 0
-6844 8844 0
6844 -7844 -8844 0
-201 244 -7344 0
201 7344 0
-244 7344 0
-701 744 -7844 0
701 7844 0
-744 7844 0
201 -244 -8344 0
-201 8344 0
244 8344 0
701 -744 -8844 0
-701 8844 0
744 8844 0
6444 -6044 0
6944 -6044 0
-6444 -6944 6044 0
-6444 7444 0
-6444 8444 0
6444 -7444 -8444 0
-6944 7944 0
-6944 8944 0
6944 -7944 -8944 0
-301 344 -7444 0
301 7444 0
-344 7444 0
-801 844 -7944 0
801 7944 0
-844 7944 0
301 -344 -8444 0
-301 8444 0
344 8444 0
801 -844 -8944 0
-801 8944 0
844 8944 0
6544 -6044 0
7044 -6044 0
-6544 -7044 6044 0
-6544 7544 0
-6544 8544 0
6544 -7544 -8544 0
-7044 8044 0
-7044 9044 0
7044 -8044 -9044 0
-401 444 -7544 0
401 7544 0
-444 7544 0
-901 944 -8044 0
901 8044 0
-944 8044 0
401 -444 -8544 0
-401 8544 0
444 8544 0
901 -944 -9044 0
-901 9044 0
944 9044 0
6145 -6045 0
6645 -6045 0
-6145 -6645 6045 0
-6145 7145 0
-6145 8145 0
6145 -7145 -8145 0
-6645 7645 0
-6645 8645 0
6645 -7645 -8645 0
-1 45 -7145 0
1 7145 0
-45 7145 0
-501 545 -7645 0
501 7645 0
-545 7645 0
1 -45 -8145 0
-1 8145 0
45 8145 0
501 -545 -8645 0
-501 8645 0
545 8645 0
6245 -6045 0
6745 -6045 0
-6245 -6745 6045 0
-6245 7245 0
-6245 8245 0
6245 -7245 -8245 0
-6745 7745 0
-6745 8745 0
6745 -7745 -8745 0
-101 145 -7245 0
101 7245 0
-145 7245 0
-601 645 -7745 0
601 7745 0
-645 7745 0
101 -145 -8245 0
-101 8245 0
145 8245 0
601 -645 -8745 0
-601 8745 0
645 8745 0
6345 -6045 0
6845 -6045 0
-6345 -6845 6045 0
-6345 7345 0
-6345 8345 0
6345 -7345 -8345 0
-6845 7845 0
-6845 8845 0
6845 -7845 -8845 0
-201 245 -7345 0
201 7345 0
-245 7345 0
-701 745 -7845 0
701 7845 0
-745 7845 0
201 -245 -8345 0
-201 8345 0
245 8345 0
701 -745 -8845 0
-701 8845 0
745 8845 0
6445 -6045 0
6945 -6045 0
-6445 -6945 6045 0
-6445 7445 0
-6445 8445 0
6445 -7445 -8445 0
-6945 7945 0
-6945 8945 0
6945 -7945 -8945 0
-301 345 -7445 0
301 7445 0
-345 7445 0
-801 845 -7945 0
801 7945 0
-845 7945 0
301 -345 -8445 0
-301 8445 0
345 8445 0
801 -845 -8945 0
-801 8945 0
845 8945 0
6545 -6045 0
7045 -6045 0
-6545 -7045 6045 0
-6545 7545 0
-6545 8545 0
6545 -7545 -8545 0
-7045 8045 0
-7045 9045 0
7045 -8045 -9045 0
-401 445 -7545 0
401 7545 0
-445 7545 0
-901 945 -8045 0
901 8045 0
-945 8045 0
401 -445 -8545 0
-401 8545 0
445 8545 0
901 -945 -9045 0
-901 9045 0
945 9045 0
6146 -6046 0
6646 -6046 0
-6146 -6646 6046 0
-6146 7146 0
-6146 8146 0
6146 -7146 -8146 0
-6646 7646 0
-6646 8646 0
6646 -7646 -8646 0
-1 46 -7146 0
1 7146 0
-46 7146 0
-501 546 -7646 0
501 7646 0
-546 7646 0
1 -46 -8146 0
-1 8146 0
46 8146 0
501 -546 -8646 0
-501 8646 0
546 8646 0
6246 -6046 0
6746 -6046 0
-6246 -6746 6046 0
-6246 7246 0
-6246 8246 0
6246 -7246 -8246 0
-6746 7746 0
-6746 8746 0
6746 -7746 -8746 0
-101 146 -7246 0
101 7246 0
-146 7246 0
-601 646 -7746 0
601 7746 0
-646 7746 0
101 -146 -8246 0
-101 8246 0
146 8246 0
601 -646 -8746 0
-601 8746 0
646 8746 0
6346 -6046 0
6846 -6046 0
-6346 -6846 6046 0
-6346 7346 0
-6346 8346 0
6346 -7346 -8346 0
-6846 7846 0
-6846 8846 0
6846 -7846 -8846 0
-201 246 -7346 0
201 7346 0
-246 7346 0
-701 746 -7846 0
701 7846 0
-746 7846 0
201 -246 -8346 0
-201 8346 0
246 8346 0
701 -746 -8846 0
-701 8846 0
746 8846 0
6446 -6046 0
6946 -6046 0
-6446 -6946 6046 0
-6446 7446 0
-6446 8446 0
6446 -7446 -8446 0
-6946 7946 0
-6946 8946 0
6946 -7946 -8946 0
-301 346 -7446 0
301 7446 0
-346 7446 0
-801 846 -7946 0
801 7946 0
-846 7946 0
301 -346 -8446 0
-301 8446 0
346 8446 0
801 -846 -8946 0
-801 8946 0
846 8946 0
6546 -6046 0
7046 -6046 0
-6546 -7046 6046 0
-6546 7546 0
-6546 8546 0
6546 -7546 -8546 0
-7046 8046 0
-7046 9046 0
7046 -8046 -9046 0
-401 446 -7546 0
401 7546 0
-446 7546 0
-901 946 -8046 0
901 8046 0
-946 8046 0
401 -446 -8546 0
-401 8546 0
446 8546 0
901 -946 -9046 0
-901 9046 0
946 9046 0
6147 -6047 0
6647 -6047 0
-6147 -6647 6047 0
-6147 7147 0
-6147 8147 0
6147 -7147 -8147 0
-6647 7647 0
-6647 8647 0
6647 -7647 -8647 0
-1 47 -7147 0
1 7147 0
-47 7147 0
-501 547 -7647 0
501 7647 0
-547 7647 0
1 -47 -8147 0
-1 8147 0
47 8147 0
501 -547 -8647 0
-501 8647 0
547 8647 0
6247 -6047 0
6747 -6047 0
-6247 -6747 6047 0
-6247 7247 0
-6247 8247 0
6247 -7247 -8247 0
-6747 7747 0
-6747 8747 0
6747 -7747 -8747 0
-101 147 -7247 0
101 7247 0
-147 7247 0
-601 647 -7747 0
601 7747 0
-647 7747 0
101 -147 -8247 0
-101 8247 0
147 8247 0
601 -647 -8747 0
-601 8747 0
647 8747 0
6347 -6047 0
6847 -6047 0
-6347 -6847 6047 0
-6347 7347 0
-6347 8347 0
6347 -7347 -8347 0
-6847 7847 0
-6847 8847 0
6847 -7847 -8847 0
-201 247 -7347 0
201 7347 0
-247 7347 0
-701 747 -7847 0
701 7847 0
-747 7847 0
201 -247 -8347 0
-201 8347 0
247 8347 0
701 -747 -8847 0
-701 8847 0
747 8847 0
6447 -6047 0
6947 -6047 0
-6447 -6947 6047 0
-6447 7447 0
-6447 8447 0
6447 -7447 -8447 0
-6947 7947 0
-6947 8947 0
6947 -7947 -8947 0
-301 347 -7447 0
301 7447 0
-347 7447 0
-801 847 -7947 0
801 7947 0
-847 7947 0
301 -347 -8447 0
-301 8447 0
347 8447 0
801 -847 -8947 0
-801 8947 0
847 8947 0
6547 -6047 0
7047 -6047 0
-6547 -7047 6047 0
-6547 7547 0
-6547 8547 0
6547 -7547 -8547 0
-7047 8047 0
-7047 9047 0
7047 -8047 -9047 0
-401 447 -7547 0
401 7547 0
-447 7547 0
-901 947 -8047 0
901 8047 0
-947 8047 0
401 -447 -8547 0
-401 8547 0
447 8547 0
901 -947 -9047 0
-901 9047 0
947 9047 0
6148 -6048 0
6648 -6048 0
-6148 -6648 6048 0
-6148 7148 0
-6148 8148 0
6148 -7148 -8148 0
-6648 7648 0
-6648 8648 0
6648 -7648 -8648 0
-1 48 -7148 0
1 7148 0
-48 7148 0
-501 548 -7648 0
501 7648 0
-548 7648 0
1 -48 -8148 0
-1 8148 0
48 8148 0
501 -548 -8648 0
-501 8648 0
548 8648 0
6248 -6048 0
6748 -6048 0
-6248 -6748 6048 0
-6248 7248 0
-6248 8248 0
6248 -7248 -8248 0
-6748 7748 0
-6748 8748 0
6748 -7748 -8748 0
-101 148 -7248 0
101 7248 0
-148 7248 0
-601 648 -7748 0
601 7748 0
-648 7748 0
101 -148 -8248 0
-101 8248 0
148 8248 0
601 -648 -8748 0
-601 8748 0
648 8748 0
6348 -6048 0
6848 -6048 0
-6348 -6848 6048 0
-6348 7348 0
-6348 8348 0
6348 -7348 -8348 0
-6848 7848 0
-6848 8848 0
6848 -7848 -8848 0
-201 248 -7348 0
201 7348 0
-248 7348 0
-701 748 -7848 0
701 7848 0
-748 7848 0
201 -248 -8348 0
-201 8348 0
248 8348 0
701 -748 -8848 0
-701 8848 0
748 8848 0
6448 -6048 0
6948 -6048 0
-6448 -6948 6048 0
-6448 7448 0
-6448 8448 0
6448 -7448 -8448 0
-6948 7948 0
-6948 8948 0
6948 -7948 -8948 0
-301 348 -7448 0
301 7448 0
-348 7448 0
-801 848 -7948 0
801 7948 0
-848 7948 0
301 -348 -8448 0
-301 8448 0
348 8448 0
801 -848 -8948 0
-801 8948 0
848 8948 0
6548 -6048 0
7048 -6048 0
-6548 -7048 6048 0
-6548 7548 0
-6548 8548 0
6548 -7548 -8548 0
-7048 8048 0
-7048 9048 0
7048 -8048 -9048 0
-401 448 -7548 0
401 7548 0
-448 7548 0
-901 948 -8048 0
901 8048 0
-948 8048 0
401 -448 -8548 0
-401 8548 0
448 8548 0
901 -948 -9048 0
-901 9048 0
948 9048 0
6149 -6049 0
6649 -6049 0
-6149 -6649 6049 0
-6149 7149 0
-6149 8149 0
6149 -7149 -8149 0
-6649 7649 0
-6649 8649 0
6649 -7649 -8649 0
-1 49 -7149 0
1 7149 0
-49 7149 0
-501 549 -7649 0
501 7649 0
-549 7649 0
1 -49 -8149 0
-1 8149 0
49 8149 0
501 -549 -8649 0
-501 8649 0
549 8649 0
6249 -6049 0
6749 -6049 0
-6249 -6749 6049 0
-6249 7249 0
-6249 8249 0
6249 -7249 -8249 0
-6749 7749 0
-6749 8749 0
6749 -7749 -8749 0
-101 149 -7249 0
101 7249 0
-149 7249 0
-601 649 -7749 0
601 7749 0
-649 7749 0
101 -149 -8249 0
-101 8249 0
149 8249 0
601 -649 -8749 0
-601 8749 0
649 8749 0
6349 -6049 0
6849 -6049 0
-6349 -6849 6049 0
-6349 7349 0
-6349 8349 0
6349 -7349 -8349 0
-6849 7849 0
-6849 8849 0
6849 -7849 -8849 0
-201 249 -7349 0
201 7349 0
-249 7349 0
-701 749 -7849 0
701 7849 0
-749 7849 0
201 -249 -8349 0
-201 8349 0
249 8349 0
701 -749 -8849 0
-701 8849 0
749 8849 0
6449 -6049 0
6949 -6049 0
-6449 -6949 6049 0
-6449 7449 0
-6449 8449 0
6449 -7449 -8449 0
-6949 7949 0
-6949 8949 0
6949 -7949 -8949 0
-301 349 -7449 0
301 7449 0
-349 7449 0
-801 849 -7949 0
801 7949 0
-849 7949 0
301 -349 -8449 0
-301 8449 0
349 8449 0
801 -849 -8949 0
-801 8949 0
849 8949 0
6549 -6049 0
7049 -6049 0
-6549 -7049 6049 0
-6549 7549 0
-6549 8549 0
6549 -7549 -8549 0
-7049 8049 0
-7049 9049 0
7049 -8049 -9049 0
-401 449 -7549 0
401 7549 0
-449 7549 0
-901 949 -8049 0
901 8049 0
-949 8049 0
401 -449 -8549 0
-401 8549 0
449 8549 0
901 -949 -9049 0
-901 9049 0
949 9049 0
6150 -6050 0
6650 -6050 0
-6150 -6650 6050 0
-6150 7150 0
-6150 8150 0
6150 -7150 -8150 0
-6650 7650 0
-6650 8650 0
6650 -7650 -8650 0
-1 50 -7150 0
1 7150 0
-50 7150 0
-501 550 -7650 0
501 7650 0
-550 7650 0
1 -50 -8150 0
-1 8150 0
50 8150 0
501 -550 -8650 0
-501 8650 0
550 8650 0
6250 -6050 0
6750 -6050 0
-6250 -6750 6050 0
-6250 7250 0
-6250 8250 0
6250 -7250 -8250 0
-6750 7750 0
-6750 8750 0
6750 -7750 -8750 0
-101 150 -7250 0
101 7250 0
-150 7250 0
-601 650 -7750 0
601 7750 0
-650 7750 0
101 -150 -8250 0
-101 8250 0
150 8250 0
601 -650 -8750 0
-601 8750 0
650 8750 0
6350 -6050 0
6850 -6050 0
-6350 -6850 6050 0
-6350 7350 0
-6350 8350 0
6350 -7350 -8350 0
-6850 7850 0
-6850 8850 0
6850 -7850 -8850 0
-201 250 -7350 0
201 7350 0
-250 7350 0
-701 750 -7850 0
701 7850 0
-750 7850 0
201 -250 -8350 0
-201 8350 0
250 8350 0
701 -750 -8850 0
-701 8850 0
750 8850 0
6450 -6050 0
6950 -6050 0
-6450 -6950 6050 0
-6450 7450 0
-6450 8450 0
6450 -7450 -8450 0
-6950 7950 0
-6950 8950 0
6950 -7950 -8950 0
-301 350 -7450 0
301 7450 0
-350 7450 0
-801 850 -7950 0
801 7950 0
-850 7950 0
301 -350 -8450 0
-301 8450 0
350 8450 0
801 -850 -8950 0
-801 8950 0
850 8950 0
6550 -6050 0
7050 -6050 0
-6550 -7050 6050 0
-6550 7550 0
-6550 8550 0
6550 -7550 -8550 0
-7050 8050 0
-7050 9050 0
7050 -8050 -9050 0
-401 450 -7550 0
401 7550 0
-450 7550 0
-901 950 -8050 0
901 8050 0
-950 8050 0
401 -450 -8550 0
-401 8550 0
450 8550 0
901 -950 -9050 0
-901 9050 0
950 9050 0
6151 -6051 0
6651 -6051 0
-6151 -6651 6051 0
-6151 7151 0
-6151 8151 0
6151 -7151 -8151 0
-6651 7651 0
-6651 8651 0
6651 -7651 -8651 0
-1 51 -7151 0
1 7151 0
-51 7151 0
-501 551 -7651 0
501 7651 0
-551 7651 0
1 -51 -8151 0
-1 8151 0
51 8151 0
501 -551 -8651 0
-501 8651 0
551 8651 0
6251 -6051 0
6751 -6051 0
-6251 -6751 6051 0
-6251 7251 0
-6251 8251 0
6251 -7251 -8251 0
-6751 7751 0
-6751 8751 0
6751 -7751 -8751 0
-101 151 -7251 0
101 7251 0
-151 7251 0
-601 651 -7751 0
601 7751 0
-651 7751 0
101 -151 -8251 0
-101 8251 0
151 8251 0
601 -651 -8751 0
-601 8751 0
651 8751 0
6351 -6051 0
6851 -6051 0
-6351 -6851 6051 0
-6351 7351 0
-6351 8351 0
6351 -7351 -8351 0
-6851 7851 0
-6851 8851 0
6851 -7851 -8851 0
-201 251 -7351 0
201 7351 0
-251 7351 0
-701 751 -7851 0
701 7851 0
-751 7851 0
201 -251 -8351 0
-201 8351 0
251 8351 0
701 -751 -8851 0
-701 8851 0
751 8851 0
6451 -6051 0
6951 -6051 0
-6451 -6951 6051 0
-6451 7451 0
-6451 8451 0
6451 -7451 -8451 0
-6951 7951 0
-6951 8951 0
6951 -7951 -8951 0
-301 351 -7451 0
301 7451 0
-351 7451 0
-801 851 -7951 0
801 7951 0
-851 7951 0
301 -351 -8451 0
-301 8451 0
351 8451 0
801 -851 -8951 0
-801 8951 0
851 8951 0
6551 -6051 0
7051 -6051 0
-6551 -7051 6051 0
-6551 7551 0
-6551 8551 0
6551 -7551 -8551 0
-7051 8051 0
-7051 9051 0
7051 -8051 -9051 0
-401 451 -7551 0
401 7551 0
-451 7551 0
-901 951 -8051 0
901 8051 0
-951 8051 0
401 -451 -8551 0
-401 8551 0
451 8551 0
901 -951 -9051 0
-901 9051 0
951 9051 0
6152 -6052 0
6652 -6052 0
-6152 -6652 6052 0
-6152 7152 0
-6152 8152 0
6152 -7152 -8152 0
-6652 7652 0
-6652 8652 0
6652 -7652 -8652 0
-1 52 -7152 0
1 7152 0
-52 7152 0
-501 552 -7652 0
501 7652 0
-552 7652 0
1 -52 -8152 0
-1 8152 0
52 8152 0
501 -552 -8652 0
-501 8652 0
552 8652 0
6252 -6052 0
6752 -6052 0
-6252 -6752 6052 0
-6252 7252 0
-6252 8252 0
6252 -7252 -8252 0
-6752 7752 0
-6752 8752 0
6752 -7752 -8752 0
-101 152 -7252 0
101 7252 0
-152 7252 0
-601 652 -7752 0
601 7752 0
-652 7752 0
101 -152 -8252 0
-101 8252 0
152 8252 0
601 -652 -8752 0
-601 8752 0
652 8752 0
6352 -6052 0
6852 -6052 0
-6352 -6852 6052 0
-6352 7352 0
-6352 8352 0
6352 -7352 -8352 0
-6852 7852 0
-6852 8852 0
6852 -7852 -8852 0
-201 252 -7352 0
201 7352 0
-252 7352 0
-701 752 -7852 0
701 7852 0
-752 7852 0
201 -252 -8352 0
-201 8352 0
252 8352 0
701 -752 -8852 0
-701 8852 0
752 8852 0
6452 -6052 0
6952 -6052 0
-6452 -6952 6052 0
-6452 7452 0
-6452 8452 0
6452 -7452 -8452 0
-6952 7952 0
-6952 8952 0
6952 -7952 -8952 0
-301 352 -7452 0
301 7452 0
-352 7452 0
-801 852 -7952 0
801 7952 0
-852 7952 0
301 -352 -8452 0
-301 8452 0
352 8452 0
801 -852 -8952 0
-801 8952 0
852 8952 0
6552 -6052 0
7052 -6052 0
-6552 -7052 6052 0
-6552 7552 0
-6552 8552 0
6552 -7552 -8552 0
-7052 8052 0
-7052 9052 0
7052 -8052 -9052 0
-401 452 -7552 0
401 7552 0
-452 7552 0
-901 952 -8052 0
901 8052 0
-952 8052 0
401 -452 -8552 0
-401 8552 0
452 8552 0
901 -952 -9052 0
-901 9052 0
952 9052 0
6153 -6053 0
6653 -6053 0
-6153 -6653 6053 0
-6153 7153 0
-6153 8153 0
6153 -7153 -8153 0
-6653 7653 0
-6653 8653 0
6653 -7653 -8653 0
-1 53 -7153 0
1 7153 0
-53 7153 0
-501 553 -7653 0
501 7653 0
-553 7653 0
1 -53 -8153 0
-1 8153 0
53 8153 0
501 -553 -8653 0
-501 8653 0
553 8653 0
6253 -6053 0
6753 -6053 0
-6253 -6753 6053 0
-6253 7253 0
-6253 8253 0
6253 -7253 -8253 0
-6753 7753 0
-6753 8753 0
6753 -7753 -8753 0
-101 153 -7253 0
101 7253 0
-153 7253 0
-601 653 -7753 0
601 7753 0
-653 7753 0
101 -153 -8253 0
-101 8253 0
153 8253 0
601 -653 -8753 0
-601 8753 0
653 8753 0
6353 -6053 0
6853 -6053 0
-6353 -6853 6053 0
-6353 7353 0
-6353 8353 0
6353 -7353 -8353 0
-6853 7853 0
-6853 8853 0
6853 -7853 -8853 0
-201 253 -7353 0
201 7353 0
-253 7353 0
-701 753 -7853 0
701 7853 0
-753 7853 0
201 -253 -8353 0
-201 8353 0
253 8353 0
701 -753 -8853 0
-701 8853 0
753 8853 0
6453 -6053 0
6953 -6053 0
-6453 -6953 6053 0
-6453 7453 0
-6453 8453 0
6453 -7453 -8453 0
-6953 7953 0
-6953 8953 0
6953 -7953 -8953 0
-301 353 -7453 0
301 7453 0
-353 7453 0
-801 853 -7953 0
801 7953 0
-853 7953 0
301 -353 -8453 0
-301 8453 0
353 8453 0
801 -853 -8953 0
-801 8953 0
853 8953 0
6553 -6053 0
7053 -6053 0
-6553 -7053 6053 0
-6553 7553 0
-6553 8553 0
6553 -7553 -8553 0
-7053 8053 0
-7053 9053 0
7053 -8053 -9053 0
-401 453 -7553 0
401 7553 0
-453 7553 0
-901 953 -8053 0
901 8053 0
-953 8053 0
401 -453 -8553 0
-401 8553 0
453 8553 0
901 -953 -9053 0
-901 9053 0
953 9053 0
6154 -6054 0
6654 -6054 0
-6154 -6654 6054 0
-6154 7154 0
-6154 8154 0
6154 -7154 -8154 0
-6654 7654 0
-6654 8654 0
6654 -7654 -8654 0
-1 54 -7154 0
1 7154 0
-54 7154 0
-501 554 -7654 0
501 7654 0
-554 7654 0
1 -54 -8154 0
-1 8154 0
54 8154 0
501 -554 -8654 0
-501 8654 0
554 8654 0
6254 -6054 0
6754 -6054 0
-6254 -6754 6054 0
-6254 7254 0
-6254 8254 0
6254 -7254 -8254 0
-6754 7754 0
-6754 8754 0
6754 -7754 -8754 0
-101 154 -7254 0
101 7254 0
-154 7254 0
-601 654 -7754 0
601 7754 0
-654 7754 0
101 -154 -8254 0
-101 8254 0
154 8254 0
601 -654 -8754 0
-601 8754 0
654 8754 0
6354 -6054 0
6854 -6054 0
-6354 -6854 6054 0
-6354 7354 0
-6354 8354 0
6354 -7354 -8354 0
-6854 7854 0
-6854 8854 0
6854 -7854 -8854 0
-201 254 -7354 0
201 7354 0
-254 7354 0
-701 754 -7854 0
701 7854 0
-754 7854 0
201 -254 -8354 0
-201 8354 0
254 8354 0
701 -754 -8854 0
-701 8854 0
754 8854 0
6454 -6054 0
6954 -6054 0
-6454 -6954 6054 0
-6454 7454 0
-6454 8454 0
6454 -7454 -8454 0
-6954 7954 0
-6954 8954 0
6954 -7954 -8954 0
-301 354 -7454 0
301 7454 0
-354 7454 0
-801 854 -7954 0
801 7954 0
-854 7954 0
301 -354 -8454 0
-301 8454 0
354 8454 0
801 -854 -8954 0
-801 8954 0
854 8954 0
6554 -6054 0
7054 -6054 0
-6554 -7054 6054 0
-6554 7554 0
-6554 8554 0
6554 -7554 -8554 0
-7054 8054 0
-7054 9054 0
7054 -8054 -9054 0
-401 454 -7554 0
401 7554 0
-454 7554 0
-901 954 -8054 0
901 8054 0
-954 8054 0
401 -454 -8554 0
-401 8554 0
454 8554 0
901 -954 -9054 0
-901 9054 0
954 9054 0
6155 -6055 0
6655 -6055 0
-6155 -6655 6055 0
-6155 7155 0
-6155 8155 0
6155 -7155 -8155 0
-6655 7655 0
-6655 8655 0
6655 -7655 -8655 0
-1 55 -7155 0
1 7155 0
-55 7155 0
-501 555 -7655 0
501 7655 0
-555 7655 0
1 -55 -8155 0
-1 8155 0
55 8155 0
501 -555 -8655 0
-501 8655 0
555 8655 0
6255 -6055 0
6755 -6055 0
-6255 -6755 6055 0
-6255 7255 0
-6255 8255 0
6255 -7255 -8255 0
-6755 7755 0
-6755 8755 0
6755 -7755 -8755 0
-101 155 -7255 0
101 7255 0
-155 7255 0
-601 655 -7755 0
601 7755 0
-655 7755 0
101 -155 -8255 0
-101 8255 0
155 8255 0
601 -655 -8755 0
-601 8755 0
655 8755 0
6355 -6055 0
6855 -6055 0
-6355 -6855 6055 0
-6355 7355 0
-6355 8355 0
6355 -7355 -8355 0
-6855 7855 0
-6855 8855 0
6855 -7855 -8855 0
-201 255 -7355 0
201 7355 0
-255 7355 0
-701 755 -7855 0
701 7855 0
-755 7855 0
201 -255 -8355 0
-201 8355 0
255 8355 0
701 -755 -8855 0
-701 8855 0
755 8855 0
6455 -6055 0
6955 -6055 0
-6455 -6955 6055 0
-6455 7455 0
-6455 8455 0
6455 -7455 -8455 0
-6955 7955 0
-6955 8955 0
6955 -7955 -8955 0
-301 355 -7455 0
301 7455 0
-355 7455 0
-801 855 -7955 0
801 7955 0
-855 7955 0
301 -355 -8455 0
-301 8455 0
355 8455 0
801 -855 -8955 0
-801 8955 0
855 8955 0
6555 -6055 0
7055 -6055 0
-6555 -7055 6055 0
-6555 7555 0
-6555 8555 0
6555 -7555 -8555 0
-7055 8055 0
-7055 9055 0
7055 -8055 -9055 0
-401 455 -7555 0
401 7555 0
-455 7555 0
-901 955 -8055 0
901 8055 0
-955 8055 0
401 -455 -8555 0
-401 8555 0
455 8555 0
901 -955 -9055 0
-901 9055 0
955 9055 0
6156 -6056 0
6656 -6056 0
-6156 -6656 6056 0
-6156 7156 0
-6156 8156 0
6156 -7156 -8156 0
-6656 7656 0
-6656 8656 0
6656 -7656 -8656 0
-1 56 -7156 0
1 7156 0
-56 7156 0
-501 556 -7656 0
501 7656 0
-556 7656 0
1 -56 -8156 0
-1 8156 0
56 8156 0
501 -556 -8656 0
-501 8656 0
556 8656 0
6256 -6056 0
6756 -6056 0
-6256 -6756 6056 0
-6256 7256 0
-6256 8256 0
6256 -7256 -8256 0
-6756 7756 0
-6756 8756 0
6756 -7756 -8756 0
-101 156 -7256 0
101 7256 0
-156 7256 0
-601 656 -7756 0
601 7756 0
-656 7756 0
101 -156 -8256 0
-101 8256 0
156 8256 0
601 -656 -8756 0
-601 8756 0
656 8756 0
6356 -6056 0
6856 -6056 0
-6356 -6856 6056 0
-6356 7356 0
-6356 8356 0
6356 -7356 -8356 0
-6856 7856 0
-6856 8856 0
6856 -7856 -8856 0
-201 256 -7356 0
201 7356 0
-256 7356 0
-701 756 -7856 0
701 7856 0
-756 7856 0
201 -256 -8356 0
-201 8356 0
256 8356 0
701 -756 -8856 0
-701 8856 0
756 8856 0
6456 -6056 0
6956 -6056 0
-6456 -6956 6056 0
-6456 7456 0
-6456 8456 0
6456 -7456 -8456 0
-6956 7956 0
-6956 8956 0
6956 -7956 -8956 0
-301 356 -7456 0
301 7456 0
-356 7456 0
-801 856 -7956 0
801 7956 0
-856 7956 0
301 -356 -8456 0
-301 8456 0
356 8456 0
801 -856 -8956 0
-801 8956 0
856 8956 0
6556 -6056 0
7056 -6056 0
-6556 -7056 6056 0
-6556 7556 0
-6556 8556 0
6556 -7556 -8556 0
-7056 8056 0
-7056 9056 0
7056 -8056 -9056 0
-401 456 -7556 0
401 7556 0
-456 7556 0
-901 956 -8056 0
901 8056 0
-956 8056 0
401 -456 -8556 0
-401 8556 0
456 8556 0
901 -956 -9056 0
-901 9056 0
956 9056 0
6157 -6057 0
6657 -6057 0
-6157 -6657 6057 0
-6157 7157 0
-6157 8157 0
6157 -7157 -8157 0
-6657 7657 0
-6657 8657 0
6657 -7657 -8657 0
-1 57 -7157 0
1 7157 0
-57 7157 0
-501 557 -7657 0
501 7657 0
-557 7657 0
1 -57 -8157 0
-1 8157 0
57 8157 0
501 -557 -8657 0
-501 8657 0
557 8657 0
6257 -6057 0
6757 -6057 0
-6257 -6757 6057 0
-6257 7257 0
-6257 8257 0
6257 -7257 -8257 0
-6757 7757 0
-6757 8757 0
6757 -7757 -8757 0
-101 157 -7257 0
101 7257 0
-157 7257 0
-601 657 -7757 0
601 7757 0
-657 7757 0
101 -157 -8257 0
-101 8257 0
157 8257 0
601 -657 -8757 0
-601 8757 0
657 8757 0
6357 -6057 0
6857 -6057 0
-6357 -6857 6057 0
-6357 7357 0
-6357 8357 0
6357 -7357 -8357 0
-6857 7857 0
-6857 8857 0
6857 -7857 -8857 0
-201 257 -7357 0
201 7357 0
-257 7357 0
-701 757 -7857 0
701 7857 0
-757 7857 0
201 -257 -8357 0
-201 8357 0
257 8357 0
701 -757 -8857 0
-701 8857 0
757 8857 0
6457 -6057 0
6957 -6057 0
-6457 -6957 6057 0
-6457 7457 0
-6457 8457 0
6457 -7457 -8457 0
-6957 7957 0
-6957 8957 0
6957 -7957 -8957 0
-301 357 -7457 0
301 7457 0
-357 7457 0
-801 857 -7957 0
801 7957 0
-857 7957 0
301 -357 -8457 0
-301 8457 0
357 8457 0
801 -857 -8957 0
-801 8957 0
857 8957 0
6557 -6057 0
7057 -6057 0
-6557 -7057 6057 0
-6557 7557 0
-6557 8557 0
6557 -7557 -8557 0
-7057 8057 0
-7057 9057 0
7057 -8057 -9057 0
-401 457 -7557 0
401 7557 0
-457 7557 0
-901 957 -8057 0
901 8057 0
-957 8057 0
401 -457 -8557 0
-401 8557 0
457 8557 0
901 -957 -9057 0
-901 9057 0
957 9057 0
6158 -6058 0
6658 -6058 0
-6158 -6658 6058 0
-6158 7158 0
-6158 8158 0
6158 -7158 -8158 0
-6658 7658 0
-6658 8658 0
6658 -7658 -8658 0
-1 58 -7158 0
1 7158 0
-58 7158 0
-501 558 -7658 0
501 7658 0
-558 7658 0
1 -58 -8158 0
-1 8158 0
58 8158 0
501 -558 -8658 0
-501 8658 0
558 8658 0
6258 -6058 0
6758 -6058 0
-6258 -6758 6058 0
-6258 7258 0
-6258 8258 0
6258 -7258 -8258 0
-6758 7758 0
-6758 8758 0
6758 -7758 -8758 0
-101 158 -7258 0
101 7258 0
-158 7258 0
-601 658 -7758 0
601 7758 0
-658 7758 0
101 -158 -8258 0
-101 8258 0
158 8258 0
601 -658 -8758 0
-601 8758 0
658 8758 0
6358 -6058 0
6858 -6058 0
-6358 -6858 6058 0
-6358 7358 0
-6358 8358 0
6358 -7358 -8358 0
-6858 7858 0
-6858 8858 0
6858 -7858 -8858 0
-201 258 -7358 0
201 7358 0
-258 7358 0
-701 758 -7858 0
701 7858 0
-758 7858 0
201 -258 -8358 0
-201 8358 0
258 8358 0
701 -758 -8858 0
-701 8858 0
758 8858 0
6458 -6058 0
6958 -6058 0
-6458 -6958 6058 0
-6458 7458 0
-6458 8458 0
6458 -7458 -8458 0
-6958 7958 0
-6958 8958 0
6958 -7958 -8958 0
-301 358 -7458 0
301 7458 0
-358 7458 0
-801 858 -7958 0
801 7958 0
-858 7958 0
301 -358 -8458 0
-301 8458 0
358 8458 0
801 -858 -8958 0
-801 8958 0
858 8958 0
6558 -6058 0
7058 -6058 0
-6558 -7058 6058 0
-6558 7558 0
-6558 8558 0
6558 -7558 -8558 0
-7058 8058 0
-7058 9058 0
7058 -8058 -9058 0
-401 458 -7558 0
401 7558 0
-458 7558 0
-901 958 -8058 0
901 8058 0
-958 8058 0
401 -458 -8558 0
-401 8558 0
458 8558 0
901 -958 -9058 0
-901 9058 0
958 9058 0
6159 -6059 0
6659 -6059 0
-6159 -6659 6059 0
-6159 7159 0
-6159 8159 0
6159 -7159 -8159 0
-6659 7659 0
-6659 8659 0
6659 -7659 -8659 0
-1 59 -7159 0
1 7159 0
-59 7159 0
-501 559 -7659 0
501 7659 0
-559 7659 0
1 -59 -8159 0
-1 8159 0
59 8159 0
501 -559 -8659 0
-501 8659 0
559 8659 0
6259 -6059 0
6759 -6059 0
-6259 -6759 6059 0
-6259 7259 0
-6259 8259 0
6259 -7259 -8259 0
-6759 7759 0
-6759 8759 0
6759 -7759 -8759 0
-101 159 -7259 0
101 7259 0
-159 7259 0
-601 659 -7759 0
601 7759 0
-659 7759 0
101 -159 -8259 0
-101 8259 0
159 8259 0
601 -659 -8759 0
-601 8759 0
659 8759 0
6359 -6059 0
6859 -6059 0
-6359 -6859 6059 0
-6359 7359 0
-6359 8359 0
6359 -7359 -8359 0
-6859 7859 0
-6859 8859 0
6859 -7859 -8859 0
-201 259 -7359 0
201 7359 0
-259 7359 0
-701 759 -7859 0
701 7859 0
-759 7859 0
201 -259 -8359 0
-201 8359 0
259 8359 0
701 -759 -8859 0
-701 8859 0
759 8859 0
6459 -6059 0
6959 -6059 0
-6459 -6959 6059 0
-6459 7459 0
-6459 8459 0
6459 -7459 -8459 0
-6959 7959 0
-6959 8959 0
6959 -7959 -8959 0
-301 359 -7459 0
301 7459 0
-359 7459 0
-801 859 -7959 0
801 7959 0
-859 7959 0
301 -359 -8459 0
-301 8459 0
359 8459 0
801 -859 -8959 0
-801 8959 0
859 8959 0
6559 -6059 0
7059 -6059 0
-6559 -7059 6059 0
-6559 7559 0
-6559 8559 0
6559 -7559 -8559 0
-7059 8059 0
-7059 9059 0
7059 -8059 -9059 0
-401 459 -7559 0
401 7559 0
-459 7559 0
-901 959 -8059 0
901 8059 0
-959 8059 0
401 -459 -8559 0
-401 8559 0
459 8559 0
901 -959 -9059 0
-901 9059 0
959 9059 0
6160 -6060 0
6660 -6060 0
-6160 -6660 6060 0
-6160 7160 0
-6160 8160 0
6160 -7160 -8160 0
-6660 7660 0
-6660 8660 0
6660 -7660 -8660 0
-1 60 -7160 0
1 7160 0
-60 7160 0
-501 560 -7660 0
501 7660 0
-560 7660 0
1 -60 -8160 0
-1 8160 0
60 8160 0
501 -560 -8660 0
-501 8660 0
560 8660 0
6260 -6060 0
6760 -6060 0
-6260 -6760 6060 0
-6260 7260 0
-6260 8260 0
6260 -7260 -8260 0
-6760 7760 0
-6760 8760 0
6760 -7760 -8760 0
-101 160 -7260 0
101 7260 0
-160 7260 0
-601 660 -7760 0
601 7760 0
-660 7760 0
101 -160 -8260 0
-101 8260 0
160 8260 0
601 -660 -8760 0
-601 8760 0
660 8760 0
6360 -6060 0
6860 -6060 0
-6360 -6860 6060 0
-6360 7360 0
-6360 8360 0
6360 -7360 -8360 0
-6860 7860 0
-6860 8860 0
6860 -7860 -8860 0
-201 260 -7360 0
201 7360 0
-260 7360 0
-701 760 -7860 0
701 7860 0
-760 7860 0
201 -260 -8360 0
-201 8360 0
260 8360 0
701 -760 -8860 0
-701 8860 0
760 8860 0
6460 -6060 0
6960 -6060 0
-6460 -6960 6060 0
-6460 7460 0
-6460 8460 0
6460 -7460 -8460 0
-6960 7960 0
-6960 8960 0
6960 -7960 -8960 0
-301 360 -7460 0
301 7460 0
-360 7460 0
-801 860 -7960 0
801 7960 0
-860 7960 0
301 -360 -8460 0
-301 8460 0
360 8460 0
801 -860 -8960 0
-801 8960 0
860 8960 0
6560 -6060 0
7060 -6060 0
-6560 -7060 6060 0
-6560 7560 0
-6560 8560 0
6560 -7560 -8560 0
-7060 8060 0
-7060 9060 0
7060 -8060 -9060 0
-401 460 -7560 0
401 7560 0
-460 7560 0
-901 960 -8060 0
901 8060 0
-960 8060 0
401 -460 -8560 0
-401 8560 0
460 8560 0
901 -960 -9060 0
-901 9060 0
960 9060 0
6161 -6061 0
6661 -6061 0
-6161 -6661 6061 0
-6161 7161 0
-6161 8161 0
6161 -7161 -8161 0
-6661 7661 0
-6661 8661 0
6661 -7661 -8661 0
-1 61 -7161 0
1 7161 0
-61 7161 0
-501 561 -7661 0
501 7661 0
-561 7661 0
1 -61 -8161 0
-1 8161 0
61 8161 0
501 -561 -8661 0
-501 8661 0
561 8661 0
6261 -6061 0
6761 -6061 0
-6261 -6761 6061 0
-6261 7261 0
-6261 8261 0
6261 -7261 -8261 0
-6761 7761 0
-6761 8761 0
6761 -7761 -8761 0
-101 161 -7261 0
101 7261 0
-161 7261 0
-601 661 -7761 0
601 7761 0
-661 7761 0
101 -161 -8261 0
-101 8261 0
161 8261 0
601 -661 -8761 0
-601 8761 0
661 8761 0
6361 -6061 0
6861 -6061 0
-6361 -6861 6061 0
-6361 7361 0
-6361 8361 0
6361 -7361 -8361 0
-6861 7861 0
-6861 8861 0
6861 -7861 -8861 0
-201 261 -7361 0
201 7361 0
-261 7361 0
-701 761 -7861 0
701 7861 0
-761 7861 0
201 -261 -8361 0
-201 8361 0
261 8361 0
701 -761 -8861 0
-701 8861 0
761 8861 0
6461 -6061 0
6961 -6061 0
-6461 -6961 6061 0
-6461 7461 0
-6461 8461 0
6461 -7461 -8461 0
-6961 7961 0
-6961 8961 0
6961 -7961 -8961 0
-301 361 -7461 0
301 7461 0
-361 7461 0
-801 861 -7961 0
801 7961 0
-861 7961 0
301 -361 -8461 0
-301 8461 0
361 8461 0
801 -861 -8961 0
-801 8961 0
861 8961 0
6561 -6061 0
7061 -6061 0
-6561 -7061 6061 0
-6561 7561 0
-6561 8561 0
6561 -7561 -8561 0
-7061 8061 0
-7061 9061 0
7061 -8061 -9061 0
-401 461 -7561 0
401 7561 0
-461 7561 0
-901 961 -8061 0
901 8061 0
-961 8061 0
401 -461 -8561 0
-401 8561 0
461 8561 0
901 -961 -9061 0
-901 9061 0
961 9061 0
6162 -6062 0
6662 -6062 0
-6162 -6662 6062 0
-6162 7162 0
-6162 8162 0
6162 -7162 -8162 0
-6662 7662 0
-6662 8662 0
6662 -7662 -8662 0
-1 62 -7162 0
1 7162 0
-62 7162 0
-501 562 -7662 0
501 7662 0
-562 7662 0
1 -62 -8162 0
-1 8162 0
62 8162 0
501 -562 -8662 0
-501 8662 0
562 8662 0
6262 -6062 0
6762 -6062 0
-6262 -6762 6062 0
-6262 7262 0
-6262 8262 0
6262 -7262 -8262 0
-6762 7762 0
-6762 8762 0
6762 -7762 -8762 0
-101 162 -7262 0
101 7262 0
-162 7262 0
-601 662 -7762 0
601 7762 0
-662 7762 0
101 -162 -8262 0
-101 8262 0
162 8262 0
601 -662 -8762 0
-601 8762 0
662 8762 0
6362 -6062 0
6862 -6062 0
-6362 -6862 6062 0
-6362 7362 0
-6362 8362 0
6362 -7362 -8362 0
-6862 7862 0
-6862 8862 0
6862 -7862 -8862 0
-201 262 -7362 0
201 7362 0
-262 7362 0
-701 762 -7862 0
701 7862 0
-762 7862 0
201 -262 -8362 0
-201 8362 0
262 8362 0
701 -762 -8862 0
-701 8862 0
762 8862 0
6462 -6062 0
6962 -6062 0
-6462 -6962 6062 0
-6462 7462 0
-6462 8462 0
6462 -7462 -8462 0
-6962 7962 0
-6962 8962 0
6962 -7962 -8962 0
-301 362 -7462 0
301 7462 0
-362 7462 0
-801 862 -7962 0
801 7962 0
-862 7962 0
301 -362 -8462 0
-301 8462 0
362 8462 0
801 -862 -8962 0
-801 8962 0
862 8962 0
6562 -6062 0
7062 -6062 0
-6562 -7062 6062 0
-6562 7562 0
-6562 8562 0
6562 -7562 -8562 0
-7062 8062 0
-7062 9062 0
7062 -8062 -9062 0
-401 462 -7562 0
401 7562 0
-462 7562 0
-901 962 -8062 0
901 8062 0
-962 8062 0
401 -462 -8562 0
-401 8562 0
462 8562 0
901 -962 -9062 0
-901 9062 0
962 9062 0
6163 -6063 0
6663 -6063 0
-6163 -6663 6063 0
-6163 7163 0
-6163 8163 0
6163 -7163 -8163 0
-6663 7663 0
-6663 8663 0
6663 -7663 -8663 0
-1 63 -7163 0
1 7163 0
-63 7163 0
-501 563 -7663 0
501 7663 0
-563 7663 0
1 -63 -8163 0
-1 8163 0
63 8163 0
501 -563 -8663 0
-501 8663 0
563 8663 0
6263 -6063 0
6763 -6063 0
-6263 -6763 6063 0
-6263 7263 0
-6263 8263 0
6263 -7263 -8263 0
-6763 7763 0
-6763 8763 0
6763 -7763 -8763 0
-101 163 -7263 0
101 7263 0
-163 7263 0
-601 663 -7763 0
601 7763 0
-663 7763 0
101 -163 -8263 0
-101 8263 0
163 8263 0
601 -663 -8763 0
-601 8763 0
663 8763 0
6363 -6063 0
6863 -6063 0
-6363 -6863 6063 0
-6363 7363 0
-6363 8363 0
6363 -7363 -8363 0
-6863 7863 0
-6863 8863 0
6863 -7863 -8863 0
-201 263 -7363 0
201 7363 0
-263 7363 0
-701 763 -7863 0
701 7863 0
-763 7863 0
201 -263 -8363 0
-201 8363 0
263 8363 0
701 -763 -8863 0
-701 8863 0
763 8863 0
6463 -6063 0
6963 -6063 0
-6463 -6963 6063 0
-6463 7463 0
-6463 8463 0
6463 -7463 -8463 0
-6963 7963 0
-6963 8963 0
6963 -7963 -8963 0
-301 363 -7463 0
301 7463 0
-363 7463 0
-801 863 -7963 0
801 7963 0
-863 7963 0
301 -363 -8463 0
-301 8463 0
363 8463 0
801 -863 -8963 0
-801 8963 0
863 8963 0
6563 -6063 0
7063 -6063 0
-6563 -7063 6063 0
-6563 7563 0
-6563 8563 0
6563 -7563 -8563 0
-7063 8063 0
-7063 9063 0
7063 -8063 -9063 0
-401 463 -7563 0
401 7563 0
-463 7563 0
-901 963 -8063 0
901 8063 0
-963 8063 0
401 -463 -8563 0
-401 8563 0
463 8563 0
901 -963 -9063 0
-901 9063 0
963 9063 0
6164 -6064 0
6664 -6064 0
-6164 -6664 6064 0
-6164 7164 0
-6164 8164 0
6164 -7164 -8164 0
-6664 7664 0
-6664 8664 0
6664 -7664 -8664 0
-1 64 -7164 0
1 7164 0
-64 7164 0
-501 564 -7664 0
501 7664 0
-564 7664 0
1 -64 -8164 0
-1 8164 0
64 8164 0
501 -564 -8664 0
-501 8664 0
564 8664 0
6264 -6064 0
6764 -6064 0
-6264 -6764 6064 0
-6264 7264 0
-6264 8264 0
6264 -7264 -8264 0
-6764 7764 0
-6764 8764 0
6764 -7764 -8764 0
-101 164 -7264 0
101 7264 0
-164 7264 0
-601 664 -7764 0
601 7764 0
-664 7764 0
101 -164 -8264 0
-101 8264 0
164 8264 0
601 -664 -8764 0
-601 8764 0
664 8764 0
6364 -6064 0
6864 -6064 0
-6364 -6864 6064 0
-6364 7364 0
-6364 8364 0
6364 -7364 -8364 0
-6864 7864 0
-6864 8864 0
6864 -7864 -8864 0
-201 264 -7364 0
201 7364 0
-264 7364 0
-701 764 -7864 0
701 7864 0
-764 7864 0
201 -264 -8364 0
-201 8364 0
264 8364 0
701 -764 -8864 0
-701 8864 0
764 8864 0
6464 -6064 0
6964 -6064 0
-6464 -6964 6064 0
-6464 7464 0
-6464 8464 0
6464 -7464 -8464 0
-6964 7964 0
-6964 8964 0
6964 -7964 -8964 0
-301 364 -7464 0
301 7464 0
-364 7464 0
-801 864 -7964 0
801 7964 0
-864 7964 0
301 -364 -8464 0
-301 8464 0
364 8464 0
801 -864 -8964 0
-801 8964 0
864 8964 0
6564 -6064 0
7064 -6064 0
-6564 -7064 6064 0
-6564 7564 0
-6564 8564 0
6564 -7564 -8564 0
-7064 8064 0
-7064 9064 0
7064 -8064 -9064 0
-401 464 -7564 0
401 7564 0
-464 7564 0
-901 964 -8064 0
901 8064 0
-964 8064 0
401 -464 -8564 0
-401 8564 0
464 8564 0
901 -964 -9064 0
-901 9064 0
964 9064 0
6165 -6065 0
6665 -6065 0
-6165 -6665 6065 0
-6165 7165 0
-6165 8165 0
6165 -7165 -8165 0
-6665 7665 0
-6665 8665 0
6665 -7665 -8665 0
-1 65 -7165 0
1 7165 0
-65 7165 0
-501 565 -7665 0
501 7665 0
-565 7665 0
1 -65 -8165 0
-1 8165 0
65 8165 0
501 -565 -8665 0
-501 8665 0
565 8665 0
6265 -6065 0
6765 -6065 0
-6265 -6765 6065 0
-6265 7265 0
-6265 8265 0
6265 -7265 -8265 0
-6765 7765 0
-6765 8765 0
6765 -7765 -8765 0
-101 165 -7265 0
101 7265 0
-165 7265 0
-601 665 -7765 0
601 7765 0
-665 7765 0
101 -165 -8265 0
-101 8265 0
165 8265 0
601 -665 -8765 0
-601 8765 0
665 8765 0
6365 -6065 0
6865 -6065 0
-6365 -6865 6065 0
-6365 7365 0
-6365 8365 0
6365 -7365 -8365 0
-6865 7865 0
-6865 8865 0
6865 -7865 -8865 0
-201 265 -7365 0
201 7365 0
-265 7365 0
-701 765 -7865 0
701 7865 0
-765 7865 0
201 -265 -8365 0
-201 8365 0
265 8365 0
701 -765 -8865 0
-701 8865 0
765 8865 0
6465 -6065 0
6965 -6065 0
-6465 -6965 6065 0
-6465 7465 0
-6465 8465 0
6465 -7465 -8465 0
-6965 7965 0
-6965 8965 0
6965 -7965 -8965 0
-301 365 -7465 0
301 7465 0
-365 7465 0
-801 865 -7965 0
801 7965 0
-865 7965 0
301 -365 -8465 0
-301 8465 0
365 8465 0
801 -865 -8965 0
-801 8965 0
865 8965 0
6565 -6065 0
7065 -6065 0
-6565 -7065 6065 0
-6565 7565 0
-6565 8565 0
6565 -7565 -8565 0
-7065 8065 0
-7065 9065 0
7065 -8065 -9065 0
-401 465 -7565 0
401 7565 0
-465 7565 0
-901 965 -8065 0
901 8065 0
-965 8065 0
401 -465 -8565 0
-401 8565 0
465 8565 0
901 -965 -9065 0
-901 9065 0
965 9065 0
6166 -6066 0
6666 -6066 0
-6166 -6666 6066 0
-6166 7166 0
-6166 8166 0
6166 -7166 -8166 0
-6666 7666 0
-6666 8666 0
6666 -7666 -8666 0
-1 66 -7166 0
1 7166 0
-66 7166 0
-501 566 -7666 0
501 7666 0
-566 7666 0
1 -66 -8166 0
-1 8166 0
66 8166 0
501 -566 -8666 0
-501 8666 0
566 8666 0
6266 -6066 0
6766 -6066 0
-6266 -6766 6066 0
-6266 7266 0
-6266 8266 0
6266 -7266 -8266 0
-6766 7766 0
-6766 8766 0
6766 -7766 -8766 0
-101 166 -7266 0
101 7266 0
-166 7266 0
-601 666 -7766 0
601 7766 0
-666 7766 0
101 -166 -8266 0
-101 8266 0
166 8266 0
601 -666 -8766 0
-601 8766 0
666 8766 0
6366 -6066 0
6866 -6066 0
-6366 -6866 6066 0
-6366 7366 0
-6366 8366 0
6366 -7366 -8366 0
-6866 7866 0
-6866 8866 0
6866 -7866 -8866 0
-201 266 -7366 0
201 7366 0
-266 7366 0
-701 766 -7866 0
701 7866 0
-766 7866 0
201 -266 -8366 0
-201 8366 0
266 8366 0
701 -766 -8866 0
-701 8866 0
766 8866 0
6466 -6066 0
6966 -6066 0
-6466 -6966 6066 0
-6466 7466 0
-6466 8466 0
6466 -7466 -8466 0
-6966 7966 0
-6966 8966 0
6966 -7966 -8966 0
-301 366 -7466 0
301 7466 0
-366 7466 0
-801 866 -7966 0
801 7966 0
-866 7966 0
301 -366 -8466 0
-301 8466 0
366 8466 0
801 -866 -8966 0
-801 8966 0
866 8966 0
6566 -6066 0
7066 -6066 0
-6566 -7066 6066 0
-6566 7566 0
-6566 8566 0
6566 -7566 -8566 0
-7066 8066 0
-7066 9066 0
7066 -8066 -9066 0
-401 466 -7566 0
401 7566 0
-466 7566 0
-901 966 -8066 0
901 8066 0
-966 8066 0
401 -466 -8566 0
-401 8566 0
466 8566 0
901 -966 -9066 0
-901 9066 0
966 9066 0
6167 -6067 0
6667 -6067 0
-6167 -6667 6067 0
-6167 7167 0
-6167 8167 0
6167 -7167 -8167 0
-6667 7667 0
-6667 8667 0
6667 -7667 -8667 0
-1 67 -7167 0
1 7167 0
-67 7167 0
-501 567 -7667 0
501 7667 0
-567 7667 0
1 -67 -8167 0
-1 8167 0
67 8167 0
501 -567 -8667 0
-501 8667 0
567 8667 0
6267 -6067 0
6767 -6067 0
-6267 -6767 6067 0
-6267 7267 0
-6267 8267 0
6267 -7267 -8267 0
-6767 7767 0
-6767 8767 0
6767 -7767 -8767 0
-101 167 -7267 0
101 7267 0
-167 7267 0
-601 667 -7767 0
601 7767 0
-667 7767 0
101 -167 -8267 0
-101 8267 0
167 8267 0
601 -667 -8767 0
-601 8767 0
667 8767 0
6367 -6067 0
6867 -6067 0
-6367 -6867 6067 0
-6367 7367 0
-6367 8367 0
6367 -7367 -8367 0
-6867 7867 0
-6867 8867 0
6867 -7867 -8867 0
-201 267 -7367 0
201 7367 0
-267 7367 0
-701 767 -7867 0
701 7867 0
-767 7867 0
201 -267 -8367 0
-201 8367 0
267 8367 0
701 -767 -8867 0
-701 8867 0
767 8867 0
6467 -6067 0
6967 -6067 0
-6467 -6967 6067 0
-6467 7467 0
-6467 8467 0
6467 -7467 -8467 0
-6967 7967 0
-6967 8967 0
6967 -7967 -8967 0
-301 367 -7467 0
301 7467 0
-367 7467 0
-801 867 -7967 0
801 7967 0
-867 7967 0
301 -367 -8467 0
-301 8467 0
367 8467 0
801 -867 -8967 0
-801 8967 0
867 8967 0
6567 -6067 0
7067 -6067 0
-6567 -7067 6067 0
-6567 7567 0
-6567 8567 0
6567 -7567 -8567 0
-7067 8067 0
-7067 9067 0
7067 -8067 -9067 0
-401 467 -7567 0
401 7567 0
-467 7567 0
-901 967 -8067 0
901 8067 0
-967 8067 0
401 -467 -8567 0
-401 8567 0
467 8567 0
901 -967 -9067 0
-901 9067 0
967 9067 0
6168 -6068 0
6668 -6068 0
-6168 -6668 6068 0
-6168 7168 0
-6168 8168 0
6168 -7168 -8168 0
-6668 7668 0
-6668 8668 0
6668 -7668 -8668 0
-1 68 -7168 0
1 7168 0
-68 7168 0
-501 568 -7668 0
501 7668 0
-568 7668 0
1 -68 -8168 0
-1 8168 0
68 8168 0
501 -568 -8668 0
-501 8668 0
568 8668 0
6268 -6068 0
6768 -6068 0
-6268 -6768 6068 0
-6268 7268 0
-6268 8268 0
6268 -7268 -8268 0
-6768 7768 0
-6768 8768 0
6768 -7768 -8768 0
-101 168 -7268 0
101 7268 0
-168 7268 0
-601 668 -7768 0
601 7768 0
-668 7768 0
101 -168 -8268 0
-101 8268 0
168 8268 0
601 -668 -8768 0
-601 8768 0
668 8768 0
6368 -6068 0
6868 -6068 0
-6368 -6868 6068 0
-6368 7368 0
-6368 8368 0
6368 -7368 -8368 0
-6868 7868 0
-6868 8868 0
6868 -7868 -8868 0
-201 268 -7368 0
201 7368 0
-268 7368 0
-701 768 -7868 0
701 7868 0
-768 7868 0
201 -268 -8368 0
-201 8368 0
268 8368 0
701 -768 -8868 0
-701 8868 0
768 8868 0
6468 -6068 0
6968 -6068 0
-6468 -6968 6068 0
-6468 7468 0
-6468 8468 0
6468 -7468 -8468 0
-6968 7968 0
-6968 8968 0
6968 -7968 -8968 0
-301 368 -7468 0
301 7468 0
-368 7468 0
-801 868 -7968 0
801 7968 0
-868 7968 0
301 -368 -8468 0
-301 8468 0
368 8468 0
801 -868 -8968 0
-801 8968 0
868 8968 0
6568 -6068 0
7068 -6068 0
-6568 -7068 6068 0
-6568 7568 0
-6568 8568 0
6568 -7568 -8568 0
-7068 8068 0
-7068 9068 0
7068 -8068 -9068 0
-401 468 -7568 0
401 7568 0
-468 7568 0
-901 968 -8068 0
901 8068 0
-968 8068 0
401 -468 -8568 0
-401 8568 0
468 8568 0
901 -968 -9068 0
-901 9068 0
968 9068 0
6169 -6069 0
6669 -6069 0
-6169 -6669 6069 0
-6169 7169 0
-6169 8169 0
6169 -7169 -8169 0
-6669 7669 0
-6669 8669 0
6669 -7669 -8669 0
-1 69 -7169 0
1 7169 0
-69 7169 0
-501 569 -7669 0
501 7669 0
-569 7669 0
1 -69 -8169 0
-1 8169 0
69 8169 0
501 -569 -8669 0
-501 8669 0
569 8669 0
6269 -6069 0
6769 -6069 0
-6269 -6769 6069 0
-6269 7269 0
-6269 8269 0
6269 -7269 -8269 0
-6769 7769 0
-6769 8769 0
6769 -7769 -8769 0
-101 169 -7269 0
101 7269 0
-169 7269 0
-601 669 -7769 0
601 7769 0
-669 7769 0
101 -169 -8269 0
-101 8269 0
169 8269 0
601 -669 -8769 0
-601 8769 0
669 8769 0
6369 -6069 0
6869 -6069 0
-6369 -6869 6069 0
-6369 7369 0
-6369 8369 0
6369 -7369 -8369 0
-6869 7869 0
-6869 8869 0
6869 -7869 -8869 0
-201 269 -7369 0
201 7369 0
-269 7369 0
-701 769 -7869 0
701 7869 0
-769 7869 0
201 -269 -8369 0
-201 8369 0
269 8369 0
701 -769 -8869 0
-701 8869 0
769 8869 0
6469 -6069 0
6969 -6069 0
-6469 -6969 6069 0
-6469 7469 0
-6469 8469 0
6469 -7469 -8469 0
-6969 7969 0
-6969 8969 0
6969 -7969 -8969 0
-301 369 -7469 0
301 7469 0
-369 7469 0
-801 869 -7969 0
801 7969 0
-869 7969 0
301 -369 -8469 0
-301 8469 0
369 8469 0
801 -869 -8969 0
-801 8969 0
869 8969 0
6569 -6069 0
7069 -6069 0
-6569 -7069 6069 0
-6569 7569 0
-6569 8569 0
6569 -7569 -8569 0
-7069 8069 0
-7069 9069 0
7069 -8069 -9069 0
-401 469 -7569 0
401 7569 0
-469 7569 0
-901 969 -8069 0
901 8069 0
-969 8069 0
401 -469 -8569 0
-401 8569 0
469 8569 0
901 -969 -9069 0
-901 9069 0
969 9069 0
6170 -6070 0
6670 -6070 0
-6170 -6670 6070 0
-6170 7170 0
-6170 8170 0
6170 -7170 -8170 0
-6670 7670 0
-6670 8670 0
6670 -7670 -8670 0
-1 70 -7170 0
1 7170 0
-70 7170 0
-501 570 -7670 0
501 7670 0
-570 7670 0
1 -70 -8170 0
-1 8170 0
70 8170 0
501 -570 -8670 0
-501 8670 0
570 8670 0
6270 -6070 0
6770 -6070 0
-6270 -6770 6070 0
-6270 7270 0
-6270 8270 0
6270 -7270 -8270 0
-6770 7770 0
-6770 8770 0
6770 -7770 -8770 0
-101 170 -7270 0
101 7270 0
-170 7270 0
-601 670 -7770 0
601 7770 0
-670 7770 0
101 -170 -8270 0
-101 8270 0
170 8270 0
601 -670 -8770 0
-601 8770 0
670 8770 0
6370 -6070 0
6870 -6070 0
-6370 -6870 6070 0
-6370 7370 0
-6370 8370 0
6370 -7370 -8370 0
-6870 7870 0
-6870 8870 0
6870 -7870 -8870 0
-201 270 -7370 0
201 7370 0
-270 7370 0
-701 770 -7870 0
701 7870 0
-770 7870 0
201 -270 -8370 0
-201 8370 0
270 8370 0
701 -770 -8870 0
-701 8870 0
770 8870 0
6470 -6070 0
6970 -6070 0
-6470 -6970 6070 0
-6470 7470 0
-6470 8470 0
6470 -7470 -8470 0
-6970 7970 0
-6970 8970 0
6970 -7970 -8970 0
-301 370 -7470 0
301 7470 0
-370 7470 0
-801 870 -7970 0
801 7970 0
-870 7970 0
301 -370 -8470 0
-301 8470 0
370 8470 0
801 -870 -8970 0
-801 8970 0
870 8970 0
6570 -6070 0
7070 -6070 0
-6570 -7070 6070 0
-6570 7570 0
-6570 8570 0
6570 -7570 -8570 0
-7070 8070 0
-7070 9070 0
7070 -8070 -9070 0
-401 470 -7570 0
401 7570 0
-470 7570 0
-901 970 -8070 0
901 8070 0
-970 8070 0
401 -470 -8570 0
-401 8570 0
470 8570 0
901 -970 -9070 0
-901 9070 0
970 9070 0
6171 -6071 0
6671 -6071 0
-6171 -6671 6071 0
-6171 7171 0
-6171 8171 0
6171 -7171 -8171 0
-6671 7671 0
-6671 8671 0
6671 -7671 -8671 0
-1 71 -7171 0
1 7171 0
-71 7171 0
-501 571 -7671 0
501 7671 0
-571 7671 0
1 -71 -8171 0
-1 8171 0
71 8171 0
501 -571 -8671 0
-501 8671 0
571 8671 0
6271 -6071 0
6771 -6071 0
-6271 -6771 6071 0
-6271 7271 0
-6271 8271 0
6271 -7271 -8271 0
-6771 7771 0
-6771 8771 0
6771 -7771 -8771 0
-101 171 -7271 0
101 7271 0
-171 7271 0
-601 671 -7771 0
601 7771 0
-671 7771 0
101 -171 -8271 0
-101 8271 0
171 8271 0
601 -671 -8771 0
-601 8771 0
671 8771 0
6371 -6071 0
6871 -6071 0
-6371 -6871 6071 0
-6371 7371 0
-6371 8371 0
6371 -7371 -8371 0
-6871 7871 0
-6871 8871 0
6871 -7871 -8871 0
-201 271 -7371 0
201 7371 0
-271 7371 0
-701 771 -7871 0
701 7871 0
-771 7871 0
201 -271 -8371 0
-201 8371 0
271 8371 0
701 -771 -8871 0
-701 8871 0
771 8871 0
6471 -6071 0
6971 -6071 0
-6471 -6971 6071 0
-6471 7471 0
-6471 8471 0
6471 -7471 -8471 0
-6971 7971 0
-6971 8971 0
6971 -7971 -8971 0
-301 371 -7471 0
301 7471 0
-371 7471 0
-801 871 -7971 0
801 7971 0
-871 7971 0
301 -371 -8471 0
-301 8471 0
371 8471 0
801 -871 -8971 0
-801 8971 0
871 8971 0
6571 -6071 0
7071 -6071 0
-6571 -7071 6071 0
-6571 7571 0
-6571 8571 0
6571 -7571 -8571 0
-7071 8071 0
-7071 9071 0
7071 -8071 -9071 0
-401 471 -7571 0
401 7571 0
-471 7571 0
-901 971 -8071 0
901 8071 0
-971 8071 0
401 -471 -8571 0
-401 8571 0
471 8571 0
901 -971 -9071 0
-901 9071 0
971 9071 0
6172 -6072 0
6672 -6072 0
-6172 -6672 6072 0
-6172 7172 0
-6172 8172 0
6172 -7172 -8172 0
-6672 7672 0
-6672 8672 0
6672 -7672 -8672 0
-1 72 -7172 0
1 7172 0
-72 7172 0
-501 572 -7672 0
501 7672 0
-572 7672 0
1 -72 -8172 0
-1 8172 0
72 8172 0
501 -572 -8672 0
-501 8672 0
572 8672 0
6272 -6072 0
6772 -6072 0
-6272 -6772 6072 0
-6272 7272 0
-6272 8272 0
6272 -7272 -8272 0
-6772 7772 0
-6772 8772 0
6772 -7772 -8772 0
-101 172 -7272 0
101 7272 0
-172 7272 0
-601 672 -7772 0
601 7772 0
-672 7772 0
101 -172 -8272 0
-101 8272 0
172 8272 0
601 -672 -8772 0
-601 8772 0
672 8772 0
6372 -6072 0
6872 -6072 0
-6372 -6872 6072 0
-6372 7372 0
-6372 8372 0
6372 -7372 -8372 0
-6872 7872 0
-6872 8872 0
6872 -7872 -8872 0
-201 272 -7372 0
201 7372 0
-272 7372 0
-701 772 -7872 0
701 7872 0
-772 7872 0
201 -272 -8372 0
-201 8372 0
272 8372 0
701 -772 -8872 0
-701 8872 0
772 8872 0
6472 -6072 0
6972 -6072 0
-6472 -6972 6072 0
-6472 7472 0
-6472 8472 0
6472 -7472 -8472 0
-6972 7972 0
-6972 8972 0
6972 -7972 -8972 0
-301 372 -7472 0
301 7472 0
-372 7472 0
-801 872 -7972 0
801 7972 0
-872 7972 0
301 -372 -8472 0
-301 8472 0
372 8472 0
801 -872 -8972 0
-801 8972 0
872 8972 0
6572 -6072 0
7072 -6072 0
-6572 -7072 6072 0
-6572 7572 0
-6572 8572 0
6572 -7572 -8572 0
-7072 8072 0
-7072 9072 0
7072 -8072 -9072 0
-401 472 -7572 0
401 7572 0
-472 7572 0
-901 972 -8072 0
901 8072 0
-972 8072 0
401 -472 -8572 0
-401 8572 0
472 8572 0
901 -972 -9072 0
-901 9072 0
972 9072 0
6173 -6073 0
6673 -6073 0
-6173 -6673 6073 0
-6173 7173 0
-6173 8173 0
6173 -7173 -8173 0
-6673 7673 0
-6673 8673 0
6673 -7673 -8673 0
-1 73 -7173 0
1 7173 0
-73 7173 0
-501 573 -7673 0
501 7673 0
-573 7673 0
1 -73 -8173 0
-1 8173 0
73 8173 0
501 -573 -8673 0
-501 8673 0
573 8673 0
6273 -6073 0
6773 -6073 0
-6273 -6773 6073 0
-6273 7273 0
-6273 8273 0
6273 -7273 -8273 0
-6773 7773 0
-6773 8773 0
6773 -7773 -8773 0
-101 173 -7273 0
101 7273 0
-173 7273 0
-601 673 -7773 0
601 7773 0
-673 7773 0
101 -173 -8273 0
-101 8273 0
173 8273 0
601 -673 -8773 0
-601 8773 0
673 8773 0
6373 -6073 0
6873 -6073 0
-6373 -6873 6073 0
-6373 7373 0
-6373 8373 0
6373 -7373 -8373 0
-6873 7873 0
-6873 8873 0
6873 -7873 -8873 0
-201 273 -7373 0
201 7373 0
-273 7373 0
-701 773 -7873 0
701 7873 0
-773 7873 0
201 -273 -8373 0
-201 8373 0
273 8373 0
701 -773 -8873 0
-701 8873 0
773 8873 0
6473 -6073 0
6973 -6073 0
-6473 -6973 6073 0
-6473 7473 0
-6473 8473 0
6473 -7473 -8473 0
-6973 7973 0
-6973 8973 0
6973 -7973 -8973 0
-301 373 -7473 0
301 7473 0
-373 7473 0
-801 873 -7973 0
801 7973 0
-873 7973 0
301 -373 -8473 0
-301 8473 0
373 8473 0
801 -873 -8973 0
-801 8973 0
873 8973 0
6573 -6073 0
7073 -6073 0
-6573 -7073 6073 0
-6573 7573 0
-6573 8573 0
6573 -7573 -8573 0
-7073 8073 0
-7073 9073 0
7073 -8073 -9073 0
-401 473 -7573 0
401 7573 0
-473 7573 0
-901 973 -8073 0
901 8073 0
-973 8073 0
401 -473 -8573 0
-401 8573 0
473 8573 0
901 -973 -9073 0
-901 9073 0
973 9073 0
6174 -6074 0
6674 -6074 0
-6174 -6674 6074 0
-6174 7174 0
-6174 8174 0
6174 -7174 -8174 0
-6674 7674 0
-6674 8674 0
6674 -7674 -8674 0
-1 74 -7174 0
1 7174 0
-74 7174 0
-501 574 -7674 0
501 7674 0
-574 7674 0
1 -74 -8174 0
-1 8174 0
74 8174 0
501 -574 -8674 0
-501 8674 0
574 8674 0
6274 -6074 0
6774 -6074 0
-6274 -6774 6074 0
-6274 7274 0
-6274 8274 0
6274 -7274 -8274 0
-6774 7774 0
-6774 8774 0
6774 -7774 -8774 0
-101 174 -7274 0
101 7274 0
-174 7274 0
-601 674 -7774 0
601 7774 0
-674 7774 0
101 -174 -8274 0
-101 8274 0
174 8274 0
601 -674 -8774 0
-601 8774 0
674 8774 0
6374 -6074 0
6874 -6074 0
-6374 -6874 6074 0
-6374 7374 0
-6374 8374 0
6374 -7374 -8374 0
-6874 7874 0
-6874 8874 0
6874 -7874 -8874 0
-201 274 -7374 0
201 7374 0
-274 7374 0
-701 774 -7874 0
701 7874 0
-774 7874 0
201 -274 -8374 0
-201 8374 0
274 8374 0
701 -774 -8874 0
-701 8874 0
774 8874 0
6474 -6074 0
6974 -6074 0
-6474 -6974 6074 0
-6474 7474 0
-6474 8474 0
6474 -7474 -8474 0
-6974 7974 0
-6974 8974 0
6974 -7974 -8974 0
-301 374 -7474 0
301 7474 0
-374 7474 0
-801 874 -7974 0
801 7974 0
-874 7974 0
301 -374 -8474 0
-301 8474 0
374 8474 0
801 -874 -8974 0
-801 8974 0
874 8974 0
6574 -6074 0
7074 -6074 0
-6574 -7074 6074 0
-6574 7574 0
-6574 8574 0
6574 -7574 -8574 0
-7074 8074 0
-7074 9074 0
7074 -8074 -9074 0
-401 474 -7574 0
401 7574 0
-474 7574 0
-901 974 -8074 0
901 8074 0
-974 8074 0
401 -474 -8574 0
-401 8574 0
474 8574 0
901 -974 -9074 0
-901 9074 0
974 9074 0
6175 -6075 0
6675 -6075 0
-6175 -6675 6075 0
-6175 7175 0
-6175 8175 0
6175 -7175 -8175 0
-6675 7675 0
-6675 8675 0
6675 -7675 -8675 0
-1 75 -7175 0
1 7175 0
-75 7175 0
-501 575 -7675 0
501 7675 0
-575 7675 0
1 -75 -8175 0
-1 8175 0
75 8175 0
501 -575 -8675 0
-501 8675 0
575 8675 0
6275 -6075 0
6775 -6075 0
-6275 -6775 6075 0
-6275 7275 0
-6275 8275 0
6275 -7275 -8275 0
-6775 7775 0
-6775 8775 0
6775 -7775 -8775 0
-101 175 -7275 0
101 7275 0
-175 7275 0
-601 675 -7775 0
601 7775 0
-675 7775 0
101 -175 -8275 0
-101 8275 0
175 8275 0
601 -675 -8775 0
-601 8775 0
675 8775 0
6375 -6075 0
6875 -6075 0
-6375 -6875 6075 0
-6375 7375 0
-6375 8375 0
6375 -7375 -8375 0
-6875 7875 0
-6875 8875 0
6875 -7875 -8875 0
-201 275 -7375 0
201 7375 0
-275 7375 0
-701 775 -7875 0
701 7875 0
-775 7875 0
201 -275 -8375 0
-201 8375 0
275 8375 0
701 -775 -8875 0
-701 8875 0
775 8875 0
6475 -6075 0
6975 -6075 0
-6475 -6975 6075 0
-6475 7475 0
-6475 8475 0
6475 -7475 -8475 0
-6975 7975 0
-6975 8975 0
6975 -7975 -8975 0
-301 375 -7475 0
301 7475 0
-375 7475 0
-801 875 -7975 0
801 7975 0
-875 7975 0
301 -375 -8475 0
-301 8475 0
375 8475 0
801 -875 -8975 0
-801 8975 0
875 8975 0
6575 -6075 0
7075 -6075 0
-6575 -7075 6075 0
-6575 7575 0
-6575 8575 0
6575 -7575 -8575 0
-7075 8075 0
-7075 9075 0
7075 -8075 -9075 0
-401 475 -7575 0
401 7575 0
-475 7575 0
-901 975 -8075 0
901 8075 0
-975 8075 0
401 -475 -8575 0
-401 8575 0
475 8575 0
901 -975 -9075 0
-901 9075 0
975 9075 0
6176 -6076 0
6676 -6076 0
-6176 -6676 6076 0
-6176 7176 0
-6176 8176 0
6176 -7176 -8176 0
-6676 7676 0
-6676 8676 0
6676 -7676 -8676 0
-1 76 -7176 0
1 7176 0
-76 7176 0
-501 576 -7676 0
501 7676 0
-576 7676 0
1 -76 -8176 0
-1 8176 0
76 8176 0
501 -576 -8676 0
-501 8676 0
576 8676 0
6276 -6076 0
6776 -6076 0
-6276 -6776 6076 0
-6276 7276 0
-6276 8276 0
6276 -7276 -8276 0
-6776 7776 0
-6776 8776 0
6776 -7776 -8776 0
-101 176 -7276 0
101 7276 0
-176 7276 0
-601 676 -7776 0
601 7776 0
-676 7776 0
101 -176 -8276 0
-101 8276 0
176 8276 0
601 -676 -8776 0
-601 8776 0
676 8776 0
6376 -6076 0
6876 -6076 0
-6376 -6876 6076 0
-6376 7376 0
-6376 8376 0
6376 -7376 -8376 0
-6876 7876 0
-6876 8876 0
6876 -7876 -8876 0
-201 276 -7376 0
201 7376 0
-276 7376 0
-701 776 -7876 0
701 7876 0
-776 7876 0
201 -276 -8376 0
-201 8376 0
276 8376 0
701 -776 -8876 0
-701 8876 0
776 8876 0
6476 -6076 0
6976 -6076 0
-6476 -6976 6076 0
-6476 7476 0
-6476 8476 0
6476 -7476 -8476 0
-6976 7976 0
-6976 8976 0
6976 -7976 -8976 0
-301 376 -7476 0
301 7476 0
-376 7476 0
-801 876 -7976 0
801 7976 0
-876 7976 0
301 -376 -8476 0
-301 8476 0
376 8476 0
801 -876 -8976 0
-801 8976 0
876 8976 0
6576 -6076 0
7076 -6076 0
-6576 -7076 6076 0
-6576 7576 0
-6576 8576 0
6576 -7576 -8576 0
-7076 8076 0
-7076 9076 0
7076 -8076 -9076 0
-401 476 -7576 0
401 7576 0
-476 7576 0
-901 976 -8076 0
901 8076 0
-976 8076 0
401 -476 -8576 0
-401 8576 0
476 8576 0
901 -976 -9076 0
-901 9076 0
976 9076 0
6177 -6077 0
6677 -6077 0
-6177 -6677 6077 0
-6177 7177 0
-6177 8177 0
6177 -7177 -8177 0
-6677 7677 0
-6677 8677 0
6677 -7677 -8677 0
-1 77 -7177 0
1 7177 0
-77 7177 0
-501 577 -7677 0
501 7677 0
-577 7677 0
1 -77 -8177 0
-1 8177 0
77 8177 0
501 -577 -8677 0
-501 8677 0
577 8677 0
6277 -6077 0
6777 -6077 0
-6277 -6777 6077 0
-6277 7277 0
-6277 8277 0
6277 -7277 -8277 0
-6777 7777 0
-6777 8777 0
6777 -7777 -8777 0
-101 177 -7277 0
101 7277 0
-177 7277 0
-601 677 -7777 0
601 7777 0
-677 7777 0
101 -177 -8277 0
-101 8277 0
177 8277 0
601 -677 -8777 0
-601 8777 0
677 8777 0
6377 -6077 0
6877 -6077 0
-6377 -6877 6077 0
-6377 7377 0
-6377 8377 0
6377 -7377 -8377 0
-6877 7877 0
-6877 8877 0
6877 -7877 -8877 0
-201 277 -7377 0
201 7377 0
-277 7377 0
-701 777 -7877 0
701 7877 0
-777 7877 0
201 -277 -8377 0
-201 8377 0
277 8377 0
701 -777 -8877 0
-701 8877 0
777 8877 0
6477 -6077 0
6977 -6077 0
-6477 -6977 6077 0
-6477 7477 0
-6477 8477 0
6477 -7477 -8477 0
-6977 7977 0
-6977 8977 0
6977 -7977 -8977 0
-301 377 -7477 0
301 7477 0
-377 7477 0
-801 877 -7977 0
801 7977 0
-877 7977 0
301 -377 -8477 0
-301 8477 0
377 8477 0
801 -877 -8977 0
-801 8977 0
877 8977 0
6577 -6077 0
7077 -6077 0
-6577 -7077 6077 0
-6577 7577 0
-6577 8577 0
6577 -7577 -8577 0
-7077 8077 0
-7077 9077 0
7077 -8077 -9077 0
-401 477 -7577 0
401 7577 0
-477 7577 0
-901 977 -8077 0
901 8077 0
-977 8077 0
401 -477 -8577 0
-401 8577 0
477 8577 0
901 -977 -9077 0
-901 9077 0
977 9077 0
6178 -6078 0
6678 -6078 0
-6178 -6678 6078 0
-6178 7178 0
-6178 8178 0
6178 -7178 -8178 0
-6678 7678 0
-6678 8678 0
6678 -7678 -8678 0
-1 78 -7178 0
1 7178 0
-78 7178 0
-501 578 -7678 0
501 7678 0
-578 7678 0
1 -78 -8178 0
-1 8178 0
78 8178 0
501 -578 -8678 0
-501 8678 0
578 8678 0
6278 -6078 0
6778 -6078 0
-6278 -6778 6078 0
-6278 7278 0
-6278 8278 0
6278 -7278 -8278 0
-6778 7778 0
-6778 8778 0
6778 -7778 -8778 0
-101 178 -7278 0
101 7278 0
-178 7278 0
-601 678 -7778 0
601 7778 0
-678 7778 0
101 -178 -8278 0
-101 8278 0
178 8278 0
601 -678 -8778 0
-601 8778 0
678 8778 0
6378 -6078 0
6878 -6078 0
-6378 -6878 6078 0
-6378 7378 0
-6378 8378 0
6378 -7378 -8378 0
-6878 7878 0
-6878 8878 0
6878 -7878 -8878 0
-201 278 -7378 0
201 7378 0
-278 7378 0
-701 778 -7878 0
701 7878 0
-778 7878 0
201 -278 -8378 0
-201 8378 0
278 8378 0
701 -778 -8878 0
-701 8878 0
778 8878 0
6478 -6078 0
6978 -6078 0
-6478 -6978 6078 0
-6478 7478 0
-6478 8478 0
6478 -7478 -8478 0
-6978 7978 0
-6978 8978 0
6978 -7978 -8978 0
-301 378 -7478 0
301 7478 0
-378 7478 0
-801 878 -7978 0
801 7978 0
-878 7978 0
301 -378 -8478 0
-301 8478 0
378 8478 0
801 -878 -8978 0
-801 8978 0
878 8978 0
6578 -6078 0
7078 -6078 0
-6578 -7078 6078 0
-6578 7578 0
-6578 8578 0
6578 -7578 -8578 0
-7078 8078 0
-7078 9078 0
7078 -8078 -9078 0
-401 478 -7578 0
401 7578 0
-478 7578 0
-901 978 -8078 0
901 8078 0
-978 8078 0
401 -478 -8578 0
-401 8578 0
478 8578 0
901 -978 -9078 0
-901 9078 0
978 9078 0
6179 -6079 0
6679 -6079 0
-6179 -6679 6079 0
-6179 7179 0
-6179 8179 0
6179 -7179 -8179 0
-6679 7679 0
-6679 8679 0
6679 -7679 -8679 0
-1 79 -7179 0
1 7179 0
-79 7179 0
-501 579 -7679 0
501 7679 0
-579 7679 0
1 -79 -8179 0
-1 8179 0
79 8179 0
501 -579 -8679 0
-501 8679 0
579 8679 0
6279 -6079 0
6779 -6079 0
-6279 -6779 6079 0
-6279 7279 0
-6279 8279 0
6279 -7279 -8279 0
-6779 7779 0
-6779 8779 0
6779 -7779 -8779 0
-101 179 -7279 0
101 7279 0
-179 7279 0
-601 679 -7779 0
601 7779 0
-679 7779 0
101 -179 -8279 0
-101 8279 0
179 8279 0
601 -679 -8779 0
-601 8779 0
679 8779 0
6379 -6079 0
6879 -6079 0
-6379 -6879 6079 0
-6379 7379 0
-6379 8379 0
6379 -7379 -8379 0
-6879 7879 0
-6879 8879 0
6879 -7879 -8879 0
-201 279 -7379 0
201 7379 0
-279 7379 0
-701 779 -7879 0
701 7879 0
-779 7879 0
201 -279 -8379 0
-201 8379 0
279 8379 0
701 -779 -8879 0
-701 8879 0
779 8879 0
6479 -6079 0
6979 -6079 0
-6479 -6979 6079 0
-6479 7479 0
-6479 8479 0
6479 -7479 -8479 0
-6979 7979 0
-6979 8979 0
6979 -7979 -8979 0
-301 379 -7479 0
301 7479 0
-379 7479 0
-801 879 -7979 0
801 7979 0
-879 7979 0
301 -379 -8479 0
-301 8479 0
379 8479 0
801 -879 -8979 0
-801 8979 0
879 8979 0
6579 -6079 0
7079 -6079 0
-6579 -7079 6079 0
-6579 7579 0
-6579 8579 0
6579 -7579 -8579 0
-7079 8079 0
-7079 9079 0
7079 -8079 -9079 0
-401 479 -7579 0
401 7579 0
-479 7579 0
-901 979 -8079 0
901 8079 0
-979 8079 0
401 -479 -8579 0
-401 8579 0
479 8579 0
901 -979 -9079 0
-901 9079 0
979 9079 0
6180 -6080 0
6680 -6080 0
-6180 -6680 6080 0
-6180 7180 0
-6180 8180 0
6180 -7180 -8180 0
-6680 7680 0
-6680 8680 0
6680 -7680 -8680 0
-1 80 -7180 0
1 7180 0
-80 7180 0
-501 580 -7680 0
501 7680 0
-580 7680 0
1 -80 -8180 0
-1 8180 0
80 8180 0
501 -580 -8680 0
-501 8680 0
580 8680 0
6280 -6080 0
6780 -6080 0
-6280 -6780 6080 0
-6280 7280 0
-6280 8280 0
6280 -7280 -8280 0
-6780 7780 0
-6780 8780 0
6780 -7780 -8780 0
-101 180 -7280 0
101 7280 0
-180 7280 0
-601 680 -7780 0
601 7780 0
-680 7780 0
101 -180 -8280 0
-101 8280 0
180 8280 0
601 -680 -8780 0
-601 8780 0
680 8780 0
6380 -6080 0
6880 -6080 0
-6380 -6880 6080 0
-6380 7380 0
-6380 8380 0
6380 -7380 -8380 0
-6880 7880 0
-6880 8880 0
6880 -7880 -8880 0
-201 280 -7380 0
201 7380 0
-280 7380 0
-701 780 -7880 0
701 7880 0
-780 7880 0
201 -280 -8380 0
-201 8380 0
280 8380 0
701 -780 -8880 0
-701 8880 0
780 8880 0
6480 -6080 0
6980 -6080 0
-6480 -6980 6080 0
-6480 7480 0
-6480 8480 0
6480 -7480 -8480 0
-6980 7980 0
-6980 8980 0
6980 -7980 -8980 0
-301 380 -7480 0
301 7480 0
-380 7480 0
-801 880 -7980 0
801 7980 0
-880 7980 0
301 -380 -8480 0
-301 8480 0
380 8480 0
801 -880 -8980 0
-801 8980 0
880 8980 0
6580 -6080 0
7080 -6080 0
-6580 -7080 6080 0
-6580 7580 0
-6580 8580 0
6580 -7580 -8580 0
-7080 8080 0
-7080 9080 0
7080 -8080 -9080 0
-401 480 -7580 0
401 7580 0
-480 7580 0
-901 980 -8080 0
901 8080 0
-980 8080 0
401 -480 -8580 0
-401 8580 0
480 8580 0
901 -980 -9080 0
-901 9080 0
980 9080 0
6181 -6081 0
6681 -6081 0
-6181 -6681 6081 0
-6181 7181 0
-6181 8181 0
6181 -7181 -8181 0
-6681 7681 0
-6681 8681 0
6681 -7681 -8681 0
-1 81 -7181 0
1 7181 0
-81 7181 0
-501 581 -7681 0
501 7681 0
-581 7681 0
1 -81 -8181 0
-1 8181 0
81 8181 0
501 -581 -8681 0
-501 8681 0
581 8681 0
6281 -6081 0
6781 -6081 0
-6281 -6781 6081 0
-6281 7281 0
-6281 8281 0
6281 -7281 -8281 0
-6781 7781 0
-6781 8781 0
6781 -7781 -8781 0
-101 181 -7281 0
101 7281 0
-181 7281 0
-601 681 -7781 0
601 7781 0
-681 7781 0
101 -181 -8281 0
-101 8281 0
181 8281 0
601 -681 -8781 0
-601 8781 0
681 8781 0
6381 -6081 0
6881 -6081 0
-6381 -6881 6081 0
-6381 7381 0
-6381 8381 0
6381 -7381 -8381 0
-6881 7881 0
-6881 8881 0
6881 -7881 -8881 0
-201 281 -7381 0
201 7381 0
-281 7381 0
-701 781 -7881 0
701 7881 0
-781 7881 0
201 -281 -8381 0
-201 8381 0
281 8381 0
701 -781 -8881 0
-701 8881 0
781 8881 0
6481 -6081 0
6981 -6081 0
-6481 -6981 6081 0
-6481 7481 0
-6481 8481 0
6481 -7481 -8481 0
-6981 7981 0
-6981 8981 0
6981 -7981 -8981 0
-301 381 -7481 0
301 7481 0
-381 7481 0
-801 881 -7981 0
801 7981 0
-881 7981 0
301 -381 -8481 0
-301 8481 0
381 8481 0
801 -881 -8981 0
-801 8981 0
881 8981 0
6581 -6081 0
7081 -6081 0
-6581 -7081 6081 0
-6581 7581 0
-6581 8581 0
6581 -7581 -8581 0
-7081 8081 0
-7081 9081 0
7081 -8081 -9081 0
-401 481 -7581 0
401 7581 0
-481 7581 0
-901 981 -8081 0
901 8081 0
-981 8081 0
401 -481 -8581 0
-401 8581 0
481 8581 0
901 -981 -9081 0
-901 9081 0
981 9081 0
6182 -6082 0
6682 -6082 0
-6182 -6682 6082 0
-6182 7182 0
-6182 8182 0
6182 -7182 -8182 0
-6682 7682 0
-6682 8682 0
6682 -7682 -8682 0
-1 82 -7182 0
1 7182 0
-82 7182 0
-501 582 -7682 0
501 7682 0
-582 7682 0
1 -82 -8182 0
-1 8182 0
82 8182 0
501 -582 -8682 0
-501 8682 0
582 8682 0
6282 -6082 0
6782 -6082 0
-6282 -6782 6082 0
-6282 7282 0
-6282 8282 0
6282 -7282 -8282 0
-6782 7782 0
-6782 8782 0
6782 -7782 -8782 0
-101 182 -7282 0
101 7282 0
-182 7282 0
-601 682 -7782 0
601 7782 0
-682 7782 0
101 -182 -8282 0
-101 8282 0
182 8282 0
601 -682 -8782 0
-601 8782 0
682 8782 0
6382 -6082 0
6882 -6082 0
-6382 -6882 6082 0
-6382 7382 0
-6382 8382 0
6382 -7382 -8382 0
-6882 7882 0
-6882 8882 0
6882 -7882 -8882 0
-201 282 -7382 0
201 7382 0
-282 7382 0
-701 782 -7882 0
701 7882 0
-782 7882 0
201 -282 -8382 0
-201 8382 0
282 8382 0
701 -782 -8882 0
-701 8882 0
782 8882 0
6482 -6082 0
6982 -6082 0
-6482 -6982 6082 0
-6482 7482 0
-6482 8482 0
6482 -7482 -8482 0
-6982 7982 0
-6982 8982 0
6982 -7982 -8982 0
-301 382 -7482 0
301 7482 0
-382 7482 0
-801 882 -7982 0
801 7982 0
-882 7982 0
301 -382 -8482 0
-301 8482 0
382 8482 0
801 -882 -8982 0
-801 8982 0
882 8982 0
6582 -6082 0
7082 -6082 0
-6582 -7082 6082 0
-6582 7582 0
-6582 8582 0
6582 -7582 -8582 0
-7082 8082 0
-7082 9082 0
7082 -8082 -9082 0
-401 482 -7582 0
401 7582 0
-482 7582 0
-901 982 -8082 0
901 8082 0
-982 8082 0
401 -482 -8582 0
-401 8582 0
482 8582 0
901 -982 -9082 0
-901 9082 0
982 9082 0
6183 -6083 0
6683 -6083 0
-6183 -6683 6083 0
-6183 7183 0
-6183 8183 0
6183 -7183 -8183 0
-6683 7683 0
-6683 8683 0
6683 -7683 -8683 0
-1 83 -7183 0
1 7183 0
-83 7183 0
-501 583 -7683 0
501 7683 0
-583 7683 0
1 -83 -8183 0
-1 8183 0
83 8183 0
501 -583 -8683 0
-501 8683 0
583 8683 0
6283 -6083 0
6783 -6083 0
-6283 -6783 6083 0
-6283 7283 0
-6283 8283 0
6283 -7283 -8283 0
-6783 7783 0
-6783 8783 0
6783 -7783 -8783 0
-101 183 -7283 0
101 7283 0
-183 7283 0
-601 683 -7783 0
601 7783 0
-683 7783 0
101 -183 -8283 0
-101 8283 0
183 8283 0
601 -683 -8783 0
-601 8783 0
683 8783 0
6383 -6083 0
6883 -6083 0
-6383 -6883 6083 0
-6383 7383 0
-6383 8383 0
6383 -7383 -8383 0
-6883 7883 0
-6883 8883 0
6883 -7883 -8883 0
-201 283 -7383 0
201 7383 0
-283 7383 0
-701 783 -7883 0
701 7883 0
-783 7883 0
201 -283 -8383 0
-201 8383 0
283 8383 0
701 -783 -8883 0
-701 8883 0
783 8883 0
6483 -6083 0
6983 -6083 0
-6483 -6983 6083 0
-6483 7483 0
-6483 8483 0
6483 -7483 -8483 0
-6983 7983 0
-6983 8983 0
6983 -7983 -8983 0
-301 383 -7483 0
301 7483 0
-383 7483 0
-801 883 -7983 0
801 7983 0
-883 7983 0
301 -383 -8483 0
-301 8483 0
383 8483 0
801 -883 -8983 0
-801 8983 0
883 8983 0
6583 -6083 0
7083 -6083 0
-6583 -7083 6083 0
-6583 7583 0
-6583 8583 0
6583 -7583 -8583 0
-7083 8083 0
-7083 9083 0
7083 -8083 -9083 0
-401 483 -7583 0
401 7583 0
-483 7583 0
-901 983 -8083 0
901 8083 0
-983 8083 0
401 -483 -8583 0
-401 8583 0
483 8583 0
901 -983 -9083 0
-901 9083 0
983 9083 0
6184 -6084 0
6684 -6084 0
-6184 -6684 6084 0
-6184 7184 0
-6184 8184 0
6184 -7184 -8184 0
-6684 7684 0
-6684 8684 0
6684 -7684 -8684 0
-1 84 -7184 0
1 7184 0
-84 7184 0
-501 584 -7684 0
501 7684 0
-584 7684 0
1 -84 -8184 0
-1 8184 0
84 8184 0
501 -584 -8684 0
-501 8684 0
584 8684 0
6284 -6084 0
6784 -6084 0
-6284 -6784 6084 0
-6284 7284 0
-6284 8284 0
6284 -7284 -8284 0
-6784 7784 0
-6784 8784 0
6784 -7784 -8784 0
-101 184 -7284 0
101 7284 0
-184 7284 0
-601 684 -7784 0
601 7784 0
-684 7784 0
101 -184 -8284 0
-101 8284 0
184 8284 0
601 -684 -8784 0
-601 8784 0
684 8784 0
6384 -6084 0
6884 -6084 0
-6384 -6884 6084 0
-6384 7384 0
-6384 8384 0
6384 -7384 -8384 0
-6884 7884 0
-6884 8884 0
6884 -7884 -8884 0
-201 284 -7384 0
201 7384 0
-284 7384 0
-701 784 -7884 0
701 7884 0
-784 7884 0
201 -284 -8384 0
-201 8384 0
284 8384 0
701 -784 -8884 0
-701 8884 0
784 8884 0
6484 -6084 0
6984 -6084 0
-6484 -6984 6084 0
-6484 7484 0
-6484 8484 0
6484 -7484 -8484 0
-6984 7984 0
-6984 8984 0
6984 -7984 -8984 0
-301 384 -7484 0
301 7484 0
-384 7484 0
-801 884 -7984 0
801 7984 0
-884 7984 0
301 -384 -8484 0
-301 8484 0
384 8484 0
801 -884 -8984 0
-801 8984 0
884 8984 0
6584 -6084 0
7084 -6084 0
-6584 -7084 6084 0
-6584 7584 0
-6584 8584 0
6584 -7584 -8584 0
-7084 8084 0
-7084 9084 0
7084 -8084 -9084 0
-401 484 -7584 0
401 7584 0
-484 7584 0
-901 984 -8084 0
901 8084 0
-984 8084 0
401 -484 -8584 0
-401 8584 0
484 8584 0
901 -984 -9084 0
-901 9084 0
984 9084 0
6185 -6085 0
6685 -6085 0
-6185 -6685 6085 0
-6185 7185 0
-6185 8185 0
6185 -7185 -8185 0
-6685 7685 0
-6685 8685 0
6685 -7685 -8685 0
-1 85 -7185 0
1 7185 0
-85 7185 0
-501 585 -7685 0
501 7685 0
-585 7685 0
1 -85 -8185 0
-1 8185 0
85 8185 0
501 -585 -8685 0
-501 8685 0
585 8685 0
6285 -6085 0
6785 -6085 0
-6285 -6785 6085 0
-6285 7285 0
-6285 8285 0
6285 -7285 -8285 0
-6785 7785 0
-6785 8785 0
6785 -7785 -8785 0
-101 185 -7285 0
101 7285 0
-185 7285 0
-601 685 -7785 0
601 7785 0
-685 7785 0
101 -185 -8285 0
-101 8285 0
185 8285 0
601 -685 -8785 0
-601 8785 0
685 8785 0
6385 -6085 0
6885 -6085 0
-6385 -6885 6085 0
-6385 7385 0
-6385 8385 0
6385 -7385 -8385 0
-6885 7885 0
-6885 8885 0
6885 -7885 -8885 0
-201 285 -7385 0
201 7385 0
-285 7385 0
-701 785 -7885 0
701 7885 0
-785 7885 0
201 -285 -8385 0
-201 8385 0
285 8385 0
701 -785 -8885 0
-701 8885 0
785 8885 0
6485 -6085 0
6985 -6085 0
-6485 -6985 6085 0
-6485 7485 0
-6485 8485 0
6485 -7485 -8485 0
-6985 7985 0
-6985 8985 0
6985 -7985 -8985 0
-301 385 -7485 0
301 7485 0
-385 7485 0
-801 885 -7985 0
801 7985 0
-885 7985 0
301 -385 -8485 0
-301 8485 0
385 8485 0
801 -885 -8985 0
-801 8985 0
885 8985 0
6585 -6085 0
7085 -6085 0
-6585 -7085 6085 0
-6585 7585 0
-6585 8585 0
6585 -7585 -8585 0
-7085 8085 0
-7085 9085 0
7085 -8085 -9085 0
-401 485 -7585 0
401 7585 0
-485 7585 0
-901 985 -8085 0
901 8085 0
-985 8085 0
401 -485 -8585 0
-401 8585 0
485 8585 0
901 -985 -9085 0
-901 9085 0
985 9085 0
6186 -6086 0
6686 -6086 0
-6186 -6686 6086 0
-6186 7186 0
-6186 8186 0
6186 -7186 -8186 0
-6686 7686 0
-6686 8686 0
6686 -7686 -8686 0
-1 86 -7186 0
1 7186 0
-86 7186 0
-501 586 -7686 0
501 7686 0
-586 7686 0
1 -86 -8186 0
-1 8186 0
86 8186 0
501 -586 -8686 0
-501 8686 0
586 8686 0
6286 -6086 0
6786 -6086 0
-6286 -6786 6086 0
-6286 7286 0
-6286 8286 0
6286 -7286 -8286 0
-6786 7786 0
-6786 8786 0
6786 -7786 -8786 0
-101 186 -7286 0
101 7286 0
-186 7286 0
-601 686 -7786 0
601 7786 0
-686 7786 0
101 -186 -8286 0
-101 8286 0
186 8286 0
601 -686 -8786 0
-601 8786 0
686 8786 0
6386 -6086 0
6886 -6086 0
-6386 -6886 6086 0
-6386 7386 0
-6386 8386 0
6386 -7386 -8386 0
-6886 7886 0
-6886 8886 0
6886 -7886 -8886 0
-201 286 -7386 0
201 7386 0
-286 7386 0
-701 786 -7886 0
701 7886 0
-786 7886 0
201 -286 -8386 0
-201 8386 0
286 8386 0
701 -786 -8886 0
-701 8886 0
786 8886 0
6486 -6086 0
6986 -6086 0
-6486 -6986 6086 0
-6486 7486 0
-6486 8486 0
6486 -7486 -8486 0
-6986 7986 0
-6986 8986 0
6986 -7986 -8986 0
-301 386 -7486 0
301 7486 0
-386 7486 0
-801 886 -7986 0
801 7986 0
-886 7986 0
301 -386 -8486 0
-301 8486 0
386 8486 0
801 -886 -8986 0
-801 8986 0
886 8986 0
6586 -6086 0
7086 -6086 0
-6586 -7086 6086 0
-6586 7586 0
-6586 8586 0
6586 -7586 -8586 0
-7086 8086 0
-7086 9086 0
7086 -8086 -9086 0
-401 486 -7586 0
401 7586 0
-486 7586 0
-901 986 -8086 0
901 8086 0
-986 8086 0
401 -486 -8586 0
-401 8586 0
486 8586 0
901 -986 -9086 0
-901 9086 0
986 9086 0
6187 -6087 0
6687 -6087 0
-6187 -6687 6087 0
-6187 7187 0
-6187 8187 0
6187 -7187 -8187 0
-6687 7687 0
-6687 8687 0
6687 -7687 -8687 0
-1 87 -7187 0
1 7187 0
-87 7187 0
-501 587 -7687 0
501 7687 0
-587 7687 0
1 -87 -8187 0
-1 8187 0
87 8187 0
501 -587 -8687 0
-501 8687 0
587 8687 0
6287 -6087 0
6787 -6087 0
-6287 -6787 6087 0
-6287 7287 0
-6287 8287 0
6287 -7287 -8287 0
-6787 7787 0
-6787 8787 0
6787 -7787 -8787 0
-101 187 -7287 0
101 7287 0
-187 7287 0
-601 687 -7787 0
601 7787 0
-687 7787 0
101 -187 -8287 0
-101 8287 0
187 8287 0
601 -687 -8787 0
-601 8787 0
687 8787 0
6387 -6087 0
6887 -6087 0
-6387 -6887 6087 0
-6387 7387 0
-6387 8387 0
6387 -7387 -8387 0
-6887 7887 0
-6887 8887 0
6887 -7887 -8887 0
-201 287 -7387 0
201 7387 0
-287 7387 0
-701 787 -7887 0
701 7887 0
-787 7887 0
201 -287 -8387 0
-201 8387 0
287 8387 0
701 -787 -8887 0
-701 8887 0
787 8887 0
6487 -6087 0
6987 -6087 0
-6487 -6987 6087 0
-6487 7487 0
-6487 8487 0
6487 -7487 -8487 0
-6987 7987 0
-6987 8987 0
6987 -7987 -8987 0
-301 387 -7487 0
301 7487 0
-387 7487 0
-801 887 -7987 0
801 7987 0
-887 7987 0
301 -387 -8487 0
-301 8487 0
387 8487 0
801 -887 -8987 0
-801 8987 0
887 8987 0
6587 -6087 0
7087 -6087 0
-6587 -7087 6087 0
-6587 7587 0
-6587 8587 0
6587 -7587 -8587 0
-7087 8087 0
-7087 9087 0
7087 -8087 -9087 0
-401 487 -7587 0
401 7587 0
-487 7587 0
-901 987 -8087 0
901 8087 0
-987 8087 0
401 -487 -8587 0
-401 8587 0
487 8587 0
901 -987 -9087 0
-901 9087 0
987 9087 0
6188 -6088 0
6688 -6088 0
-6188 -6688 6088 0
-6188 7188 0
-6188 8188 0
6188 -7188 -8188 0
-6688 7688 0
-6688 8688 0
6688 -7688 -8688 0
-1 88 -7188 0
1 7188 0
-88 7188 0
-501 588 -7688 0
501 7688 0
-588 7688 0
1 -88 -8188 0
-1 8188 0
88 8188 0
501 -588 -8688 0
-501 8688 0
588 8688 0
6288 -6088 0
6788 -6088 0
-6288 -6788 6088 0
-6288 7288 0
-6288 8288 0
6288 -7288 -8288 0
-6788 7788 0
-6788 8788 0
6788 -7788 -8788 0
-101 188 -7288 0
101 7288 0
-188 7288 0
-601 688 -7788 0
601 7788 0
-688 7788 0
101 -188 -8288 0
-101 8288 0
188 8288 0
601 -688 -8788 0
-601 8788 0
688 8788 0
6388 -6088 0
6888 -6088 0
-6388 -6888 6088 0
-6388 7388 0
-6388 8388 0
6388 -7388 -8388 0
-6888 7888 0
-6888 8888 0
6888 -7888 -8888 0
-201 288 -7388 0
201 7388 0
-288 7388 0
-701 788 -7888 0
701 7888 0
-788 7888 0
201 -288 -8388 0
-201 8388 0
288 8388 0
701 -788 -8888 0
-701 8888 0
788 8888 0
6488 -6088 0
6988 -6088 0
-6488 -6988 6088 0
-6488 7488 0
-6488 8488 0
6488 -7488 -8488 0
-6988 7988 0
-6988 8988 0
6988 -7988 -8988 0
-301 388 -7488 0
301 7488 0
-388 7488 0
-801 888 -7988 0
801 7988 0
-888 7988 0
301 -388 -8488 0
-301 8488 0
388 8488 0
801 -888 -8988 0
-801 8988 0
888 8988 0
6588 -6088 0
7088 -6088 0
-6588 -7088 6088 0
-6588 7588 0
-6588 8588 0
6588 -7588 -8588 0
-7088 8088 0
-7088 9088 0
7088 -8088 -9088 0
-401 488 -7588 0
401 7588 0
-488 7588 0
-901 988 -8088 0
901 8088 0
-988 8088 0
401 -488 -8588 0
-401 8588 0
488 8588 0
901 -988 -9088 0
-901 9088 0
988 9088 0
6189 -6089 0
6689 -6089 0
-6189 -6689 6089 0
-6189 7189 0
-6189 8189 0
6189 -7189 -8189 0
-6689 7689 0
-6689 8689 0
6689 -7689 -8689 0
-1 89 -7189 0
1 7189 0
-89 7189 0
-501 589 -7689 0
501 7689 0
-589 7689 0
1 -89 -8189 0
-1 8189 0
89 8189 0
501 -589 -8689 0
-501 8689 0
589 8689 0
6289 -6089 0
6789 -6089 0
-6289 -6789 6089 0
-6289 7289 0
-6289 8289 0
6289 -7289 -8289 0
-6789 7789 0
-6789 8789 0
6789 -7789 -8789 0
-101 189 -7289 0
101 7289 0
-189 7289 0
-601 689 -7789 0
601 7789 0
-689 7789 0
101 -189 -8289 0
-101 8289 0
189 8289 0
601 -689 -8789 0
-601 8789 0
689 8789 0
6389 -6089 0
6889 -6089 0
-6389 -6889 6089 0
-6389 7389 0
-6389 8389 0
6389 -7389 -8389 0
-6889 7889 0
-6889 8889 0
6889 -7889 -8889 0
-201 289 -7389 0
201 7389 0
-289 7389 0
-701 789 -7889 0
701 7889 0
-789 7889 0
201 -289 -8389 0
-201 8389 0
289 8389 0
701 -789 -8889 0
-701 8889 0
789 8889 0
6489 -6089 0
6989 -6089 0
-6489 -6989 6089 0
-6489 7489 0
-6489 8489 0
6489 -7489 -8489 0
-6989 7989 0
-6989 8989 0
6989 -7989 -8989 0
-301 389 -7489 0
301 7489 0
-389 7489 0
-801 889 -7989 0
801 7989 0
-889 7989 0
301 -389 -8489 0
-301 8489 0
389 8489 0
801 -889 -8989 0
-801 8989 0
889 8989 0
6589 -6089 0
7089 -6089 0
-6589 -7089 6089 0
-6589 7589 0
-6589 8589 0
6589 -7589 -8589 0
-7089 8089 0
-7089 9089 0
7089 -8089 -9089 0
-401 489 -7589 0
401 7589 0
-489 7589 0
-901 989 -8089 0
901 8089 0
-989 8089 0
401 -489 -8589 0
-401 8589 0
489 8589 0
901 -989 -9089 0
-901 9089 0
989 9089 0
6190 -6090 0
6690 -6090 0
-6190 -6690 6090 0
-6190 7190 0
-6190 8190 0
6190 -7190 -8190 0
-6690 7690 0
-6690 8690 0
6690 -7690 -8690 0
-1 90 -7190 0
1 7190 0
-90 7190 0
-501 590 -7690 0
501 7690 0
-590 7690 0
1 -90 -8190 0
-1 8190 0
90 8190 0
501 -590 -8690 0
-501 8690 0
590 8690 0
6290 -6090 0
6790 -6090 0
-6290 -6790 6090 0
-6290 7290 0
-6290 8290 0
6290 -7290 -8290 0
-6790 7790 0
-6790 8790 0
6790 -7790 -8790 0
-101 190 -7290 0
101 7290 0
-190 7290 0
-601 690 -7790 0
601 7790 0
-690 7790 0
101 -190 -8290 0
-101 8290 0
190 8290 0
601 -690 -8790 0
-601 8790 0
690 8790 0
6390 -6090 0
6890 -6090 0
-6390 -6890 6090 0
-6390 7390 0
-6390 8390 0
6390 -7390 -8390 0
-6890 7890 0
-6890 8890 0
6890 -7890 -8890 0
-201 290 -7390 0
201 7390 0
-290 7390 0
-701 790 -7890 0
701 7890 0
-790 7890 0
201 -290 -8390 0
-201 8390 0
290 8390 0
701 -790 -8890 0
-701 8890 0
790 8890 0
6490 -6090 0
6990 -6090 0
-6490 -6990 6090 0
-6490 7490 0
-6490 8490 0
6490 -7490 -8490 0
-6990 7990 0
-6990 8990 0
6990 -7990 -8990 0
-301 390 -7490 0
301 7490 0
-390 7490 0
-801 890 -7990 0
801 7990 0
-890 7990 0
301 -390 -8490 0
-301 8490 0
390 8490 0
801 -890 -8990 0
-801 8990 0
890 8990 0
6590 -6090 0
7090 -6090 0
-6590 -7090 6090 0
-6590 7590 0
-6590 8590 0
6590 -7590 -8590 0
-7090 8090 0
-7090 9090 0
7090 -8090 -9090 0
-401 490 -7590 0
401 7590 0
-490 7590 0
-901 990 -8090 0
901 8090 0
-990 8090 0
401 -490 -8590 0
-401 8590 0
490 8590 0
901 -990 -9090 0
-901 9090 0
990 9090 0
6191 -6091 0
6691 -6091 0
-6191 -6691 6091 0
-6191 7191 0
-6191 8191 0
6191 -7191 -8191 0
-6691 7691 0
-6691 8691 0
6691 -7691 -8691 0
-1 91 -7191 0
1 7191 0
-91 7191 0
-501 591 -7691 0
501 7691 0
-591 7691 0
1 -91 -8191 0
-1 8191 0
91 8191 0
501 -591 -8691 0
-501 8691 0
591 8691 0
6291 -6091 0
6791 -6091 0
-6291 -6791 6091 0
-6291 7291 0
-6291 8291 0
6291 -7291 -8291 0
-6791 7791 0
-6791 8791 0
6791 -7791 -8791 0
-101 191 -7291 0
101 7291 0
-191 7291 0
-601 691 -7791 0
601 7791 0
-691 7791 0
101 -191 -8291 0
-101 8291 0
191 8291 0
601 -691 -8791 0
-601 8791 0
691 8791 0
6391 -6091 0
6891 -6091 0
-6391 -6891 6091 0
-6391 7391 0
-6391 8391 0
6391 -7391 -8391 0
-6891 7891 0
-6891 8891 0
6891 -7891 -8891 0
-201 291 -7391 0
201 7391 0
-291 7391 0
-701 791 -7891 0
701 7891 0
-791 7891 0
201 -291 -8391 0
-201 8391 0
291 8391 0
701 -791 -8891 0
-701 8891 0
791 8891 0
6491 -6091 0
6991 -6091 0
-6491 -6991 6091 0
-6491 7491 0
-6491 8491 0
6491 -7491 -8491 0
-6991 7991 0
-6991 8991 0
6991 -7991 -8991 0
-301 391 -7491 0
301 7491 0
-391 7491 0
-801 891 -7991 0
801 7991 0
-891 7991 0
301 -391 -8491 0
-301 8491 0
391 8491 0
801 -891 -8991 0
-801 8991 0
891 8991 0
6591 -6091 0
7091 -6091 0
-6591 -7091 6091 0
-6591 7591 0
-6591 8591 0
6591 -7591 -8591 0
-7091 8091 0
-7091 9091 0
7091 -8091 -9091 0
-401 491 -7591 0
401 7591 0
-491 7591 0
-901 991 -8091 0
901 8091 0
-991 8091 0
401 -491 -8591 0
-401 8591 0
491 8591 0
901 -991 -9091 0
-901 9091 0
991 9091 0
6192 -6092 0
6692 -6092 0
-6192 -6692 6092 0
-6192 7192 0
-6192 8192 0
6192 -7192 -8192 0
-6692 7692 0
-6692 8692 0
6692 -7692 -8692 0
-1 92 -7192 0
1 7192 0
-92 7192 0
-501 592 -7692 0
501 7692 0
-592 7692 0
1 -92 -8192 0
-1 8192 0
92 8192 0
501 -592 -8692 0
-501 8692 0
592 8692 0
6292 -6092 0
6792 -6092 0
-6292 -6792 6092 0
-6292 7292 0
-6292 8292 0
6292 -7292 -8292 0
-6792 7792 0
-6792 8792 0
6792 -7792 -8792 0
-101 192 -7292 0
101 7292 0
-192 7292 0
-601 692 -7792 0
601 7792 0
-692 7792 0
101 -192 -8292 0
-101 8292 0
192 8292 0
601 -692 -8792 0
-601 8792 0
692 8792 0
6392 -6092 0
6892 -6092 0
-6392 -6892 6092 0
-6392 7392 0
-6392 8392 0
6392 -7392 -8392 0
-6892 7892 0
-6892 8892 0
6892 -7892 -8892 0
-201 292 -7392 0
201 7392 0
-292 7392 0
-701 792 -7892 0
701 7892 0
-792 7892 0
201 -292 -8392 0
-201 8392 0
292 8392 0
701 -792 -8892 0
-701 8892 0
792 8892 0
6492 -6092 0
6992 -6092 0
-6492 -6992 6092 0
-6492 7492 0
-6492 8492 0
6492 -7492 -8492 0
-6992 7992 0
-6992 8992 0
6992 -7992 -8992 0
-301 392 -7492 0
301 7492 0
-392 7492 0
-801 892 -7992 0
801 7992 0
-892 7992 0
301 -392 -8492 0
-301 8492 0
392 8492 0
801 -892 -8992 0
-801 8992 0
892 8992 0
6592 -6092 0
7092 -6092 0
-6592 -7092 6092 0
-6592 7592 0
-6592 8592 0
6592 -7592 -8592 0
-7092 8092 0
-7092 9092 0
7092 -8092 -9092 0
-401 492 -7592 0
401 7592 0
-492 7592 0
-901 992 -8092 0
901 8092 0
-992 8092 0
401 -492 -8592 0
-401 8592 0
492 8592 0
901 -992 -9092 0
-901 9092 0
992 9092 0
6193 -6093 0
6693 -6093 0
-6193 -6693 6093 0
-6193 7193 0
-6193 8193 0
6193 -7193 -8193 0
-6693 7693 0
-6693 8693 0
6693 -7693 -8693 0
-1 93 -7193 0
1 7193 0
-93 7193 0
-501 593 -7693 0
501 7693 0
-593 7693 0
1 -93 -8193 0
-1 8193 0
93 8193 0
501 -593 -8693 0
-501 8693 0
593 8693 0
6293 -6093 0
6793 -6093 0
-6293 -6793 6093 0
-6293 7293 0
-6293 8293 0
6293 -7293 -8293 0
-6793 7793 0
-6793 8793 0
6793 -7793 -8793 0
-101 193 -7293 0
101 7293 0
-193 7293 0
-601 693 -7793 0
601 7793 0
-693 7793 0
101 -193 -8293 0
-101 8293 0
193 8293 0
601 -693 -8793 0
-601 8793 0
693 8793 0
6393 -6093 0
6893 -6093 0
-6393 -6893 6093 0
-6393 7393 0
-6393 8393 0
6393 -7393 -8393 0
-6893 7893 0
-6893 8893 0
6893 -7893 -8893 0
-201 293 -7393 0
201 7393 0
-293 7393 0
-701 793 -7893 0
701 7893 0
-793 7893 0
201 -293 -8393 0
-201 8393 0
293 8393 0
701 -793 -8893 0
-701 8893 0
793 8893 0
6493 -6093 0
6993 -6093 0
-6493 -6993 6093 0
-6493 7493 0
-6493 8493 0
6493 -7493 -8493 0
-6993 7993 0
-6993 8993 0
6993 -7993 -8993 0
-301 393 -7493 0
301 7493 0
-393 7493 0
-801 893 -7993 0
801 7993 0
-893 7993 0
301 -393 -8493 0
-301 8493 0
393 8493 0
801 -893 -8993 0
-801 8993 0
893 8993 0
6593 -6093 0
7093 -6093 0
-6593 -7093 6093 0
-6593 7593 0
-6593 8593 0
6593 -7593 -8593 0
-7093 8093 0
-7093 9093 0
7093 -8093 -9093 0
-401 493 -7593 0
401 7593 0
-493 7593 0
-901 993 -8093 0
901 8093 0
-993 8093 0
401 -493 -8593 0
-401 8593 0
493 8593 0
901 -993 -9093 0
-901 9093 0
993 9093 0
6194 -6094 0
6694 -6094 0
-6194 -6694 6094 0
-6194 7194 0
-6194 8194 0
6194 -7194 -8194 0
-6694 7694 0
-6694 8694 0
6694 -7694 -8694 0
-1 94 -7194 0
1 7194 0
-94 7194 0
-501 594 -7694 0
501 7694 0
-594 7694 0
1 -94 -8194 0
-1 8194 0
94 8194 0
501 -594 -8694 0
-501 8694 0
594 8694 0
6294 -6094 0
6794 -6094 0
-6294 -6794 6094 0
-6294 7294 0
-6294 8294 0
6294 -7294 -8294 0
-6794 7794 0
-6794 8794 0
6794 -7794 -8794 0
-101 194 -7294 0
101 7294 0
-194 7294 0
-601 694 -7794 0
601 7794 0
-694 7794 0
101 -194 -8294 0
-101 8294 0
194 8294 0
601 -694 -8794 0
-601 8794 0
694 8794 0
6394 -6094 0
6894 -6094 0
-6394 -6894 6094 0
-6394 7394 0
-6394 8394 0
6394 -7394 -8394 0
-6894 7894 0
-6894 8894 0
6894 -7894 -8894 0
-201 294 -7394 0
201 7394 0
-294 7394 0
-701 794 -7894 0
701 7894 0
-794 7894 0
201 -294 -8394 0
-201 8394 0
294 8394 0
701 -794 -8894 0
-701 8894 0
794 8894 0
6494 -6094 0
6994 -6094 0
-6494 -6994 6094 0
-6494 7494 0
-6494 8494 0
6494 -7494 -8494 0
-6994 7994 0
-6994 8994 0
6994 -7994 -8994 0
-301 394 -7494 0
301 7494 0
-394 7494 0
-801 894 -7994 0
801 7994 0
-894 7994 0
301 -394 -8494 0
-301 8494 0
394 8494 0
801 -894 -8994 0
-801 8994 0
894 8994 0
6594 -6094 0
7094 -6094 0
-6594 -7094 6094 0
-6594 7594 0
-6594 8594 0
6594 -7594 -8594 0
-7094 8094 0
-7094 9094 0
7094 -8094 -9094 0
-401 494 -7594 0
401 7594 0
-494 7594 0
-901 994 -8094 0
901 8094 0
-994 8094 0
401 -494 -8594 0
-401 8594 0
494 8594 0
901 -994 -9094 0
-901 9094 0
994 9094 0
6195 -6095 0
6695 -6095 0
-6195 -6695 6095 0
-6195 7195 0
-6195 8195 0
6195 -7195 -8195 0
-6695 7695 0
-6695 8695 0
6695 -7695 -8695 0
-1 95 -7195 0
1 7195 0
-95 7195 0
-501 595 -7695 0
501 7695 0
-595 7695 0
1 -95 -8195 0
-1 8195 0
95 8195 0
501 -595 -8695 0
-501 8695 0
595 8695 0
6295 -6095 0
6795 -6095 0
-6295 -6795 6095 0
-6295 7295 0
-6295 8295 0
6295 -7295 -8295 0
-6795 7795 0
-6795 8795 0
6795 -7795 -8795 0
-101 195 -7295 0
101 7295 0
-195 7295 0
-601 695 -7795 0
601 7795 0
-695 7795 0
101 -195 -8295 0
-101 8295 0
195 8295 0
601 -695 -8795 0
-601 8795 0
695 8795 0
6395 -6095 0
6895 -6095 0
-6395 -6895 6095 0
-6395 7395 0
-6395 8395 0
6395 -7395 -8395 0
-6895 7895 0
-6895 8895 0
6895 -7895 -8895 0
-201 295 -7395 0
201 7395 0
-295 7395 0
-701 795 -7895 0
701 7895 0
-795 7895 0
201 -295 -8395 0
-201 8395 0
295 8395 0
701 -795 -8895 0
-701 8895 0
795 8895 0
6495 -6095 0
6995 -6095 0
-6495 -6995 6095 0
-6495 7495 0
-6495 8495 0
6495 -7495 -8495 0
-6995 7995 0
-6995 8995 0
6995 -7995 -8995 0
-301 395 -7495 0
301 7495 0
-395 7495 0
-801 895 -7995 0
801 7995 0
-895 7995 0
301 -395 -8495 0
-301 8495 0
395 8495 0
801 -895 -8995 0
-801 8995 0
895 8995 0
6595 -6095 0
7095 -6095 0
-6595 -7095 6095 0
-6595 7595 0
-6595 8595 0
6595 -7595 -8595 0
-7095 8095 0
-7095 9095 0
7095 -8095 -9095 0
-401 495 -7595 0
401 7595 0
-495 7595 0
-901 995 -8095 0
901 8095 0
-995 8095 0
401 -495 -8595 0
-401 8595 0
495 8595 0
901 -995 -9095 0
-901 9095 0
995 9095 0
6196 -6096 0
6696 -6096 0
-6196 -6696 6096 0
-6196 7196 0
-6196 8196 0
6196 -7196 -8196 0
-6696 7696 0
-6696 8696 0
6696 -7696 -8696 0
-1 96 -7196 0
1 7196 0
-96 7196 0
-501 596 -7696 0
501 7696 0
-596 7696 0
1 -96 -8196 0
-1 8196 0
96 8196 0
501 -596 -8696 0
-501 8696 0
596 8696 0
6296 -6096 0
6796 -6096 0
-6296 -6796 6096 0
-6296 7296 0
-6296 8296 0
6296 -7296 -8296 0
-6796 7796 0
-6796 8796 0
6796 -7796 -8796 0
-101 196 -7296 0
101 7296 0
-196 7296 0
-601 696 -7796 0
601 7796 0
-696 7796 0
101 -196 -8296 0
-101 8296 0
196 8296 0
601 -696 -8796 0
-601 8796 0
696 8796 0
6396 -6096 0
6896 -6096 0
-6396 -6896 6096 0
-6396 7396 0
-6396 8396 0
6396 -7396 -8396 0
-6896 7896 0
-6896 8896 0
6896 -7896 -8896 0
-201 296 -7396 0
201 7396 0
-296 7396 0
-701 796 -7896 0
701 7896 0
-796 7896 0
201 -296 -8396 0
-201 8396 0
296 8396 0
701 -796 -8896 0
-701 8896 0
796 8896 0
6496 -6096 0
6996 -6096 0
-6496 -6996 6096 0
-6496 7496 0
-6496 8496 0
6496 -7496 -8496 0
-6996 7996 0
-6996 8996 0
6996 -7996 -8996 0
-301 396 -7496 0
301 7496 0
-396 7496 0
-801 896 -7996 0
801 7996 0
-896 7996 0
301 -396 -8496 0
-301 8496 0
396 8496 0
801 -896 -8996 0
-801 8996 0
896 8996 0
6596 -6096 0
7096 -6096 0
-6596 -7096 6096 0
-6596 7596 0
-6596 8596 0
6596 -7596 -8596 0
-7096 8096 0
-7096 9096 0
7096 -8096 -9096 0
-401 496 -7596 0
401 7596 0
-496 7596 0
-901 996 -8096 0
901 8096 0
-996 8096 0
401 -496 -8596 0
-401 8596 0
496 8596 0
901 -996 -9096 0
-901 9096 0
996 9096 0
6197 -6097 0
6697 -6097 0
-6197 -6697 6097 0
-6197 7197 0
-6197 8197 0
6197 -7197 -8197 0
-6697 7697 0
-6697 8697 0
6697 -7697 -8697 0
-1 97 -7197 0
1 7197 0
-97 7197 0
-501 597 -7697 0
501 7697 0
-597 7697 0
1 -97 -8197 0
-1 8197 0
97 8197 0
501 -597 -8697 0
-501 8697 0
597 8697 0
6297 -6097 0
6797 -6097 0
-6297 -6797 6097 0
-6297 7297 0
-6297 8297 0
6297 -7297 -8297 0
-6797 7797 0
-6797 8797 0
6797 -7797 -8797 0
-101 197 -7297 0
101 7297 0
-197 7297 0
-601 697 -7797 0
601 7797 0
-697 7797 0
101 -197 -8297 0
-101 8297 0
197 8297 0
601 -697 -8797 0
-601 8797 0
697 8797 0
6397 -6097 0
6897 -6097 0
-6397 -6897 6097 0
-6397 7397 0
-6397 8397 0
6397 -7397 -8397 0
-6897 7897 0
-6897 8897 0
6897 -7897 -8897 0
-201 297 -7397 0
201 7397 0
-297 7397 0
-701 797 -7897 0
701 7897 0
-797 7897 0
201 -297 -8397 0
-201 8397 0
297 8397 0
701 -797 -8897 0
-701 8897 0
797 8897 0
6497 -6097 0
6997 -6097 0
-6497 -6997 6097 0
-6497 7497 0
-6497 8497 0
6497 -7497 -8497 0
-6997 7997 0
-6997 8997 0
6997 -7997 -8997 0
-301 397 -7497 0
301 7497 0
-397 7497 0
-801 897 -7997 0
801 7997 0
-897 7997 0
301 -397 -8497 0
-301 8497 0
397 8497 0
801 -897 -8997 0
-801 8997 0
897 8997 0
6597 -6097 0
7097 -6097 0
-6597 -7097 6097 0
-6597 7597 0
-6597 8597 0
6597 -7597 -8597 0
-7097 8097 0
-7097 9097 0
7097 -8097 -9097 0
-401 497 -7597 0
401 7597 0
-497 7597 0
-901 997 -8097 0
901 8097 0
-997 8097 0
401 -497 -8597 0
-401 8597 0
497 8597 0
901 -997 -9097 0
-901 9097 0
997 9097 0
6198 -6098 0
6698 -6098 0
-6198 -6698 6098 0
-6198 7198 0
-6198 8198 0
6198 -7198 -8198 0
-6698 7698 0
-6698 8698 0
6698 -7698 -8698 0
-1 98 -7198 0
1 7198 0
-98 7198 0
-501 598 -7698 0
501 7698 0
-598 7698 0
1 -98 -8198 0
-1 8198 0
98 8198 0
501 -598 -8698 0
-501 8698 0
598 8698 0
6298 -6098 0
6798 -6098 0
-6298 -6798 6098 0
-6298 7298 0
-6298 8298 0
6298 -7298 -8298 0
-6798 7798 0
-6798 8798 0
6798 -7798 -8798 0
-101 198 -7298 0
101 7298 0
-198 7298 0
-601 698 -7798 0
601 7798 0
-698 7798 0
101 -198 -8298 0
-101 8298 0
198 8298 0
601 -698 -8798 0
-601 8798 0
698 8798 0
6398 -6098 0
6898 -6098 0
-6398 -6898 6098 0
-6398 7398 0
-6398 8398 0
6398 -7398 -8398 0
-6898 7898 0
-6898 8898 0
6898 -7898 -8898 0
-201 298 -7398 0
201 7398 0
-298 7398 0
-701 798 -7898 0
701 7898 0
-798 7898 0
201 -298 -8398 0
-201 8398 0
298 8398 0
701 -798 -8898 0
-701 8898 0
798 8898 0
6498 -6098 0
6998 -6098 0
-6498 -6998 6098 0
-6498 7498 0
-6498 8498 0
6498 -7498 -8498 0
-6998 7998 0
-6998 8998 0
6998 -7998 -8998 0
-301 398 -7498 0
301 7498 0
-398 7498 0
-801 898 -7998 0
801 7998 0
-898 7998 0
301 -398 -8498 0
-301 8498 0
398 8498 0
801 -898 -8998 0
-801 8998 0
898 8998 0
6598 -6098 0
7098 -6098 0
-6598 -7098 6098 0
-6598 7598 0
-6598 8598 0
6598 -7598 -8598 0
-7098 8098 0
-7098 9098 0
7098 -8098 -9098 0
-401 498 -7598 0
401 7598 0
-498 7598 0
-901 998 -8098 0
901 8098 0
-998 8098 0
401 -498 -8598 0
-401 8598 0
498 8598 0
901 -998 -9098 0
-901 9098 0
998 9098 0
6199 -6099 0
6699 -6099 0
-6199 -6699 6099 0
-6199 7199 0
-6199 8199 0
6199 -7199 -8199 0
-6699 7699 0
-6699 8699 0
6699 -7699 -8699 0
-1 99 -7199 0
1 7199 0
-99 7199 0
-501 599 -7699 0
501 7699 0
-599 7699 0
1 -99 -8199 0
-1 8199 0
99 8199 0
501 -599 -8699 0
-501 8699 0
599 8699 0
6299 -6099 0
6799 -6099 0
-6299 -6799 6099 0
-6299 7299 0
-6299 8299 0
6299 -7299 -8299 0
-6799 7799 0
-6799 8799 0
6799 -7799 -8799 0
-101 199 -7299 0
101 7299 0
-199 7299 0
-601 699 -7799 0
601 7799 0
-699 7799 0
101 -199 -8299 0
-101 8299 0
199 8299 0
601 -699 -8799 0
-601 8799 0
699 8799 0
6399 -6099 0
6899 -6099 0
-6399 -6899 6099 0
-6399 7399 0
-6399 8399 0
6399 -7399 -8399 0
-6899 7899 0
-6899 8899 0
6899 -7899 -8899 0
-201 299 -7399 0
201 7399 0
-299 7399 0
-701 799 -7899 0
701 7899 0
-799 7899 0
201 -299 -8399 0
-201 8399 0
299 8399 0
701 -799 -8899 0
-701 8899 0
799 8899 0
6499 -6099 0
6999 -6099 0
-6499 -6999 6099 0
-6499 7499 0
-6499 8499 0
6499 -7499 -8499 0
-6999 7999 0
-6999 8999 0
6999 -7999 -8999 0
-301 399 -7499 0
301 7499 0
-399 7499 0
-801 899 -7999 0
801 7999 0
-899 7999 0
301 -399 -8499 0
-301 8499 0
399 8499 0
801 -899 -8999 0
-801 8999 0
899 8999 0
6599 -6099 0
7099 -6099 0
-6599 -7099 6099 0
-6599 7599 0
-6599 8599 0
6599 -7599 -8599 0
-7099 8099 0
-7099 9099 0
7099 -8099 -9099 0
-401 499 -7599 0
401 7599 0
-499 7599 0
-901 999 -8099 0
901 8099 0
-999 8099 0
401 -499 -8599 0
-401 8599 0
499 8599 0
901 -999 -9099 0
-901 9099 0
999 9099 0
6200 -6100 0
6700 -6100 0
-6200 -6700 6100 0
-6200 7200 0
-6200 8200 0
6200 -7200 -8200 0
-6700 7700 0
-6700 8700 0
6700 -7700 -8700 0
-1 100 -7200 0
1 7200 0
-100 7200 0
-501 600 -7700 0
501 7700 0
-600 7700 0
1 -100 -8200 0
-1 8200 0
100 8200 0
501 -600 -8700 0
-501 8700 0
600 8700 0
6300 -6100 0
6800 -6100 0
-6300 -6800 6100 0
-6300 7300 0
-6300 8300 0
6300 -7300 -8300 0
-6800 7800 0
-6800 8800 0
6800 -7800 -8800 0
-101 200 -7300 0
101 7300 0
-200 7300 0
-601 700 -7800 0
601 7800 0
-700 7800 0
101 -200 -8300 0
-101 8300 0
200 8300 0
601 -700 -8800 0
-601 8800 0
700 8800 0
6400 -6100 0
6900 -6100 0
-6400 -6900 6100 0
-6400 7400 0
-6400 8400 0
6400 -7400 -8400 0
-6900 7900 0
-6900 8900 0
6900 -7900 -8900 0
-201 300 -7400 0
201 7400 0
-300 7400 0
-701 800 -7900 0
701 7900 0
-800 7900 0
201 -300 -8400 0
-201 8400 0
300 8400 0
701 -800 -8900 0
-701 8900 0
800 8900 0
6500 -6100 0
7000 -6100 0
-6500 -7000 6100 0
-6500 7500 0
-6500 8500 0
6500 -7500 -8500 0
-7000 8000 0
-7000 9000 0
7000 -8000 -9000 0
-301 400 -7500 0
301 7500 0
-400 7500 0
-801 900 -8000 0
801 8000 0
-900 8000 0
301 -400 -8500 0
-301 8500 0
400 8500 0
801 -900 -9000 0
-801 9000 0
900 9000 0
6600 -6100 0
7100 -6100 0
-6600 -7100 6100 0
-6600 7600 0
-6600 8600 0
6600 -7600 -8600 0
-7100 8100 0
-7100 9100 0
7100 -8100 -9100 0
-401 500 -7600 0
401 7600 0
-500 7600 0
-901 1000 -8100 0
901 8100 0
-1000 8100 0
401 -500 -8600 0
-401 8600 0
500 8600 0
901 -1000 -9100 0
-901 9100 0
1000 9100 0
-9101 0
-5501 9102 0
-5601 9102 0
-5501 -5601 9103 0
-5701 9104 0
-5801 9104 0
-5701 -5801 9105 0
-5901 9106 0
-9101 9106 0
-5901 -9101 9107 0
-9104 9108 0
-9106 9108 0
-9104 -9106 9109 0
-9105 9110 0
-9107 9110 0
-9105 -9107 9111 0
-9109 9112 0
-9110 9112 0
-9109 -9110 9113 0
-9102 9114 0
-9108 9114 0
-9102 -9108 9115 0
-9103 9116 0
-9112 9116 0
-9103 -9112 9117 0
-9115 9118 0
-9116 9118 0
-9115 -9116 9119 0
-9118 0
-9120 0
-5502 9121 0
-5602 9121 0
-5502 -5602 9122 0
-5702 9123 0
-5802 9123 0
-5702 -5802 9124 0
-5902 9125 0
-9120 9125 0
-5902 -9120 9126 0
-9123 9127 0
-9125 9127 0
-9123 -9125 9128 0
-9124 9129 0
-9126 9129 0
-9124 -9126 9130 0
-9128 9131 0
-9129 9131 0
-9128 -9129 9132 0
-9121 9133 0
-9127 9133 0
-9121 -9127 9134 0
-9122 9135 0
-9131 9135 0
-9122 -9131 9136 0
-9134 9137 0
-9135 9137 0
-9134 -9135 9138 0
-9137 0
-9139 0
-5503 9140 0
-5603 9140 0
-5503 -5603 9141 0
-5703 9142 0
-5803 9142 0
-5703 -5803 9143 0
-5903 9144 0
-9139 9144 0
-5903 -9139 9145 0
-9142 9146 0
-9144 9146 0
-9142 -9144 9147 0
-9143 9148 0
-9145 9148 0
-9143 -9145 9149 0
-9147 9150 0
-9148 9150 0
-9147 -9148 9151 0
-9140 9152 0
-9146 9152 0
-9140 -9146 9153 0
-9141 9154 0
-9150 9154 0
-9141 -9150 9155 0
-9153 9156 0
-9154 9156 0
-9153 -9154 9157 0
-9156 0
-9158 0
-5504 9159 0
-5604 9159 0
-5504 -5604 9160 0
-5704 9161 0
-5804 9161 0
-5704 -5804 9162 0
-5904 9163 0
-9158 9163 0
-5904 -9158 9164 0
-9161 9165 0
-9163 9165 0
-9161 -9163 9166 0
-9162 9167 0
-9164 9167 0
-9162 -9164 9168 0
-9166 9169 0
-9167 9169 0
-9166 -9167 9170 0
-9159 9171 0
-9165 9171 0
-9159 -9165 9172 0
-9160 9173 0
-9169 9173 0
-9160 -9169 9174 0
-9172 9175 0
-9173 9175 0
-9172 -9173 9176 0
-9175 0
-9177 0
-5505 9178 0
-5605 9178 0
-5505 -5605 9179 0
-5705 9180 0
-5805 9180 0
-5705 -5805 9181 0
-5905 9182 0
-9177 9182 0
-5905 -9177 9183 0
-9180 9184 0
-9182 9184 0
-9180 -9182 9185 0
-9181 9186 0
-9183 9186 0
-9181 -9183 9187 0
-9185 9188 0
-9186 9188 0
-9185 -9186 9189 0
-9178 9190 0
-9184 9190 0
-9178 -9184 9191 0
-9179 9192 0
-9188 9192 0
-9179 -9188 9193 0
-9191 9194 0
-9192 9194 0
-9191 -9192 9195 0
-9194 0
-9196 0
-5506 9197 0
-5606 9197 0
-5506 -5606 9198 0
-5706 9199 0
-5806 9199 0
-5706 -5806 9200 0
-5906 9201 0
-9196 9201 0
-5906 -9196 9202 0
-9199 9203 0
-9201 9203 0
-9199 -9201 9204 0
-9200 9205 0
-9202 9205 0
-9200 -9202 9206 0
-9204 9207 0
-9205 9207 0
-9204 -9205 9208 0
-9197 9209 0
-9203 9209 0
-9197 -9203 9210 0
-9198 9211 0
-9207 9211 0
-9198 -9207 9212 0
-9210 9213 0
-9211 9213 0
-9210 -9211 9214 0
-9213 0
-9215 0
-5507 9216 0
-5607 9216 0
-5507 -5607 9217 0
-5707 9218 0
-5807 9218 0
-5707 -5807 9219 0
-5907 9220 0
-9215 9220 0
-5907 -9215 9221 0
-9218 9222 0
-9220 9222 0
-9218 -9220 9223 0
-9219 9224 0
-9221 9224 0
-9219 -9221 9225 0
-9223 9226 0
-9224 9226 0
-9223 -9224 9227 0
-9216 9228 0
-9222 9228 0
-9216 -9222 9229 0
-9217 9230 0
-9226 9230 0
-9217 -9226 9231 0
-9229 9232 0
-9230 9232 0
-9229 -9230 9233 0
-9232 0
-9234 0
-5508 9235 0
-5608 9235 0
-5508 -5608 9236 0
-5708 9237 0
-5808 9237 0
-5708 -5808 9238 0
-5908 9239 0
-9234 9239 0
-5908 -9234 9240 0
-9237 9241 0
-9239 9241 0
-9237 -9239 9242 0
-9238 9243 0
-9240 9243 0
-9238 -9240 9244 0
-9242 9245 0
-9243 9245 0
-9242 -9243 9246 0
-9235 9247 0
-9241 9247 0
-9235 -9241 9248 0
-9236 9249 0
-9245 9249 0
-9236 -9245 9250 0
-9248 9251 0
-9249 9251 0
-9248 -9249 9252 0
-9251 0
-9253 0
-5509 9254 0
-5609 9254 0
-5509 -5609 9255 0
-5709 9256 0
-5809 9256 0
-5709 -5809 9257 0
-5909 9258 0
-9253 9258 0
-5909 -9253 9259 0
-9256 9260 0
-9258 9260 0
-9256 -9258 9261 0
-9257 9262 0
-9259 9262 0
-9257 -9259 9263 0
-9261 9264 0
-9262 9264 0
-9261 -9262 9265 0
-9254 9266 0
-9260 9266 0
-9254 -9260 9267 0
-9255 9268 0
-9264 9268 0
-9255 -9264 9269 0
-9267 9270 0
-9268 9270 0
-9267 -9268 9271 0
-9270 0
-9272 0
-5510 9273 0
-5610 9273 0
-5510 -5610 9274 0
-5710 9275 0
-5810 9275 0
-5710 -5810 9276 0
-5910 9277 0
-9272 9277 0
-5910 -9272 9278 0
-9275 9279 0
-9277 9279 0
-9275 -9277 9280 0
-9276 9281 0
-9278 9281 0
-9276 -9278 9282 0
-9280 9283 0
-9281 9283 0
-9280 -9281 9284 0
-9273 9285 0
-9279 9285 0
-9273 -9279 9286 0
-9274 9287 0
-9283 9287 0
-9274 -9283 9288 0
-9286 9289 0
-9287 9289 0
-9286 -9287 9290 0
-9289 0
-9291 0
-5511 9292 0
-5611 9292 0
-5511 -5611 9293 0
-5711 9294 0
-5811 9294 0
-5711 -5811 9295 0
-5911 9296 0
-9291 9296 0
-5911 -9291 9297 0
-9294 9298 0
-9296 9298 0
-9294 -9296 9299 0
-9295 9300 0
-9297 9300 0
-9295 -9297 9301 0
-9299 9302 0
-9300 9302 0
-9299 -9300 9303 0
-9292 9304 0
-9298 9304 0
-9292 -9298 9305 0
-9293 9306 0
-9302 9306 0
-9293 -9302 9307 0
-9305 9308 0
-9306 9308 0
-9305 -9306 9309 0
-9308 0
-9310 0
-5512 9311 0
-5612 9311 0
-5512 -5612 9312 0
-5712 9313 0
-5812 9313 0
-5712 -5812 9314 0
-5912 9315 0
-9310 9315 0
-5912 -9310 9316 0
-9313 9317 0
-9315 9317 0
-9313 -9315 9318 0
-9314 9319 0
-9316 9319 0
-9314 -9316 9320 0
-9318 9321 0
-9319 9321 0
-9318 -9319 9322 0
-9311 9323 0
-9317 9323 0
-9311 -9317 9324 0
-9312 9325 0
-9321 9325 0
-9312 -9321 9326 0
-9324 9327 0
-9325 9327 0
-9324 -9325 9328 0
-9327 0
-9329 0
-5513 9330 0
-5613 9330 0
-5513 -5613 9331 0
-5713 9332 0
-5813 9332 0
-5713 -5813 9333 0
-5913 9334 0
-9329 9334 0
-5913 -9329 9335 0
-9332 9336 0
-9334 9336 0
-9332 -9334 9337 0
-9333 9338 0
-9335 9338 0
-9333 -9335 9339 0
-9337 9340 0
-9338 9340 0
-9337 -9338 9341 0
-9330 9342 0
-9336 9342 0
-9330 -9336 9343 0
-9331 9344 0
-9340 9344 0
-9331 -9340 9345 0
-9343 9346 0
-9344 9346 0
-9343 -9344 9347 0
-9346 0
-9348 0
-5514 9349 0
-5614 9349 0
-5514 -5614 9350 0
-5714 9351 0
-5814 9351 0
-5714 -5814 9352 0
-5914 9353 0
-9348 9353 0
-5914 -9348 9354 0
-9351 9355 0
-9353 9355 0
-9351 -9353 9356 0
-9352 9357 0
-9354 9357 0
-9352 -9354 9358 0
-9356 9359 0
-9357 9359 0
-9356 -9357 9360 0
-9349 9361 0
-9355 9361 0
-9349 -9355 9362 0
-9350 9363 0
-9359 9363 0
-9350 -9359 9364 0
-9362 9365 0
-9363 9365 0
-9362 -9363 9366 0
-9365 0
-9367 0
-5515 9368 0
-5615 9368 0
-5515 -5615 9369 0
-5715 9370 0
-5815 9370 0
-5715 -5815 9371 0
-5915 9372 0
-9367 9372 0
-5915 -9367 9373 0
-9370 9374 0
-9372 9374 0
-9370 -9372 9375 0
-9371 9376 0
-9373 9376 0
-9371 -9373 9377 0
-9375 9378 0
-9376 9378 0
-9375 -9376 9379 0
-9368 9380 0
-9374 9380 0
-9368 -9374 9381 0
-9369 9382 0
-9378 9382 0
-9369 -9378 9383 0
-9381 9384 0
-9382 9384 0
-9381 -9382 9385 0
-9384 0
-9386 0
-5516 9387 0
-5616 9387 0
-5516 -5616 9388 0
-5716 9389 0
-5816 9389 0
-5716 -5816 9390 0
-5916 9391 0
-9386 9391 0
-5916 -9386 9392 0
-9389 9393 0
-9391 9393 0
-9389 -9391 9394 0
-9390 9395 0
-9392 9395 0
-9390 -9392 9396 0
-9394 9397 0
-9395 9397 0
-9394 -9395 9398 0
-9387 9399 0
-9393 9399 0
-9387 -9393 9400 0
-9388 9401 0
-9397 9401 0
-9388 -9397 9402 0
-9400 9403 0
-9401 9403 0
-9400 -9401 9404 0
-9403 0
-9405 0
-5517 9406 0
-5617 9406 0
-5517 -5617 9407 0
-5717 9408 0
-5817 9408 0
-5717 -5817 9409 0
-5917 9410 0
-9405 9410 0
-5917 -9405 9411 0
-9408 9412 0
-9410 9412 0
-9408 -9410 9413 0
-9409 9414 0
-9411 9414 0
-9409 -9411 9415 0
-9413 9416 0
-9414 9416 0
-9413 -9414 9417 0
-9406 9418 0
-9412 9418 0
-9406 -9412 9419 0
-9407 9420 0
-9416 9420 0
-9407 -9416 9421 0
-9419 9422 0
-9420 9422 0
-9419 -9420 9423 0
-9422 0
-9424 0
-5518 9425 0
-5618 9425 0
-5518 -5618 9426 0
-5718 9427 0
-5818 9427 0
-5718 -5818 9428 0
-5918 9429 0
-9424 9429 0
-5918 -9424 9430 0
-9427 9431 0
-9429 9431 0
-9427 -9429 9432 0
-9428 9433 0
-9430 9433 0
-9428 -9430 9434 0
-9432 9435 0
-9433 9435 0
-9432 -9433 9436 0
-9425 9437 0
-9431 9437 0
-9425 -9431 9438 0
-9426 9439 0
-9435 9439 0
-9426 -9435 9440 0
-9438 9441 0
-9439 9441 0
-9438 -9439 9442 0
-9441 0
-9443 0
-5519 9444 0
-5619 9444 0
-5519 -5619 9445 0
-5719 9446 0
-5819 9446 0
-5719 -5819 9447 0
-5919 9448 0
-9443 9448 0
-5919 -9443 9449 0
-9446 9450 0
-9448 9450 0
-9446 -9448 9451 0
-9447 9452 0
-9449 9452 0
-9447 -9449 9453 0
-9451 9454 0
-9452 9454 0
-9451 -9452 9455 0
-9444 9456 0
-9450 9456 0
-9444 -9450 9457 0
-9445 9458 0
-9454 9458 0
-9445 -9454 9459 0
-9457 9460 0
-9458 9460 0
-9457 -9458 9461 0
-9460 0
-9462 0
-5520 9463 0
-5620 9463 0
-5520 -5620 9464 0
-5720 9465 0
-5820 9465 0
-5720 -5820 9466 0
-5920 9467 0
-9462 9467 0
-5920 -9462 9468 0
-9465 9469 0
-9467 9469 0
-9465 -9467 9470 0
-9466 9471 0
-9468 9471 0
-9466 -9468 9472 0
-9470 9473 0
-9471 9473 0
-9470 -9471 9474 0
-9463 9475 0
-9469 9475 0
-9463 -9469 9476 0
-9464 9477 0
-9473 9477 0
-9464 -9473 9478 0
-9476 9479 0
-9477 9479 0
-9476 -9477 9480 0
-9479 0
-9481 0
-5521 9482 0
-5621 9482 0
-5521 -5621 9483 0
-5721 9484 0
-5821 9484 0
-5721 -5821 9485 0
-5921 9486 0
-9481 9486 0
-5921 -9481 9487 0
-9484 9488 0
-9486 9488 0
-9484 -9486 9489 0
-9485 9490 0
-9487 9490 0
-9485 -9487 9491 0
-9489 9492 0
-9490 9492 0
-9489 -9490 9493 0
-9482 9494 0
-9488 9494 0
-9482 -9488 9495 0
-9483 9496 0
-9492 9496 0
-9483 -9492 9497 0
-9495 9498 0
-9496 9498 0
-9495 -9496 9499 0
-9498 0
-9500 0
-5522 9501 0
-5622 9501 0
-5522 -5622 9502 0
-5722 9503 0
-5822 9503 0
-5722 -5822 9504 0
-5922 9505 0
-9500 9505 0
-5922 -9500 9506 0
-9503 9507 0
-9505 9507 0
-9503 -9505 9508 0
-9504 9509 0
-9506 9509 0
-9504 -9506 9510 0
-9508 9511 0
-9509 9511 0
-9508 -9509 9512 0
-9501 9513 0
-9507 9513 0
-9501 -9507 9514 0
-9502 9515 0
-9511 9515 0
-9502 -9511 9516 0
-9514 9517 0
-9515 9517 0
-9514 -9515 9518 0
-9517 0
-9519 0
-5523 9520 0
-5623 9520 0
-5523 -5623 9521 0
-5723 9522 0
-5823 9522 0
-5723 -5823 9523 0
-5923 9524 0
-9519 9524 0
-5923 -9519 9525 0
-9522 9526 0
-9524 9526 0
-9522 -9524 9527 0
-9523 9528 0
-9525 9528 0
-9523 -9525 9529 0
-9527 9530 0
-9528 9530 0
-9527 -9528 9531 0
-9520 9532 0
-9526 9532 0
-9520 -9526 9533 0
-9521 9534 0
-9530 9534 0
-9521 -9530 9535 0
-9533 9536 0
-9534 9536 0
-9533 -9534 9537 0
-9536 0
-9538 0
-5524 9539 0
-5624 9539 0
-5524 -5624 9540 0
-5724 9541 0
-5824 9541 0
-5724 -5824 9542 0
-5924 9543 0
-9538 9543 0
-5924 -9538 9544 0
-9541 9545 0
-9543 9545 0
-9541 -9543 9546 0
-9542 9547 0
-9544 9547 0
-9542 -9544 9548 0
-9546 9549 0
-9547 9549 0
-9546 -9547 9550 0
-9539 9551 0
-9545 9551 0
-9539 -9545 9552 0
-9540 9553 0
-9549 9553 0
-9540 -9549 9554 0
-9552 9555 0
-9553 9555 0
-9552 -9553 9556 0
-9555 0
-9557 0
-5525 9558 0
-5625 9558 0
-5525 -5625 9559 0
-5725 9560 0
-5825 9560 0
-5725 -5825 9561 0
-5925 9562 0
-9557 9562 0
-5925 -9557 9563 0
-9560 9564 0
-9562 9564 0
-9560 -9562 9565 0
-9561 9566 0
-9563 9566 0
-9561 -9563 9567 0
-9565 9568 0
-9566 9568 0
-9565 -9566 9569 0
-9558 9570 0
-9564 9570 0
-9558 -9564 9571 0
-9559 9572 0
-9568 9572 0
-9559 -9568 9573 0
-9571 9574 0
-9572 9574 0
-9571 -9572 9575 0
-9574 0
-9576 0
-5526 9577 0
-5626 9577 0
-5526 -5626 9578 0
-5726 9579 0
-5826 9579 0
-5726 -5826 9580 0
-5926 9581 0
-9576 9581 0
-5926 -9576 9582 0
-9579 9583 0
-9581 9583 0
-9579 -9581 9584 0
-9580 9585 0
-9582 9585 0
-9580 -9582 9586 0
-9584 9587 0
-9585 9587 0
-9584 -9585 9588 0
-9577 9589 0
-9583 9589 0
-9577 -9583 9590 0
-9578 9591 0
-9587 9591 0
-9578 -9587 9592 0
-9590 9593 0
-9591 9593 0
-9590 -9591 9594 0
-9593 0
-9595 0
-5527 9596 0
-5627 9596 0
-5527 -5627 9597 0
-5727 9598 0
-5827 9598 0
-5727 -5827 9599 0
-5927 9600 0
-9595 9600 0
-5927 -9595 9601 0
-9598 9602 0
-9600 9602 0
-9598 -9600 9603 0
-9599 9604 0
-9601 9604 0
-9599 -9601 9605 0
-9603 9606 0
-9604 9606 0
-9603 -9604 9607 0
-9596 9608 0
-9602 9608 0
-9596 -9602 9609 0
-9597 9610 0
-9606 9610 0
-9597 -9606 9611 0
-9609 9612 0
-9610 9612 0
-9609 -9610 9613 0
-9612 0
-9614 0
-5528 9615 0
-5628 9615 0
-5528 -5628 9616 0
-5728 9617 0
-5828 9617 0
-5728 -5828 9618 0
-5928 9619 0
-9614 9619 0
-5928 -9614 9620 0
-9617 9621 0
-9619 9621 0
-9617 -9619 9622 0
-9618 9623 0
-9620 9623 0
-9618 -9620 9624 0
-9622 9625 0
-9623 9625 0
-9622 -9623 9626 0
-9615 9627 0
-9621 9627 0
-9615 -9621 9628 0
-9616 9629 0
-9625 9629 0
-9616 -9625 9630 0
-9628 9631 0
-9629 9631 0
-9628 -9629 9632 0
-9631 0
-9633 0
-5529 9634 0
-5629 9634 0
-5529 -5629 9635 0
-5729 9636 0
-5829 9636 0
-5729 -5829 9637 0
-5929 9638 0
-9633 9638 0
-5929 -9633 9639 0
-9636 9640 0
-9638 9640 0
-9636 -9638 9641 0
-9637 9642 0
-9639 9642 0
-9637 -9639 9643 0
-9641 9644 0
-9642 9644 0
-9641 -9642 9645 0
-9634 9646 0
-9640 9646 0
-9634 -9640 9647 0
-9635 9648 0
-9644 9648 0
-9635 -9644 9649 0
-9647 9650 0
-9648 9650 0
-9647 -9648 9651 0
-9650 0
-9652 0
-5530 9653 0
-5630 9653 0
-5530 -5630 9654 0
-5730 9655 0
-5830 9655 0
-5730 -5830 9656 0
-5930 9657 0
-9652 9657 0
-5930 -9652 9658 0
-9655 9659 0
-9657 9659 0
-9655 -9657 9660 0
-9656 9661 0
-9658 9661 0
-9656 -9658 9662 0
-9660 9663 0
-9661 9663 0
-9660 -9661 9664 0
-9653 9665 0
-9659 9665 0
-9653 -9659 9666 0
-9654 9667 0
-9663 9667 0
-9654 -9663 9668 0
-9666 9669 0
-9667 9669 0
-9666 -9667 9670 0
-9669 0
-9671 0
-5531 9672 0
-5631 9672 0
-5531 -5631 9673 0
-5731 9674 0
-5831 9674 0
-5731 -5831 9675 0
-5931 9676 0
-9671 9676 0
-5931 -9671 9677 0
-9674 9678 0
-9676 9678 0
-9674 -9676 9679 0
-9675 9680 0
-9677 9680 0
-9675 -9677 9681 0
-9679 9682 0
-9680 9682 0
-9679 -9680 9683 0
-9672 9684 0
-9678 9684 0
-9672 -9678 9685 0
-9673 9686 0
-9682 9686 0
-9673 -9682 9687 0
-9685 9688 0
-9686 9688 0
-9685 -9686 9689 0
-9688 0
-9690 0
-5532 9691 0
-5632 9691 0
-5532 -5632 9692 0
-5732 9693 0
-5832 9693 0
-5732 -5832 9694 0
-5932 9695 0
-9690 9695 0
-5932 -9690 9696 0
-9693 9697 0
-9695 9697 0
-9693 -9695 9698 0
-9694 9699 0
-9696 9699 0
-9694 -9696 9700 0
-9698 9701 0
-9699 9701 0
-9698 -9699 9702 0
-9691 9703 0
-9697 9703 0
-9691 -9697 9704 0
-9692 9705 0
-9701 9705 0
-9692 -9701 9706 0
-9704 9707 0
-9705 9707 0
-9704 -9705 9708 0
-9707 0
-9709 0
-5533 9710 0
-5633 9710 0
-5533 -5633 9711 0
-5733 9712 0
-5833 9712 0
-5733 -5833 9713 0
-5933 9714 0
-9709 9714 0
-5933 -9709 9715 0
-9712 9716 0
-9714 9716 0
-9712 -9714 9717 0
-9713 9718 0
-9715 9718 0
-9713 -9715 9719 0
-9717 9720 0
-9718 9720 0
-9717 -9718 9721 0
-9710 9722 0
-9716 9722 0
-9710 -9716 9723 0
-9711 9724 0
-9720 9724 0
-9711 -9720 9725 0
-9723 9726 0
-9724 9726 0
-9723 -9724 9727 0
-9726 0
-9728 0
-5534 9729 0
-5634 9729 0
-5534 -5634 9730 0
-5734 9731 0
-5834 9731 0
-5734 -5834 9732 0
-5934 9733 0
-9728 9733 0
-5934 -9728 9734 0
-9731 9735 0
-9733 9735 0
-9731 -9733 9736 0
-9732 9737 0
-9734 9737 0
-9732 -9734 9738 0
-9736 9739 0
-9737 9739 0
-9736 -9737 9740 0
-9729 9741 0
-9735 9741 0
-9729 -9735 9742 0
-9730 9743 0
-9739 9743 0
-9730 -9739 9744 0
-9742 9745 0
-9743 9745 0
-9742 -9743 9746 0
-9745 0
-9747 0
-5535 9748 0
-5635 9748 0
-5535 -5635 9749 0
-5735 9750 0
-5835 9750 0
-5735 -5835 9751 0
-5935 9752 0
-9747 9752 0
-5935 -9747 9753 0
-9750 9754 0
-9752 9754 0
-9750 -9752 9755 0
-9751 9756 0
-9753 9756 0
-9751 -9753 9757 0
-9755 9758 0
-9756 9758 0
-9755 -9756 9759 0
-9748 9760 0
-9754 9760 0
-9748 -9754 9761 0
-9749 9762 0
-9758 9762 0
-9749 -9758 9763 0
-9761 9764 0
-9762 9764 0
-9761 -9762 9765 0
-9764 0
-9766 0
-5536 9767 0
-5636 9767 0
-5536 -5636 9768 0
-5736 9769 0
-5836 9769 0
-5736 -5836 9770 0
-5936 9771 0
-9766 9771 0
-5936 -9766 9772 0
-9769 9773 0
-9771 9773 0
-9769 -9771 9774 0
-9770 9775 0
-9772 9775 0
-9770 -9772 9776 0
-9774 9777 0
-9775 9777 0
-9774 -9775 9778 0
-9767 9779 0
-9773 9779 0
-9767 -9773 9780 0
-9768 9781 0
-9777 9781 0
-9768 -9777 9782 0
-9780 9783 0
-9781 9783 0
-9780 -9781 9784 0
-9783 0
-9785 0
-5537 9786 0
-5637 9786 0
-5537 -5637 9787 0
-5737 9788 0
-5837 9788 0
-5737 -5837 9789 0
-5937 9790 0
-9785 9790 0
-5937 -9785 9791 0
-9788 9792 0
-9790 9792 0
-9788 -9790 9793 0
-9789 9794 0
-9791 9794 0
-9789 -9791 9795 0
-9793 9796 0
-9794 9796 0
-9793 -9794 9797 0
-9786 9798 0
-9792 9798 0
-9786 -9792 9799 0
-9787 9800 0
-9796 9800 0
-9787 -9796 9801 0
-9799 9802 0
-9800 9802 0
-9799 -9800 9803 0
-9802 0
-9804 0
-5538 9805 0
-5638 9805 0
-5538 -5638 9806 0
-5738 9807 0
-5838 9807 0
-5738 -5838 9808 0
-5938 9809 0
-9804 9809 0
-5938 -9804 9810 0
-9807 9811 0
-9809 9811 0
-9807 -9809 9812 0
-9808 9813 0
-9810 9813 0
-9808 -9810 9814 0
-9812 9815 0
-9813 9815 0
-9812 -9813 9816 0
-9805 9817 0
-9811 9817 0
-9805 -9811 9818 0
-9806 9819 0
-9815 9819 0
-9806 -9815 9820 0
-9818 9821 0
-9819 9821 0
-9818 -9819 9822 0
-9821 0
-9823 0
-5539 9824 0
-5639 9824 0
-5539 -5639 9825 0
-5739 9826 0
-5839 9826 0
-5739 -5839 9827 0
-5939 9828 0
-9823 9828 0
-5939 -9823 9829 0
-9826 9830 0
-9828 9830 0
-9826 -9828 9831 0
-9827 9832 0
-9829 9832 0
-9827 -9829 9833 0
-9831 9834 0
-9832 9834 0
-9831 -9832 9835 0
-9824 9836 0
-9830 9836 0
-9824 -9830 9837 0
-9825 9838 0
-9834 9838 0
-9825 -9834 9839 0
-9837 9840 0
-9838 9840 0
-9837 -9838 9841 0
-9840 0
-9842 0
-5540 9843 0
-5640 9843 0
-5540 -5640 9844 0
-5740 9845 0
-5840 9845 0
-5740 -5840 9846 0
-5940 9847 0
-9842 9847 0
-5940 -9842 9848 0
-9845 9849 0
-9847 9849 0
-9845 -9847 9850 0
-9846 9851 0
-9848 9851 0
-9846 -9848 9852 0
-9850 9853 0
-9851 9853 0
-9850 -9851 9854 0
-9843 9855 0
-9849 9855 0
-9843 -9849 9856 0
-9844 9857 0
-9853 9857 0
-9844 -9853 9858 0
-9856 9859 0
-9857 9859 0
-9856 -9857 9860 0
-9859 0
-9861 0
-5541 9862 0
-5641 9862 0
-5541 -5641 9863 0
-5741 9864 0
-5841 9864 0
-5741 -5841 9865 0
-5941 9866 0
-9861 9866 0
-5941 -9861 9867 0
-9864 9868 0
-9866 9868 0
-9864 -9866 9869 0
-9865 9870 0
-9867 9870 0
-9865 -9867 9871 0
-9869 9872 0
-9870 9872 0
-9869 -9870 9873 0
-9862 9874 0
-9868 9874 0
-9862 -9868 9875 0
-9863 9876 0
-9872 9876 0
-9863 -9872 9877 0
-9875 9878 0
-9876 9878 0
-9875 -9876 9879 0
-9878 0
-9880 0
-5542 9881 0
-5642 9881 0
-5542 -5642 9882 0
-5742 9883 0
-5842 9883 0
-5742 -5842 9884 0
-5942 9885 0
-9880 9885 0
-5942 -9880 9886 0
-9883 9887 0
-9885 9887 0
-9883 -9885 9888 0
-9884 9889 0
-9886 9889 0
-9884 -9886 9890 0
-9888 9891 0
-9889 9891 0
-9888 -9889 9892 0
-9881 9893 0
-9887 9893 0
-9881 -9887 9894 0
-9882 9895 0
-9891 9895 0
-9882 -9891 9896 0
-9894 9897 0
-9895 9897 0
-9894 -9895 9898 0
-9897 0
-9899 0
-5543 9900 0
-5643 9900 0
-5543 -5643 9901 0
-5743 9902 0
-5843 9902 0
-5743 -5843 9903 0
-5943 9904 0
-9899 9904 0
-5943 -9899 9905 0
-9902 9906 0
-9904 9906 0
-9902 -9904 9907 0
-9903 9908 0
-9905 9908 0
-9903 -9905 9909 0
-9907 9910 0
-9908 9910 0
-9907 -9908 9911 0
-9900 9912 0
-9906 9912 0
-9900 -9906 9913 0
-9901 9914 0
-9910 9914 0
-9901 -9910 9915 0
-9913 9916 0
-9914 9916 0
-9913 -9914 9917 0
-9916 0
-9918 0
-5544 9919 0
-5644 9919 0
-5544 -5644 9920 0
-5744 9921 0
-5844 9921 0
-5744 -5844 9922 0
-5944 9923 0
-9918 9923 0
-5944 -9918 9924 0
-9921 9925 0
-9923 9925 0
-9921 -9923 9926 0
-9922 9927 0
-9924 9927 0
-9922 -9924 9928 0
-9926 9929 0
-9927 9929 0
-9926 -9927 9930 0
-9919 9931 0
-9925 9931 0
-9919 -9925 9932 0
-9920 9933 0
-9929 9933 0
-9920 -9929 9934 0
-9932 9935 0
-9933 9935 0
-9932 -9933 9936 0
-9935 0
-9937 0
-5545 9938 0
-5645 9938 0
-5545 -5645 9939 0
-5745 9940 0
-5845 9940 0
-5745 -5845 9941 0
-5945 9942 0
-9937 9942 0
-5945 -9937 9943 0
-9940 9944 0
-9942 9944 0
-9940 -9942 9945 0
-9941 9946 0
-9943 9946 0
-9941 -9943 9947 0
-9945 9948 0
-9946 9948 0
-9945 -9946 9949 0
-9938 9950 0
-9944 9950 0
-9938 -9944 9951 0
-9939 9952 0
-9948 9952 0
-9939 -9948 9953 0
-9951 9954 0
-9952 9954 0
-9951 -9952 9955 0
-9954 0
-9956 0
-5546 9957 0
-5646 9957 0
-5546 -5646 9958 0
-5746 9959 0
-5846 9959 0
-5746 -5846 9960 0
-5946 9961 0
-9956 9961 0
-5946 -9956 9962 0
-9959 9963 0
-9961 9963 0
-9959 -9961 9964 0
-9960 9965 0
-9962 9965 0
-9960 -9962 9966 0
-9964 9967 0
-9965 9967 0
-9964 -9965 9968 0
-9957 9969 0
-9963 9969 0
-9957 -9963 9970 0
-9958 9971 0
-9967 9971 0
-9958 -9967 9972 0
-9970 9973 0
-9971 9973 0
-9970 -9971 9974 0
-9973 0
-9975 0
-5547 9976 0
-5647 9976 0
-5547 -5647 9977 0
-5747 9978 0
-5847 9978 0
-5747 -5847 9979 0
-5947 9980 0
-9975 9980 0
-5947 -9975 9981 0
-9978 9982 0
-9980 9982 0
-9978 -9980 9983 0
-9979 9984 0
-9981 9984 0
-9979 -9981 9985 0
-9983 9986 0
-9984 9986 0
-9983 -9984 9987 0
-9976 9988 0
-9982 9988 0
-9976 -9982 9989 0
-9977 9990 0
-9986 9990 0
-9977 -9986 9991 0
-9989 9992 0
-9990 9992 0
-9989 -9990 9993 0
-9992 0
-9994 0
-5548 9995 0
-5648 9995 0
-5548 -5648 9996 0
-5748 9997 0
-5848 9997 0
-5748 -5848 9998 0
-5948 9999 0
-9994 9999 0
-5948 -9994 10000 0
-9997 10001 0
-9999 10001 0
-9997 -9999 10002 0
-9998 10003 0
-10000 10003 0
-9998 -10000 10004 0
-10002 10005 0
-10003 10005 0
-10002 -10003 10006 0
-9995 10007 0
-10001 10007 0
-9995 -10001 10008 0
-9996 10009 0
-10005 10009 0
-9996 -10005 10010 0
-10008 10011 0
-10009 10011 0
-10008 -10009 10012 0
-10011 0
-10013 0
-5549 10014 0
-5649 10014 0
-5549 -5649 10015 0
-5749 10016 0
-5849 10016 0
-5749 -5849 10017 0
-5949 10018 0
-10013 10018 0
-5949 -10013 10019 0
-10016 10020 0
-10018 10020 0
-10016 -10018 10021 0
-10017 10022 0
-10019 10022 0
-10017 -10019 10023 0
-10021 10024 0
-10022 10024 0
-10021 -10022 10025 0
-10014 10026 0
-10020 10026 0
-10014 -10020 10027 0
-10015 10028 0
-10024 10028 0
-10015 -10024 10029 0
-10027 10030 0
-10028 10030 0
-10027 -10028 10031 0
-10030 0
-10032 0
-5550 10033 0
-5650 10033 0
-5550 -5650 10034 0
-5750 10035 0
-5850 10035 0
-5750 -5850 10036 0
-5950 10037 0
-10032 10037 0
-5950 -10032 10038 0
-10035 10039 0
-10037 10039 0
-10035 -10037 10040 0
-10036 10041 0
-10038 10041 0
-10036 -10038 10042 0
-10040 10043 0
-10041 10043 0
-10040 -10041 10044 0
-10033 10045 0
-10039 10045 0
-10033 -10039 10046 0
-10034 10047 0
-10043 10047 0
-10034 -10043 10048 0
-10046 10049 0
-10047 10049 0
-10046 -10047 10050 0
-10049 0
-10051 0
-5551 10052 0
-5651 10052 0
-5551 -5651 10053 0
-5751 10054 0
-5851 10054 0
-5751 -5851 10055 0
-5951 10056 0
-10051 10056 0
-5951 -10051 10057 0
-10054 10058 0
-10056 10058 0
-10054 -10056 10059 0
-10055 10060 0
-10057 10060 0
-10055 -10057 10061 0
-10059 10062 0
-10060 10062 0
-10059 -10060 10063 0
-10052 10064 0
-10058 10064 0
-10052 -10058 10065 0
-10053 10066 0
-10062 10066 0
-10053 -10062 10067 0
-10065 10068 0
-10066 10068 0
-10065 -10066 10069 0
-10068 0
-10070 0
-5552 10071 0
-5652 10071 0
-5552 -5652 10072 0
-5752 10073 0
-5852 10073 0
-5752 -5852 10074 0
-5952 10075 0
-10070 10075 0
-5952 -10070 10076 0
-10073 10077 0
-10075 10077 0
-10073 -10075 10078 0
-10074 10079 0
-10076 10079 0
-10074 -10076 10080 0
-10078 10081 0
-10079 10081 0
-10078 -10079 10082 0
-10071 10083 0
-10077 10083 0
-10071 -10077 10084 0
-10072 10085 0
-10081 10085 0
-10072 -10081 10086 0
-10084 10087 0
-10085 10087 0
-10084 -10085 10088 0
-10087 0
-10089 0
-5553 10090 0
-5653 10090 0
-5553 -5653 10091 0
-5753 10092 0
-5853 10092 0
-5753 -5853 10093 0
-5953 10094 0
-10089 10094 0
-5953 -10089 10095 0
-10092 10096 0
-10094 10096 0
-10092 -10094 10097 0
-10093 10098 0
-10095 10098 0
-10093 -10095 10099 0
-10097 10100 0
-10098 10100 0
-10097 -10098 10101 0
-10090 10102 0
-10096 10102 0
-10090 -10096 10103 0
-10091 10104 0
-10100 10104 0
-10091 -10100 10105 0
-10103 10106 0
-10104 10106 0
-10103 -10104 10107 0
-10106 0
-10108 0
-5554 10109 0
-5654 10109 0
-5554 -5654 10110 0
-5754 10111 0
-5854 10111 0
-5754 -5854 10112 0
-5954 10113 0
-10108 10113 0
-5954 -10108 10114 0
-10111 10115 0
-10113 10115 0
-10111 -10113 10116 0
-10112 10117 0
-10114 10117 0
-10112 -10114 10118 0
-10116 10119 0
-10117 10119 0
-10116 -10117 10120 0
-10109 10121 0
-10115 10121 0
-10109 -10115 10122 0
-10110 10123 0
-10119 10123 0
-10110 -10119 10124 0
-10122 10125 0
-10123 10125 0
-10122 -10123 10126 0
-10125 0
-10127 0
-5555 10128 0
-5655 10128 0
-5555 -5655 10129 0
-5755 10130 0
-5855 10130 0
-5755 -5855 10131 0
-5955 10132 0
-10127 10132 0
-5955 -10127 10133 0
-10130 10134 0
-10132 10134 0
-10130 -10132 10135 0
-10131 10136 0
-10133 10136 0
-10131 -10133 10137 0
-10135 10138 0
-10136 10138 0
-10135 -10136 10139 0
-10128 10140 0
-10134 10140 0
-10128 -10134 10141 0
-10129 10142 0
-10138 10142 0
-10129 -10138 10143 0
-10141 10144 0
-10142 10144 0
-10141 -10142 10145 0
-10144 0
-10146 0
-5556 10147 0
-5656 10147 0
-5556 -5656 10148 0
-5756 10149 0
-5856 10149 0
-5756 -5856 10150 0
-5956 10151 0
-10146 10151 0
-5956 -10146 10152 0
-10149 10153 0
-10151 10153 0
-10149 -10151 10154 0
-10150 10155 0
-10152 10155 0
-10150 -10152 10156 0
-10154 10157 0
-10155 10157 0
-10154 -10155 10158 0
-10147 10159 0
-10153 10159 0
-10147 -10153 10160 0
-10148 10161 0
-10157 10161 0
-10148 -10157 10162 0
-10160 10163 0
-10161 10163 0
-10160 -10161 10164 0
-10163 0
-10165 0
-5557 10166 0
-5657 10166 0
-5557 -5657 10167 0
-5757 10168 0
-5857 10168 0
-5757 -5857 10169 0
-5957 10170 0
-10165 10170 0
-5957 -10165 10171 0
-10168 10172 0
-10170 10172 0
-10168 -10170 10173 0
-10169 10174 0
-10171 10174 0
-10169 -10171 10175 0
-10173 10176 0
-10174 10176 0
-10173 -10174 10177 0
-10166 10178 0
-10172 10178 0
-10166 -10172 10179 0
-10167 10180 0
-10176 10180 0
-10167 -10176 10181 0
-10179 10182 0
-10180 10182 0
-10179 -10180 10183 0
-10182 0
-10184 0
-5558 10185 0
-5658 10185 0
-5558 -5658 10186 0
-5758 10187 0
-5858 10187 0
-5758 -5858 10188 0
-5958 10189 0
-10184 10189 0
-5958 -10184 10190 0
-10187 10191 0
-10189 10191 0
-10187 -10189 10192 0
-10188 10193 0
-10190 10193 0
-10188 -10190 10194 0
-10192 10195 0
-10193 10195 0
-10192 -10193 10196 0
-10185 10197 0
-10191 10197 0
-10185 -10191 10198 0
-10186 10199 0
-10195 10199 0
-10186 -10195 10200 0
-10198 10201 0
-10199 10201 0
-10198 -10199 10202 0
-10201 0
-10203 0
-5559 10204 0
-5659 10204 0
-5559 -5659 10205 0
-5759 10206 0
-5859 10206 0
-5759 -5859 10207 0
-5959 10208 0
-10203 10208 0
-5959 -10203 10209 0
-10206 10210 0
-10208 10210 0
-10206 -10208 10211 0
-10207 10212 0
-10209 10212 0
-10207 -10209 10213 0
-10211 10214 0
-10212 10214 0
-10211 -10212 10215 0
-10204 10216 0
-10210 10216 0
-10204 -10210 10217 0
-10205 10218 0
-10214 10218 0
-10205 -10214 10219 0
-10217 10220 0
-10218 10220 0
-10217 -10218 10221 0
-10220 0
-10222 0
-5560 10223 0
-5660 10223 0
-5560 -5660 10224 0
-5760 10225 0
-5860 10225 0
-5760 -5860 10226 0
-5960 10227 0
-10222 10227 0
-5960 -10222 10228 0
-10225 10229 0
-10227 10229 0
-10225 -10227 10230 0
-10226 10231 0
-10228 10231 0
-10226 -10228 10232 0
-10230 10233 0
-10231 10233 0
-10230 -10231 10234 0
-10223 10235 0
-10229 10235 0
-10223 -10229 10236 0
-10224 10237 0
-10233 10237 0
-10224 -10233 10238 0
-10236 10239 0
-10237 10239 0
-10236 -10237 10240 0
-10239 0
-10241 0
-5561 10242 0
-5661 10242 0
-5561 -5661 10243 0
-5761 10244 0
-5861 10244 0
-5761 -5861 10245 0
-5961 10246 0
-10241 10246 0
-5961 -10241 10247 0
-10244 10248 0
-10246 10248 0
-10244 -10246 10249 0
-10245 10250 0
-10247 10250 0
-10245 -10247 10251 0
-10249 10252 0
-10250 10252 0
-10249 -10250 10253 0
-10242 10254 0
-10248 10254 0
-10242 -10248 10255 0
-10243 10256 0
-10252 10256 0
-10243 -10252 10257 0
-10255 10258 0
-10256 10258 0
-10255 -10256 10259 0
-10258 0
-10260 0
-5562 10261 0
-5662 10261 0
-5562 -5662 10262 0
-5762 10263 0
-5862 10263 0
-5762 -5862 10264 0
-5962 10265 0
-10260 10265 0
-5962 -10260 10266 0
-10263 10267 0
-10265 10267 0
-10263 -10265 10268 0
-10264 10269 0
-10266 10269 0
-10264 -10266 10270 0
-10268 10271 0
-10269 10271 0
-10268 -10269 10272 0
-10261 10273 0
-10267 10273 0
-10261 -10267 10274 0
-10262 10275 0
-10271 10275 0
-10262 -10271 10276 0
-10274 10277 0
-10275 10277 0
-10274 -10275 10278 0
-10277 0
-10279 0
-5563 10280 0
-5663 10280 0
-5563 -5663 10281 0
-5763 10282 0
-5863 10282 0
-5763 -5863 10283 0
-5963 10284 0
-10279 10284 0
-5963 -10279 10285 0
-10282 10286 0
-10284 10286 0
-10282 -10284 10287 0
-10283 10288 0
-10285 10288 0
-10283 -10285 10289 0
-10287 10290 0
-10288 10290 0
-10287 -10288 10291 0
-10280 10292 0
-10286 10292 0
-10280 -10286 10293 0
-10281 10294 0
-10290 10294 0
-10281 -10290 10295 0
-10293 10296 0
-10294 10296 0
-10293 -10294 10297 0
-10296 0
-10298 0
-5564 10299 0
-5664 10299 0
-5564 -5664 10300 0
-5764 10301 0
-5864 10301 0
-5764 -5864 10302 0
-5964 10303 0
-10298 10303 0
-5964 -10298 10304 0
-10301 10305 0
-10303 10305 0
-10301 -10303 10306 0
-10302 10307 0
-10304 10307 0
-10302 -10304 10308 0
-10306 10309 0
-10307 10309 0
-10306 -10307 10310 0
-10299 10311 0
-10305 10311 0
-10299 -10305 10312 0
-10300 10313 0
-10309 10313 0
-10300 -10309 10314 0
-10312 10315 0
-10313 10315 0
-10312 -10313 10316 0
-10315 0
-10317 0
-5565 10318 0
-5665 10318 0
-5565 -5665 10319 0
-5765 10320 0
-5865 10320 0
-5765 -5865 10321 0
-5965 10322 0
-10317 10322 0
-5965 -10317 10323 0
-10320 10324 0
-10322 10324 0
-10320 -10322 10325 0
-10321 10326 0
-10323 10326 0
-10321 -10323 10327 0
-10325 10328 0
-10326 10328 0
-10325 -10326 10329 0
-10318 10330 0
-10324 10330 0
-10318 -10324 10331 0
-10319 10332 0
-10328 10332 0
-10319 -10328 10333 0
-10331 10334 0
-10332 10334 0
-10331 -10332 10335 0
-10334 0
-10336 0
-5566 10337 0
-5666 10337 0
-5566 -5666 10338 0
-5766 10339 0
-5866 10339 0
-5766 -5866 10340 0
-5966 10341 0
-10336 10341 0
-5966 -10336 10342 0
-10339 10343 0
-10341 10343 0
-10339 -10341 10344 0
-10340 10345 0
-10342 10345 0
-10340 -10342 10346 0
-10344 10347 0
-10345 10347 0
-10344 -10345 10348 0
-10337 10349 0
-10343 10349 0
-10337 -10343 10350 0
-10338 10351 0
-10347 10351 0
-10338 -10347 10352 0
-10350 10353 0
-10351 10353 0
-10350 -10351 10354 0
-10353 0
-10355 0
-5567 10356 0
-5667 10356 0
-5567 -5667 10357 0
-5767 10358 0
-5867 10358 0
-5767 -5867 10359 0
-5967 10360 0
-10355 10360 0
-5967 -10355 10361 0
-10358 10362 0
-10360 10362 0
-10358 -10360 10363 0
-10359 10364 0
-10361 10364 0
-10359 -10361 10365 0
-10363 10366 0
-10364 10366 0
-10363 -10364 10367 0
-10356 10368 0
-10362 10368 0
-10356 -10362 10369 0
-10357 10370 0
-10366 10370 0
-10357 -10366 10371 0
-10369 10372 0
-10370 10372 0
-10369 -10370 10373 0
-10372 0
-10374 0
-5568 10375 0
-5668 10375 0
-5568 -5668 10376 0
-5768 10377 0
-5868 10377 0
-5768 -5868 10378 0
-5968 10379 0
-10374 10379 0
-5968 -10374 10380 0
-10377 10381 0
-10379 10381 0
-10377 -10379 10382 0
-10378 10383 0
-10380 10383 0
-10378 -10380 10384 0
-10382 10385 0
-10383 10385 0
-10382 -10383 10386 0
-10375 10387 0
-10381 10387 0
-10375 -10381 10388 0
-10376 10389 0
-10385 10389 0
-10376 -10385 10390 0
-10388 10391 0
-10389 10391 0
-10388 -10389 10392 0
-10391 0
-10393 0
-5569 10394 0
-5669 10394 0
-5569 -5669 10395 0
-5769 10396 0
-5869 10396 0
-5769 -5869 10397 0
-5969 10398 0
-10393 10398 0
-5969 -10393 10399 0
-10396 10400 0
-10398 10400 0
-10396 -10398 10401 0
-10397 10402 0
-10399 10402 0
-10397 -10399 10403 0
-10401 10404 0
-10402 10404 0
-10401 -10402 10405 0
-10394 10406 0
-10400 10406 0
-10394 -10400 10407 0
-10395 10408 0
-10404 10408 0
-10395 -10404 10409 0
-10407 10410 0
-10408 10410 0
-10407 -10408 10411 0
-10410 0
-10412 0
-5570 10413 0
-5670 10413 0
-5570 -5670 10414 0
-5770 10415 0
-5870 10415 0
-5770 -5870 10416 0
-5970 10417 0
-10412 10417 0
-5970 -10412 10418 0
-10415 10419 0
-10417 10419 0
-10415 -10417 10420 0
-10416 10421 0
-10418 10421 0
-10416 -10418 10422 0
-10420 10423 0
-10421 10423 0
-10420 -10421 10424 0
-10413 10425 0
-10419 10425 0
-10413 -10419 10426 0
-10414 10427 0
-10423 10427 0
-10414 -10423 10428 0
-10426 10429 0
-10427 10429 0
-10426 -10427 10430 0
-10429 0
-10431 0
-5571 10432 0
-5671 10432 0
-5571 -5671 10433 0
-5771 10434 0
-5871 10434 0
-5771 -5871 10435 0
-5971 10436 0
-10431 10436 0
-5971 -10431 10437 0
-10434 10438 0
-10436 10438 0
-10434 -10436 10439 0
-10435 10440 0
-10437 10440 0
-10435 -10437 10441 0
-10439 10442 0
-10440 10442 0
-10439 -10440 10443 0
-10432 10444 0
-10438 10444 0
-10432 -10438 10445 0
-10433 10446 0
-10442 10446 0
-10433 -10442 10447 0
-10445 10448 0
-10446 10448 0
-10445 -10446 10449 0
-10448 0
-10450 0
-5572 10451 0
-5672 10451 0
-5572 -5672 10452 0
-5772 10453 0
-5872 10453 0
-5772 -5872 10454 0
-5972 10455 0
-10450 10455 0
-5972 -10450 10456 0
-10453 10457 0
-10455 10457 0
-10453 -10455 10458 0
-10454 10459 0
-10456 10459 0
-10454 -10456 10460 0
-10458 10461 0
-10459 10461 0
-10458 -10459 10462 0
-10451 10463 0
-10457 10463 0
-10451 -10457 10464 0
-10452 10465 0
-10461 10465 0
-10452 -10461 10466 0
-10464 10467 0
-10465 10467 0
-10464 -10465 10468 0
-10467 0
-10469 0
-5573 10470 0
-5673 10470 0
-5573 -5673 10471 0
-5773 10472 0
-5873 10472 0
-5773 -5873 10473 0
-5973 10474 0
-10469 10474 0
-5973 -10469 10475 0
-10472 10476 0
-10474 10476 0
-10472 -10474 10477 0
-10473 10478 0
-10475 10478 0
-10473 -10475 10479 0
-10477 10480 0
-10478 10480 0
-10477 -10478 10481 0
-10470 10482 0
-10476 10482 0
-10470 -10476 10483 0
-10471 10484 0
-10480 10484 0
-10471 -10480 10485 0
-10483 10486 0
-10484 10486 0
-10483 -10484 10487 0
-10486 0
-10488 0
-5574 10489 0
-5674 10489 0
-5574 -5674 10490 0
-5774 10491 0
-5874 10491 0
-5774 -5874 10492 0
-5974 10493 0
-10488 10493 0
-5974 -10488 10494 0
-10491 10495 0
-10493 10495 0
-10491 -10493 10496 0
-10492 10497 0
-10494 10497 0
-10492 -10494 10498 0
-10496 10499 0
-10497 10499 0
-10496 -10497 10500 0
-10489 10501 0
-10495 10501 0
-10489 -10495 10502 0
-10490 10503 0
-10499 10503 0
-10490 -10499 10504 0
-10502 10505 0
-10503 10505 0
-10502 -10503 10506 0
-10505 0
-10507 0
-5575 10508 0
-5675 10508 0
-5575 -5675 10509 0
-5775 10510 0
-5875 10510 0
-5775 -5875 10511 0
-5975 10512 0
-10507 10512 0
-5975 -10507 10513 0
-10510 10514 0
-10512 10514 0
-10510 -10512 10515 0
-10511 10516 0
-10513 10516 0
-10511 -10513 10517 0
-10515 10518 0
-10516 10518 0
-10515 -10516 10519 0
-10508 10520 0
-10514 10520 0
-10508 -10514 10521 0
-10509 10522 0
-10518 10522 0
-10509 -10518 10523 0
-10521 10524 0
-10522 10524 0
-10521 -10522 10525 0
-10524 0
-10526 0
-5576 10527 0
-5676 10527 0
-5576 -5676 10528 0
-5776 10529 0
-5876 10529 0
-5776 -5876 10530 0
-5976 10531 0
-10526 10531 0
-5976 -10526 10532 0
-10529 10533 0
-10531 10533 0
-10529 -10531 10534 0
-10530 10535 0
-10532 10535 0
-10530 -10532 10536 0
-10534 10537 0
-10535 10537 0
-10534 -10535 10538 0
-10527 10539 0
-10533 10539 0
-10527 -10533 10540 0
-10528 10541 0
-10537 10541 0
-10528 -10537 10542 0
-10540 10543 0
-10541 10543 0
-10540 -10541 10544 0
-10543 0
-10545 0
-5577 10546 0
-5677 10546 0
-5577 -5677 10547 0
-5777 10548 0
-5877 10548 0
-5777 -5877 10549 0
-5977 10550 0
-10545 10550 0
-5977 -10545 10551 0
-10548 10552 0
-10550 10552 0
-10548 -10550 10553 0
-10549 10554 0
-10551 10554 0
-10549 -10551 10555 0
-10553 10556 0
-10554 10556 0
-10553 -10554 10557 0
-10546 10558 0
-10552 10558 0
-10546 -10552 10559 0
-10547 10560 0
-10556 10560 0
-10547 -10556 10561 0
-10559 10562 0
-10560 10562 0
-10559 -10560 10563 0
-10562 0
-10564 0
-5578 10565 0
-5678 10565 0
-5578 -5678 10566 0
-5778 10567 0
-5878 10567 0
-5778 -5878 10568 0
-5978 10569 0
-10564 10569 0
-5978 -10564 10570 0
-10567 10571 0
-10569 10571 0
-10567 -10569 10572 0
-10568 10573 0
-10570 10573 0
-10568 -10570 10574 0
-10572 10575 0
-10573 10575 0
-10572 -10573 10576 0
-10565 10577 0
-10571 10577 0
-10565 -10571 10578 0
-10566 10579 0
-10575 10579 0
-10566 -10575 10580 0
-10578 10581 0
-10579 10581 0
-10578 -10579 10582 0
-10581 0
-10583 0
-5579 10584 0
-5679 10584 0
-5579 -5679 10585 0
-5779 10586 0
-5879 10586 0
-5779 -5879 10587 0
-5979 10588 0
-10583 10588 0
-5979 -10583 10589 0
-10586 10590 0
-10588 10590 0
-10586 -10588 10591 0
-10587 10592 0
-10589 10592 0
-10587 -10589 10593 0
-10591 10594 0
-10592 10594 0
-10591 -10592 10595 0
-10584 10596 0
-10590 10596 0
-10584 -10590 10597 0
-10585 10598 0
-10594 10598 0
-10585 -10594 10599 0
-10597 10600 0
-10598 10600 0
-10597 -10598 10601 0
-10600 0
-10602 0
-5580 10603 0
-5680 10603 0
-5580 -5680 10604 0
-5780 10605 0
-5880 10605 0
-5780 -5880 10606 0
-5980 10607 0
-10602 10607 0
-5980 -10602 10608 0
-10605 10609 0
-10607 10609 0
-10605 -10607 10610 0
-10606 10611 0
-10608 10611 0
-10606 -10608 10612 0
-10610 10613 0
-10611 10613 0
-10610 -10611 10614 0
-10603 10615 0
-10609 10615 0
-10603 -10609 10616 0
-10604 10617 0
-10613 10617 0
-10604 -10613 10618 0
-10616 10619 0
-10617 10619 0
-10616 -10617 10620 0
-10619 0
-10621 0
-5581 10622 0
-5681 10622 0
-5581 -5681 10623 0
-5781 10624 0
-5881 10624 0
-5781 -5881 10625 0
-5981 10626 0
-10621 10626 0
-5981 -10621 10627 0
-10624 10628 0
-10626 10628 0
-10624 -10626 10629 0
-10625 10630 0
-10627 10630 0
-10625 -10627 10631 0
-10629 10632 0
-10630 10632 0
-10629 -10630 10633 0
-10622 10634 0
-10628 10634 0
-10622 -10628 10635 0
-10623 10636 0
-10632 10636 0
-10623 -10632 10637 0
-10635 10638 0
-10636 10638 0
-10635 -10636 10639 0
-10638 0
-10640 0
-5582 10641 0
-5682 10641 0
-5582 -5682 10642 0
-5782 10643 0
-5882 10643 0
-5782 -5882 10644 0
-5982 10645 0
-10640 10645 0
-5982 -10640 10646 0
-10643 10647 0
-10645 10647 0
-10643 -10645 10648 0
-10644 10649 0
-10646 10649 0
-10644 -10646 10650 0
-10648 10651 0
-10649 10651 0
-10648 -10649 10652 0
-10641 10653 0
-10647 10653 0
-10641 -10647 10654 0
-10642 10655 0
-10651 10655 0
-10642 -10651 10656 0
-10654 10657 0
-10655 10657 0
-10654 -10655 10658 0
-10657 0
-10659 0
-5583 10660 0
-5683 10660 0
-5583 -5683 10661 0
-5783 10662 0
-5883 10662 0
-5783 -5883 10663 0
-5983 10664 0
-10659 10664 0
-5983 -10659 10665 0
-10662 10666 0
-10664 10666 0
-10662 -10664 10667 0
-10663 10668 0
-10665 10668 0
-10663 -10665 10669 0
-10667 10670 0
-10668 10670 0
-10667 -10668 10671 0
-10660 10672 0
-10666 10672 0
-10660 -10666 10673 0
-10661 10674 0
-10670 10674 0
-10661 -10670 10675 0
-10673 10676 0
-10674 10676 0
-10673 -10674 10677 0
-10676 0
-10678 0
-5584 10679 0
-5684 10679 0
-5584 -5684 10680 0
-5784 10681 0
-5884 10681 0
-5784 -5884 10682 0
-5984 10683 0
-10678 10683 0
-5984 -10678 10684 0
-10681 10685 0
-10683 10685 0
-10681 -10683 10686 0
-10682 10687 0
-10684 10687 0
-10682 -10684 10688 0
-10686 10689 0
-10687 10689 0
-10686 -10687 10690 0
-10679 10691 0
-10685 10691 0
-10679 -10685 10692 0
-10680 10693 0
-10689 10693 0
-10680 -10689 10694 0
-10692 10695 0
-10693 10695 0
-10692 -10693 10696 0
-10695 0
-10697 0
-5585 10698 0
-5685 10698 0
-5585 -5685 10699 0
-5785 10700 0
-5885 10700 0
-5785 -5885 10701 0
-5985 10702 0
-10697 10702 0
-5985 -10697 10703 0
-10700 10704 0
-10702 10704 0
-10700 -10702 10705 0
-10701 10706 0
-10703 10706 0
-10701 -10703 10707 0
-10705 10708 0
-10706 10708 0
-10705 -10706 10709 0
-10698 10710 0
-10704 10710 0
-10698 -10704 10711 0
-10699 10712 0
-10708 10712 0
-10699 -10708 10713 0
-10711 10714 0
-10712 10714 0
-10711 -10712 10715 0
-10714 0
-10716 0
-5586 10717 0
-5686 10717 0
-5586 -5686 10718 0
-5786 10719 0
-5886 10719 0
-5786 -5886 10720 0
-5986 10721 0
-10716 10721 0
-5986 -10716 10722 0
-10719 10723 0
-10721 10723 0
-10719 -10721 10724 0
-10720 10725 0
-10722 10725 0
-10720 -10722 10726 0
-10724 10727 0
-10725 10727 0
-10724 -10725 10728 0
-10717 10729 0
-10723 10729 0
-10717 -10723 10730 0
-10718 10731 0
-10727 10731 0
-10718 -10727 10732 0
-10730 10733 0
-10731 10733 0
-10730 -10731 10734 0
-10733 0
-10735 0
-5587 10736 0
-5687 10736 0
-5587 -5687 10737 0
-5787 10738 0
-5887 10738 0
-5787 -5887 10739 0
-5987 10740 0
-10735 10740 0
-5987 -10735 10741 0
-10738 10742 0
-10740 10742 0
-10738 -10740 10743 0
-10739 10744 0
-10741 10744 0
-10739 -10741 10745 0
-10743 10746 0
-10744 10746 0
-10743 -10744 10747 0
-10736 10748 0
-10742 10748 0
-10736 -10742 10749 0
-10737 10750 0
-10746 10750 0
-10737 -10746 10751 0
-10749 10752 0
-10750 10752 0
-10749 -10750 10753 0
-10752 0
-10754 0
-5588 10755 0
-5688 10755 0
-5588 -5688 10756 0
-5788 10757 0
-5888 10757 0
-5788 -5888 10758 0
-5988 10759 0
-10754 10759 0
-5988 -10754 10760 0
-10757 10761 0
-10759 10761 0
-10757 -10759 10762 0
-10758 10763 0
-10760 10763 0
-10758 -10760 10764 0
-10762 10765 0
-10763 10765 0
-10762 -10763 10766 0
-10755 10767 0
-10761 10767 0
-10755 -10761 10768 0
-10756 10769 0
-10765 10769 0
-10756 -10765 10770 0
-10768 10771 0
-10769 10771 0
-10768 -10769 10772 0
-10771 0
-10773 0
-5589 10774 0
-5689 10774 0
-5589 -5689 10775 0
-5789 10776 0
-5889 10776 0
-5789 -5889 10777 0
-5989 10778 0
-10773 10778 0
-5989 -10773 10779 0
-10776 10780 0
-10778 10780 0
-10776 -10778 10781 0
-10777 10782 0
-10779 10782 0
-10777 -10779 10783 0
-10781 10784 0
-10782 10784 0
-10781 -10782 10785 0
-10774 10786 0
-10780 10786 0
-10774 -10780 10787 0
-10775 10788 0
-10784 10788 0
-10775 -10784 10789 0
-10787 10790 0
-10788 10790 0
-10787 -10788 10791 0
-10790 0
-10792 0
-5590 10793 0
-5690 10793 0
-5590 -5690 10794 0
-5790 10795 0
-5890 10795 0
-5790 -5890 10796 0
-5990 10797 0
-10792 10797 0
-5990 -10792 10798 0
-10795 10799 0
-10797 10799 0
-10795 -10797 10800 0
-10796 10801 0
-10798 10801 0
-10796 -10798 10802 0
-10800 10803 0
-10801 10803 0
-10800 -10801 10804 0
-10793 10805 0
-10799 10805 0
-10793 -10799 10806 0
-10794 10807 0
-10803 10807 0
-10794 -10803 10808 0
-10806 10809 0
-10807 10809 0
-10806 -10807 10810 0
-10809 0
-10811 0
-5591 10812 0
-5691 10812 0
-5591 -5691 10813 0
-5791 10814 0
-5891 10814 0
-5791 -5891 10815 0
-5991 10816 0
-10811 10816 0
-5991 -10811 10817 0
-10814 10818 0
-10816 10818 0
-10814 -10816 10819 0
-10815 10820 0
-10817 10820 0
-10815 -10817 10821 0
-10819 10822 0
-10820 10822 0
-10819 -10820 10823 0
-10812 10824 0
-10818 10824 0
-10812 -10818 10825 0
-10813 10826 0
-10822 10826 0
-10813 -10822 10827 0
-10825 10828 0
-10826 10828 0
-10825 -10826 10829 0
-10828 0
-10830 0
-5592 10831 0
-5692 10831 0
-5592 -5692 10832 0
-5792 10833 0
-5892 10833 0
-5792 -5892 10834 0
-5992 10835 0
-10830 10835 0
-5992 -10830 10836 0
-10833 10837 0
-10835 10837 0
-10833 -10835 10838 0
-10834 10839 0
-10836 10839 0
-10834 -10836 10840 0
-10838 10841 0
-10839 10841 0
-10838 -10839 10842 0
-10831 10843 0
-10837 10843 0
-10831 -10837 10844 0
-10832 10845 0
-10841 10845 0
-10832 -10841 10846 0
-10844 10847 0
-10845 10847 0
-10844 -10845 10848 0
-10847 0
-10849 0
-5593 10850 0
-5693 10850 0
-5593 -5693 10851 0
-5793 10852 0
-5893 10852 0
-5793 -5893 10853 0
-5993 10854 0
-10849 10854 0
-5993 -10849 10855 0
-10852 10856 0
-10854 10856 0
-10852 -10854 10857 0
-10853 10858 0
-10855 10858 0
-10853 -10855 10859 0
-10857 10860 0
-10858 10860 0
-10857 -10858 10861 0
-10850 10862 0
-10856 10862 0
-10850 -10856 10863 0
-10851 10864 0
-10860 10864 0
-10851 -10860 10865 0
-10863 10866 0
-10864 10866 0
-10863 -10864 10867 0
-10866 0
-10868 0
-5594 10869 0
-5694 10869 0
-5594 -5694 10870 0
-5794 10871 0
-5894 10871 0
-5794 -5894 10872 0
-5994 10873 0
-10868 10873 0
-5994 -10868 10874 0
-10871 10875 0
-10873 10875 0
-10871 -10873 10876 0
-10872 10877 0
-10874 10877 0
-10872 -10874 10878 0
-10876 10879 0
-10877 10879 0
-10876 -10877 10880 0
-10869 10881 0
-10875 10881 0
-10869 -10875 10882 0
-10870 10883 0
-10879 10883 0
-10870 -10879 10884 0
-10882 10885 0
-10883 10885 0
-10882 -10883 10886 0
-10885 0
-10887 0
-5595 10888 0
-5695 10888 0
-5595 -5695 10889 0
-5795 10890 0
-5895 10890 0
-5795 -5895 10891 0
-5995 10892 0
-10887 10892 0
-5995 -10887 10893 0
-10890 10894 0
-10892 10894 0
-10890 -10892 10895 0
-10891 10896 0
-10893 10896 0
-10891 -10893 10897 0
-10895 10898 0
-10896 10898 0
-10895 -10896 10899 0
-10888 10900 0
-10894 10900 0
-10888 -10894 10901 0
-10889 10902 0
-10898 10902 0
-10889 -10898 10903 0
-10901 10904 0
-10902 10904 0
-10901 -10902 10905 0
-10904 0
-10906 0
-5596 10907 0
-5696 10907 0
-5596 -5696 10908 0
-5796 10909 0
-5896 10909 0
-5796 -5896 10910 0
-5996 10911 0
-10906 10911 0
-5996 -10906 10912 0
-10909 10913 0
-10911 10913 0
-10909 -10911 10914 0
-10910 10915 0
-10912 10915 0
-10910 -10912 10916 0
-10914 10917 0
-10915 10917 0
-10914 -10915 10918 0
-10907 10919 0
-10913 10919 0
-10907 -10913 10920 0
-10908 10921 0
-10917 10921 0
-10908 -10917 10922 0
-10920 10923 0
-10921 10923 0
-10920 -10921 10924 0
-10923 0
-10925 0
-5597 10926 0
-5697 10926 0
-5597 -5697 10927 0
-5797 10928 0
-5897 10928 0
-5797 -5897 10929 0
-5997 10930 0
-10925 10930 0
-5997 -10925 10931 0
-10928 10932 0
-10930 10932 0
-10928 -10930 10933 0
-10929 10934 0
-10931 10934 0
-10929 -10931 10935 0
-10933 10936 0
-10934 10936 0
-10933 -10934 10937 0
-10926 10938 0
-10932 10938 0
-10926 -10932 10939 0
-10927 10940 0
-10936 10940 0
-10927 -10936 10941 0
-10939 10942 0
-10940 10942 0
-10939 -10940 10943 0
-10942 0
-10944 0
-5598 10945 0
-5698 10945 0
-5598 -5698 10946 0
-5798 10947 0
-5898 10947 0
-5798 -5898 10948 0
-5998 10949 0
-10944 10949 0
-5998 -10944 10950 0
-10947 10951 0
-10949 10951 0
-10947 -10949 10952 0
-10948 10953 0
-10950 10953 0
-10948 -10950 10954 0
-10952 10955 0
-10953 10955 0
-10952 -10953 10956 0
-10945 10957 0
-10951 10957 0
-10945 -10951 10958 0
-10946 10959 0
-10955 10959 0
-10946 -10955 10960 0
-10958 10961 0
-10959 10961 0
-10958 -10959 10962 0
-10961 0
-10963 0
-5599 10964 0
-5699 10964 0
-5599 -5699 10965 0
-5799 10966 0
-5899 10966 0
-5799 -5899 10967 0
-5999 10968 0
-10963 10968 0
-5999 -10963 10969 0
-10966 10970 0
-10968 10970 0
-10966 -10968 10971 0
-10967 10972 0
-10969 10972 0
-10967 -10969 10973 0
-10971 10974 0
-10972 10974 0
-10971 -10972 10975 0
-10964 10976 0
-10970 10976 0
-10964 -10970 10977 0
-10965 10978 0
-10974 10978 0
-10965 -10974 10979 0
-10977 10980 0
-10978 10980 0
-10977 -10978 10981 0
-10980 0
