p cnf 21533 59693
10781 -1 2 0
10781 1 -2 0
10781 -981 982 0
10781 981 -982 0
10921 -141 142 0
10921 141 -142 0
10921 -1121 1122 0
10921 1121 -1122 0
11061 -281 282 0
11061 281 -282 0
11061 -1261 1262 0
11061 1261 -1262 0
11201 -421 422 0
11201 421 -422 0
11201 -1401 1402 0
11201 1401 -1402 0
11341 -561 562 0
11341 561 -562 0
11341 -1541 1542 0
11341 1541 -1542 0
11481 -701 702 0
11481 701 -702 0
11481 -1681 1682 0
11481 1681 -1682 0
11621 -841 842 0
11621 841 -842 0
11621 -1821 1822 0
11621 1821 -1822 0
-1 -7841 -2 0
1 -7841 2 0
-7981 -1122 0
-141 -7981 142 0
141 -7981 -142 0
-8961 1122 0
-8121 -1262 0
-281 -8121 282 0
281 -8121 -282 0
-9101 1262 0
-8261 -1402 0
-421 -8261 422 0
421 -8261 -422 0
-9241 1402 0
-8401 -1542 0
-561 -8401 562 0
561 -8401 -562 0
-9381 1542 0
-8541 -1682 0
-701 -8541 702 0
701 -8541 -702 0
-9521 1682 0
-141 -8961 -142 0
141 -8961 142 0
-281 -9101 -282 0
281 -9101 282 0
-421 -9241 -422 0
421 -9241 422 0
-561 -9381 -562 0
561 -9381 562 0
-701 -9521 -702 0
701 -9521 702 0
-841 -9661 -842 0
841 -9661 842 0
10782 -2 3 0
10782 2 -3 0
10782 -982 983 0
10782 982 -983 0
10922 -142 143 0
10922 142 -143 0
10922 -1122 1123 0
10922 1122 -1123 0
11062 -282 283 0
11062 282 -283 0
11062 -1262 1263 0
11062 1262 -1263 0
11202 -422 423 0
11202 422 -423 0
11202 -1402 1403 0
11202 1402 -1403 0
11342 -562 563 0
11342 562 -563 0
11342 -1542 1543 0
11342 1542 -1543 0
11482 -702 703 0
11482 702 -703 0
11482 -1682 1683 0
11482 1682 -1683 0
11622 -842 843 0
11622 842 -843 0
11622 -1822 1823 0
11622 1822 -1823 0
-2 -7842 -3 0
2 -7842 3 0
-7982 -1123 0
-142 -7982 143 0
142 -7982 -143 0
-8962 1123 0
-8122 -1263 0
-282 -8122 283 0
282 -8122 -283 0
-9102 1263 0
-8262 -1403 0
-422 -8262 423 0
422 -8262 -423 0
-9242 1403 0
-8402 -1543 0
-562 -8402 563 0
562 -8402 -563 0
-9382 1543 0
-8542 -1683 0
-702 -8542 703 0
702 -8542 -703 0
-9522 1683 0
-142 -8962 -143 0
142 -8962 143 0
-282 -9102 -283 0
282 -9102 283 0
-422 -9242 -423 0
422 -9242 423 0
-562 -9382 -563 0
562 -9382 563 0
-702 -9522 -703 0
702 -9522 703 0
-842 -9662 -843 0
842 -9662 843 0
10783 -3 4 0
10783 3 -4 0
10783 -983 984 0
10783 983 -984 0
10923 -143 144 0
10923 143 -144 0
10923 -1123 1124 0
10923 1123 -1124 0
11063 -283 284 0
11063 283 -284 0
11063 -1263 1264 0
11063 1263 -1264 0
11203 -423 424 0
11203 423 -424 0
11203 -1403 1404 0
11203 1403 -1404 0
11343 -563 564 0
11343 563 -564 0
11343 -1543 1544 0
11343 1543 -1544 0
11483 -703 704 0
11483 703 -704 0
11483 -1683 1684 0
11483 1683 -1684 0
11623 -843 844 0
11623 843 -844 0
11623 -1823 1824 0
11623 1823 -1824 0
-3 -7843 -4 0
3 -7843 4 0
-7983 -1124 0
-143 -7983 144 0
143 -7983 -144 0
-8963 1124 0
-8123 -1264 0
-283 -8123 284 0
283 -8123 -284 0
-9103 1264 0
-8263 -1404 0
-423 -8263 424 0
423 -8263 -424 0
-9243 1404 0
-8403 -1544 0
-563 -8403 564 0
563 -8403 -564 0
-9383 1544 0
-8543 -1684 0
-703 -8543 704 0
703 -8543 -704 0
-9523 1684 0
-143 -8963 -144 0
143 -8963 144 0
-283 -9103 -284 0
283 -9103 284 0
-423 -9243 -424 0
423 -9243 424 0
-563 -9383 -564 0
563 -9383 564 0
-703 -9523 -704 0
703 -9523 704 0
-843 -9663 -844 0
843 -9663 844 0
10784 -4 5 0
10784 4 -5 0
10784 -984 985 0
10784 984 -985 0
10924 -144 145 0
10924 144 -145 0
10924 -1124 1125 0
10924 1124 -1125 0
11064 -284 285 0
11064 284 -285 0
11064 -1264 1265 0
11064 1264 -1265 0
11204 -424 425 0
11204 424 -425 0
11204 -1404 1405 0
11204 1404 -1405 0
11344 -564 565 0
11344 564 -565 0
11344 -1544 1545 0
11344 1544 -1545 0
11484 -704 705 0
11484 704 -705 0
11484 -1684 1685 0
11484 1684 -1685 0
11624 -844 845 0
11624 844 -845 0
11624 -1824 1825 0
11624 1824 -1825 0
-4 -7844 -5 0
4 -7844 5 0
-7984 -1125 0
-144 -7984 145 0
144 -7984 -145 0
-8964 1125 0
-8124 -1265 0
-284 -8124 285 0
284 -8124 -285 0
-9104 1265 0
-8264 -1405 0
-424 -8264 425 0
424 -8264 -425 0
-9244 1405 0
-8404 -1545 0
-564 -8404 565 0
564 -8404 -565 0
-9384 1545 0
-8544 -1685 0
-704 -8544 705 0
704 -8544 -705 0
-9524 1685 0
-144 -8964 -145 0
144 -8964 145 0
-284 -9104 -285 0
284 -9104 285 0
-424 -9244 -425 0
424 -9244 425 0
-564 -9384 -565 0
564 -9384 565 0
-704 -9524 -705 0
704 -9524 705 0
-844 -9664 -845 0
844 -9664 845 0
10785 -5 6 0
10785 5 -6 0
10785 -985 986 0
10785 985 -986 0
10925 -145 146 0
10925 145 -146 0
10925 -1125 1126 0
10925 1125 -1126 0
11065 -285 286 0
11065 285 -286 0
11065 -1265 1266 0
11065 1265 -1266 0
11205 -425 426 0
11205 425 -426 0
11205 -1405 1406 0
11205 1405 -1406 0
11345 -565 566 0
11345 565 -566 0
11345 -1545 1546 0
11345 1545 -1546 0
11485 -705 706 0
11485 705 -706 0
11485 -1685 1686 0
11485 1685 -1686 0
11625 -845 846 0
11625 845 -846 0
11625 -1825 1826 0
11625 1825 -1826 0
-5 -7845 -6 0
5 -7845 6 0
-7985 -1126 0
-145 -7985 146 0
145 -7985 -146 0
-8965 1126 0
-8125 -1266 0
-285 -8125 286 0
285 -8125 -286 0
-9105 1266 0
-8265 -1406 0
-425 -8265 426 0
425 -8265 -426 0
-9245 1406 0
-8405 -1546 0
-565 -8405 566 0
565 -8405 -566 0
-9385 1546 0
-8545 -1686 0
-705 -8545 706 0
705 -8545 -706 0
-9525 1686 0
-145 -8965 -146 0
145 -8965 146 0
-285 -9105 -286 0
285 -9105 286 0
-425 -9245 -426 0
425 -9245 426 0
-565 -9385 -566 0
565 -9385 566 0
-705 -9525 -706 0
705 -9525 706 0
-845 -9665 -846 0
845 -9665 846 0
10786 -6 7 0
10786 6 -7 0
10786 -986 987 0
10786 986 -987 0
10926 -146 147 0
10926 146 -147 0
10926 -1126 1127 0
10926 1126 -1127 0
11066 -286 287 0
11066 286 -287 0
11066 -1266 1267 0
11066 1266 -1267 0
11206 -426 427 0
11206 426 -427 0
11206 -1406 1407 0
11206 1406 -1407 0
11346 -566 567 0
11346 566 -567 0
11346 -1546 1547 0
11346 1546 -1547 0
11486 -706 707 0
11486 706 -707 0
11486 -1686 1687 0
11486 1686 -1687 0
11626 -846 847 0
11626 846 -847 0
11626 -1826 1827 0
11626 1826 -1827 0
-6 -7846 -7 0
6 -7846 7 0
-7986 -1127 0
-146 -7986 147 0
146 -7986 -147 0
-8966 1127 0
-8126 -1267 0
-286 -8126 287 0
286 -8126 -287 0
-9106 1267 0
-8266 -1407 0
-426 -8266 427 0
426 -8266 -427 0
-9246 1407 0
-8406 -1547 0
-566 -8406 567 0
566 -8406 -567 0
-9386 1547 0
-8546 -1687 0
-706 -8546 707 0
706 -8546 -707 0
-9526 1687 0
-146 -8966 -147 0
146 -8966 147 0
-286 -9106 -287 0
286 -9106 287 0
-426 -9246 -427 0
426 -9246 427 0
-566 -9386 -567 0
566 -9386 567 0
-706 -9526 -707 0
706 -9526 707 0
-846 -9666 -847 0
846 -9666 847 0
10787 -7 8 0
10787 7 -8 0
10787 -987 988 0
10787 987 -988 0
10927 -147 148 0
10927 147 -148 0
10927 -1127 1128 0
10927 1127 -1128 0
11067 -287 288 0
11067 287 -288 0
11067 -1267 1268 0
11067 1267 -1268 0
11207 -427 428 0
11207 427 -428 0
11207 -1407 1408 0
11207 1407 -1408 0
11347 -567 568 0
11347 567 -568 0
11347 -1547 1548 0
11347 1547 -1548 0
11487 -707 708 0
11487 707 -708 0
11487 -1687 1688 0
11487 1687 -1688 0
11627 -847 848 0
11627 847 -848 0
11627 -1827 1828 0
11627 1827 -1828 0
-7 -7847 -8 0
7 -7847 8 0
-7987 -1128 0
-147 -7987 148 0
147 -7987 -148 0
-8967 1128 0
-8127 -1268 0
-287 -8127 288 0
287 -8127 -288 0
-9107 1268 0
-8267 -1408 0
-427 -8267 428 0
427 -8267 -428 0
-9247 1408 0
-8407 -1548 0
-567 -8407 568 0
567 -8407 -568 0
-9387 1548 0
-8547 -1688 0
-707 -8547 708 0
707 -8547 -708 0
-9527 1688 0
-147 -8967 -148 0
147 -8967 148 0
-287 -9107 -288 0
287 -9107 288 0
-427 -9247 -428 0
427 -9247 428 0
-567 -9387 -568 0
567 -9387 568 0
-707 -9527 -708 0
707 -9527 708 0
-847 -9667 -848 0
847 -9667 848 0
10788 -8 9 0
10788 8 -9 0
10788 -988 989 0
10788 988 -989 0
10928 -148 149 0
10928 148 -149 0
10928 -1128 1129 0
10928 1128 -1129 0
11068 -288 289 0
11068 288 -289 0
11068 -1268 1269 0
11068 1268 -1269 0
11208 -428 429 0
11208 428 -429 0
11208 -1408 1409 0
11208 1408 -1409 0
11348 -568 569 0
11348 568 -569 0
11348 -1548 1549 0
11348 1548 -1549 0
11488 -708 709 0
11488 708 -709 0
11488 -1688 1689 0
11488 1688 -1689 0
11628 -848 849 0
11628 848 -849 0
11628 -1828 1829 0
11628 1828 -1829 0
-8 -7848 -9 0
8 -7848 9 0
-7988 -1129 0
-148 -7988 149 0
148 -7988 -149 0
-8968 1129 0
-8128 -1269 0
-288 -8128 289 0
288 -8128 -289 0
-9108 1269 0
-8268 -1409 0
-428 -8268 429 0
428 -8268 -429 0
-9248 1409 0
-8408 -1549 0
-568 -8408 569 0
568 -8408 -569 0
-9388 1549 0
-8548 -1689 0
-708 -8548 709 0
708 -8548 -709 0
-9528 1689 0
-148 -8968 -149 0
148 -8968 149 0
-288 -9108 -289 0
288 -9108 289 0
-428 -9248 -429 0
428 -9248 429 0
-568 -9388 -569 0
568 -9388 569 0
-708 -9528 -709 0
708 -9528 709 0
-848 -9668 -849 0
848 -9668 849 0
10789 -9 10 0
10789 9 -10 0
10789 -989 990 0
10789 989 -990 0
10929 -149 150 0
10929 149 -150 0
10929 -1129 1130 0
10929 1129 -1130 0
11069 -289 290 0
11069 289 -290 0
11069 -1269 1270 0
11069 1269 -1270 0
11209 -429 430 0
11209 429 -430 0
11209 -1409 1410 0
11209 1409 -1410 0
11349 -569 570 0
11349 569 -570 0
11349 -1549 1550 0
11349 1549 -1550 0
11489 -709 710 0
11489 709 -710 0
11489 -1689 1690 0
11489 1689 -1690 0
11629 -849 850 0
11629 849 -850 0
11629 -1829 1830 0
11629 1829 -1830 0
-9 -7849 -10 0
9 -7849 10 0
-7989 -1130 0
-149 -7989 150 0
149 -7989 -150 0
-8969 1130 0
-8129 -1270 0
-289 -8129 290 0
289 -8129 -290 0
-9109 1270 0
-8269 -1410 0
-429 -8269 430 0
429 -8269 -430 0
-9249 1410 0
-8409 -1550 0
-569 -8409 570 0
569 -8409 -570 0
-9389 1550 0
-8549 -1690 0
-709 -8549 710 0
709 -8549 -710 0
-9529 1690 0
-149 -8969 -150 0
149 -8969 150 0
-289 -9109 -290 0
289 -9109 290 0
-429 -9249 -430 0
429 -9249 430 0
-569 -9389 -570 0
569 -9389 570 0
-709 -9529 -710 0
709 -9529 710 0
-849 -9669 -850 0
849 -9669 850 0
10790 -10 11 0
10790 10 -11 0
10790 -990 991 0
10790 990 -991 0
10930 -150 151 0
10930 150 -151 0
10930 -1130 1131 0
10930 1130 -1131 0
11070 -290 291 0
11070 290 -291 0
11070 -1270 1271 0
11070 1270 -1271 0
11210 -430 431 0
11210 430 -431 0
11210 -1410 1411 0
11210 1410 -1411 0
11350 -570 571 0
11350 570 -571 0
11350 -1550 1551 0
11350 1550 -1551 0
11490 -710 711 0
11490 710 -711 0
11490 -1690 1691 0
11490 1690 -1691 0
11630 -850 851 0
11630 850 -851 0
11630 -1830 1831 0
11630 1830 -1831 0
-10 -7850 -11 0
10 -7850 11 0
-7990 -1131 0
-150 -7990 151 0
150 -7990 -151 0
-8970 1131 0
-8130 -1271 0
-290 -8130 291 0
290 -8130 -291 0
-9110 1271 0
-8270 -1411 0
-430 -8270 431 0
430 -8270 -431 0
-9250 1411 0
-8410 -1551 0
-570 -8410 571 0
570 -8410 -571 0
-9390 1551 0
-8550 -1691 0
-710 -8550 711 0
710 -8550 -711 0
-9530 1691 0
-150 -8970 -151 0
150 -8970 151 0
-290 -9110 -291 0
290 -9110 291 0
-430 -9250 -431 0
430 -9250 431 0
-570 -9390 -571 0
570 -9390 571 0
-710 -9530 -711 0
710 -9530 711 0
-850 -9670 -851 0
850 -9670 851 0
10791 -11 12 0
10791 11 -12 0
10791 -991 992 0
10791 991 -992 0
10931 -151 152 0
10931 151 -152 0
10931 -1131 1132 0
10931 1131 -1132 0
11071 -291 292 0
11071 291 -292 0
11071 -1271 1272 0
11071 1271 -1272 0
11211 -431 432 0
11211 431 -432 0
11211 -1411 1412 0
11211 1411 -1412 0
11351 -571 572 0
11351 571 -572 0
11351 -1551 1552 0
11351 1551 -1552 0
11491 -711 712 0
11491 711 -712 0
11491 -1691 1692 0
11491 1691 -1692 0
11631 -851 852 0
11631 851 -852 0
11631 -1831 1832 0
11631 1831 -1832 0
-11 -7851 -12 0
11 -7851 12 0
-7991 -1132 0
-151 -7991 152 0
151 -7991 -152 0
-8971 1132 0
-8131 -1272 0
-291 -8131 292 0
291 -8131 -292 0
-9111 1272 0
-8271 -1412 0
-431 -8271 432 0
431 -8271 -432 0
-9251 1412 0
-8411 -1552 0
-571 -8411 572 0
571 -8411 -572 0
-9391 1552 0
-8551 -1692 0
-711 -8551 712 0
711 -8551 -712 0
-9531 1692 0
-151 -8971 -152 0
151 -8971 152 0
-291 -9111 -292 0
291 -9111 292 0
-431 -9251 -432 0
431 -9251 432 0
-571 -9391 -572 0
571 -9391 572 0
-711 -9531 -712 0
711 -9531 712 0
-851 -9671 -852 0
851 -9671 852 0
10792 -12 13 0
10792 12 -13 0
10792 -992 993 0
10792 992 -993 0
10932 -152 153 0
10932 152 -153 0
10932 -1132 1133 0
10932 1132 -1133 0
11072 -292 293 0
11072 292 -293 0
11072 -1272 1273 0
11072 1272 -1273 0
11212 -432 433 0
11212 432 -433 0
11212 -1412 1413 0
11212 1412 -1413 0
11352 -572 573 0
11352 572 -573 0
11352 -1552 1553 0
11352 1552 -1553 0
11492 -712 713 0
11492 712 -713 0
11492 -1692 1693 0
11492 1692 -1693 0
11632 -852 853 0
11632 852 -853 0
11632 -1832 1833 0
11632 1832 -1833 0
-12 -7852 -13 0
12 -7852 13 0
-7992 -1133 0
-152 -7992 153 0
152 -7992 -153 0
-8972 1133 0
-8132 -1273 0
-292 -8132 293 0
292 -8132 -293 0
-9112 1273 0
-8272 -1413 0
-432 -8272 433 0
432 -8272 -433 0
-9252 1413 0
-8412 -1553 0
-572 -8412 573 0
572 -8412 -573 0
-9392 1553 0
-8552 -1693 0
-712 -8552 713 0
712 -8552 -713 0
-9532 1693 0
-152 -8972 -153 0
152 -8972 153 0
-292 -9112 -293 0
292 -9112 293 0
-432 -9252 -433 0
432 -9252 433 0
-572 -9392 -573 0
572 -9392 573 0
-712 -9532 -713 0
712 -9532 713 0
-852 -9672 -853 0
852 -9672 853 0
10793 -13 14 0
10793 13 -14 0
10793 -993 994 0
10793 993 -994 0
10933 -153 154 0
10933 153 -154 0
10933 -1133 1134 0
10933 1133 -1134 0
11073 -293 294 0
11073 293 -294 0
11073 -1273 1274 0
11073 1273 -1274 0
11213 -433 434 0
11213 433 -434 0
11213 -1413 1414 0
11213 1413 -1414 0
11353 -573 574 0
11353 573 -574 0
11353 -1553 1554 0
11353 1553 -1554 0
11493 -713 714 0
11493 713 -714 0
11493 -1693 1694 0
11493 1693 -1694 0
11633 -853 854 0
11633 853 -854 0
11633 -1833 1834 0
11633 1833 -1834 0
-13 -7853 -14 0
13 -7853 14 0
-7993 -1134 0
-153 -7993 154 0
153 -7993 -154 0
-8973 1134 0
-8133 -1274 0
-293 -8133 294 0
293 -8133 -294 0
-9113 1274 0
-8273 -1414 0
-433 -8273 434 0
433 -8273 -434 0
-9253 1414 0
-8413 -1554 0
-573 -8413 574 0
573 -8413 -574 0
-9393 1554 0
-8553 -1694 0
-713 -8553 714 0
713 -8553 -714 0
-9533 1694 0
-153 -8973 -154 0
153 -8973 154 0
-293 -9113 -294 0
293 -9113 294 0
-433 -9253 -434 0
433 -9253 434 0
-573 -9393 -574 0
573 -9393 574 0
-713 -9533 -714 0
713 -9533 714 0
-853 -9673 -854 0
853 -9673 854 0
10794 -14 15 0
10794 14 -15 0
10794 -994 995 0
10794 994 -995 0
10934 -154 155 0
10934 154 -155 0
10934 -1134 1135 0
10934 1134 -1135 0
11074 -294 295 0
11074 294 -295 0
11074 -1274 1275 0
11074 1274 -1275 0
11214 -434 435 0
11214 434 -435 0
11214 -1414 1415 0
11214 1414 -1415 0
11354 -574 575 0
11354 574 -575 0
11354 -1554 1555 0
11354 1554 -1555 0
11494 -714 715 0
11494 714 -715 0
11494 -1694 1695 0
11494 1694 -1695 0
11634 -854 855 0
11634 854 -855 0
11634 -1834 1835 0
11634 1834 -1835 0
-14 -7854 -15 0
14 -7854 15 0
-7994 -1135 0
-154 -7994 155 0
154 -7994 -155 0
-8974 1135 0
-8134 -1275 0
-294 -8134 295 0
294 -8134 -295 0
-9114 1275 0
-8274 -1415 0
-434 -8274 435 0
434 -8274 -435 0
-9254 1415 0
-8414 -1555 0
-574 -8414 575 0
574 -8414 -575 0
-9394 1555 0
-8554 -1695 0
-714 -8554 715 0
714 -8554 -715 0
-9534 1695 0
-154 -8974 -155 0
154 -8974 155 0
-294 -9114 -295 0
294 -9114 295 0
-434 -9254 -435 0
434 -9254 435 0
-574 -9394 -575 0
574 -9394 575 0
-714 -9534 -715 0
714 -9534 715 0
-854 -9674 -855 0
854 -9674 855 0
10795 -15 16 0
10795 15 -16 0
10795 -995 996 0
10795 995 -996 0
10935 -155 156 0
10935 155 -156 0
10935 -1135 1136 0
10935 1135 -1136 0
11075 -295 296 0
11075 295 -296 0
11075 -1275 1276 0
11075 1275 -1276 0
11215 -435 436 0
11215 435 -436 0
11215 -1415 1416 0
11215 1415 -1416 0
11355 -575 576 0
11355 575 -576 0
11355 -1555 1556 0
11355 1555 -1556 0
11495 -715 716 0
11495 715 -716 0
11495 -1695 1696 0
11495 1695 -1696 0
11635 -855 856 0
11635 855 -856 0
11635 -1835 1836 0
11635 1835 -1836 0
-15 -7855 -16 0
15 -7855 16 0
-7995 -1136 0
-155 -7995 156 0
155 -7995 -156 0
-8975 1136 0
-8135 -1276 0
-295 -8135 296 0
295 -8135 -296 0
-9115 1276 0
-8275 -1416 0
-435 -8275 436 0
435 -8275 -436 0
-9255 1416 0
-8415 -1556 0
-575 -8415 576 0
575 -8415 -576 0
-9395 1556 0
-8555 -1696 0
-715 -8555 716 0
715 -8555 -716 0
-9535 1696 0
-155 -8975 -156 0
155 -8975 156 0
-295 -9115 -296 0
295 -9115 296 0
-435 -9255 -436 0
435 -9255 436 0
-575 -9395 -576 0
575 -9395 576 0
-715 -9535 -716 0
715 -9535 716 0
-855 -9675 -856 0
855 -9675 856 0
10796 -16 17 0
10796 16 -17 0
10796 -996 997 0
10796 996 -997 0
10936 -156 157 0
10936 156 -157 0
10936 -1136 1137 0
10936 1136 -1137 0
11076 -296 297 0
11076 296 -297 0
11076 -1276 1277 0
11076 1276 -1277 0
11216 -436 437 0
11216 436 -437 0
11216 -1416 1417 0
11216 1416 -1417 0
11356 -576 577 0
11356 576 -577 0
11356 -1556 1557 0
11356 1556 -1557 0
11496 -716 717 0
11496 716 -717 0
11496 -1696 1697 0
11496 1696 -1697 0
11636 -856 857 0
11636 856 -857 0
11636 -1836 1837 0
11636 1836 -1837 0
-16 -7856 -17 0
16 -7856 17 0
-7996 -1137 0
-156 -7996 157 0
156 -7996 -157 0
-8976 1137 0
-8136 -1277 0
-296 -8136 297 0
296 -8136 -297 0
-9116 1277 0
-8276 -1417 0
-436 -8276 437 0
436 -8276 -437 0
-9256 1417 0
-8416 -1557 0
-576 -8416 577 0
576 -8416 -577 0
-9396 1557 0
-8556 -1697 0
-716 -8556 717 0
716 -8556 -717 0
-9536 1697 0
-156 -8976 -157 0
156 -8976 157 0
-296 -9116 -297 0
296 -9116 297 0
-436 -9256 -437 0
436 -9256 437 0
-576 -9396 -577 0
576 -9396 577 0
-716 -9536 -717 0
716 -9536 717 0
-856 -9676 -857 0
856 -9676 857 0
10797 -17 18 0
10797 17 -18 0
10797 -997 998 0
10797 997 -998 0
10937 -157 158 0
10937 157 -158 0
10937 -1137 1138 0
10937 1137 -1138 0
11077 -297 298 0
11077 297 -298 0
11077 -1277 1278 0
11077 1277 -1278 0
11217 -437 438 0
11217 437 -438 0
11217 -1417 1418 0
11217 1417 -1418 0
11357 -577 578 0
11357 577 -578 0
11357 -1557 1558 0
11357 1557 -1558 0
11497 -717 718 0
11497 717 -718 0
11497 -1697 1698 0
11497 1697 -1698 0
11637 -857 858 0
11637 857 -858 0
11637 -1837 1838 0
11637 1837 -1838 0
-17 -7857 -18 0
17 -7857 18 0
-7997 -1138 0
-157 -7997 158 0
157 -7997 -158 0
-8977 1138 0
-8137 -1278 0
-297 -8137 298 0
297 -8137 -298 0
-9117 1278 0
-8277 -1418 0
-437 -8277 438 0
437 -8277 -438 0
-9257 1418 0
-8417 -1558 0
-577 -8417 578 0
577 -8417 -578 0
-9397 1558 0
-8557 -1698 0
-717 -8557 718 0
717 -8557 -718 0
-9537 1698 0
-157 -8977 -158 0
157 -8977 158 0
-297 -9117 -298 0
297 -9117 298 0
-437 -9257 -438 0
437 -9257 438 0
-577 -9397 -578 0
577 -9397 578 0
-717 -9537 -718 0
717 -9537 718 0
-857 -9677 -858 0
857 -9677 858 0
10798 -18 19 0
10798 18 -19 0
10798 -998 999 0
10798 998 -999 0
10938 -158 159 0
10938 158 -159 0
10938 -1138 1139 0
10938 1138 -1139 0
11078 -298 299 0
11078 298 -299 0
11078 -1278 1279 0
11078 1278 -1279 0
11218 -438 439 0
11218 438 -439 0
11218 -1418 1419 0
11218 1418 -1419 0
11358 -578 579 0
11358 578 -579 0
11358 -1558 1559 0
11358 1558 -1559 0
11498 -718 719 0
11498 718 -719 0
11498 -1698 1699 0
11498 1698 -1699 0
11638 -858 859 0
11638 858 -859 0
11638 -1838 1839 0
11638 1838 -1839 0
-18 -7858 -19 0
18 -7858 19 0
-7998 -1139 0
-158 -7998 159 0
158 -7998 -159 0
-8978 1139 0
-8138 -1279 0
-298 -8138 299 0
298 -8138 -299 0
-9118 1279 0
-8278 -1419 0
-438 -8278 439 0
438 -8278 -439 0
-9258 1419 0
-8418 -1559 0
-578 -8418 579 0
578 -8418 -579 0
-9398 1559 0
-8558 -1699 0
-718 -8558 719 0
718 -8558 -719 0
-9538 1699 0
-158 -8978 -159 0
158 -8978 159 0
-298 -9118 -299 0
298 -9118 299 0
-438 -9258 -439 0
438 -9258 439 0
-578 -9398 -579 0
578 -9398 579 0
-718 -9538 -719 0
718 -9538 719 0
-858 -9678 -859 0
858 -9678 859 0
10799 -19 20 0
10799 19 -20 0
10799 -999 1000 0
10799 999 -1000 0
10939 -159 160 0
10939 159 -160 0
10939 -1139 1140 0
10939 1139 -1140 0
11079 -299 300 0
11079 299 -300 0
11079 -1279 1280 0
11079 1279 -1280 0
11219 -439 440 0
11219 439 -440 0
11219 -1419 1420 0
11219 1419 -1420 0
11359 -579 580 0
11359 579 -580 0
11359 -1559 1560 0
11359 1559 -1560 0
11499 -719 720 0
11499 719 -720 0
11499 -1699 1700 0
11499 1699 -1700 0
11639 -859 860 0
11639 859 -860 0
11639 -1839 1840 0
11639 1839 -1840 0
-19 -7859 -20 0
19 -7859 20 0
-7999 -1140 0
-159 -7999 160 0
159 -7999 -160 0
-8979 1140 0
-8139 -1280 0
-299 -8139 300 0
299 -8139 -300 0
-9119 1280 0
-8279 -1420 0
-439 -8279 440 0
439 -8279 -440 0
-9259 1420 0
-8419 -1560 0
-579 -8419 580 0
579 -8419 -580 0
-9399 1560 0
-8559 -1700 0
-719 -8559 720 0
719 -8559 -720 0
-9539 1700 0
-159 -8979 -160 0
159 -8979 160 0
-299 -9119 -300 0
299 -9119 300 0
-439 -9259 -440 0
439 -9259 440 0
-579 -9399 -580 0
579 -9399 580 0
-719 -9539 -720 0
719 -9539 720 0
-859 -9679 -860 0
859 -9679 860 0
10800 -20 21 0
10800 20 -21 0
10800 -1000 1001 0
10800 1000 -1001 0
10940 -160 161 0
10940 160 -161 0
10940 -1140 1141 0
10940 1140 -1141 0
11080 -300 301 0
11080 300 -301 0
11080 -1280 1281 0
11080 1280 -1281 0
11220 -440 441 0
11220 440 -441 0
11220 -1420 1421 0
11220 1420 -1421 0
11360 -580 581 0
11360 580 -581 0
11360 -1560 1561 0
11360 1560 -1561 0
11500 -720 721 0
11500 720 -721 0
11500 -1700 1701 0
11500 1700 -1701 0
11640 -860 861 0
11640 860 -861 0
11640 -1840 1841 0
11640 1840 -1841 0
-20 -7860 -21 0
20 -7860 21 0
-8000 -1141 0
-160 -8000 161 0
160 -8000 -161 0
-8980 1141 0
-8140 -1281 0
-300 -8140 301 0
300 -8140 -301 0
-9120 1281 0
-8280 -1421 0
-440 -8280 441 0
440 -8280 -441 0
-9260 1421 0
-8420 -1561 0
-580 -8420 581 0
580 -8420 -581 0
-9400 1561 0
-8560 -1701 0
-720 -8560 721 0
720 -8560 -721 0
-9540 1701 0
-160 -8980 -161 0
160 -8980 161 0
-300 -9120 -301 0
300 -9120 301 0
-440 -9260 -441 0
440 -9260 441 0
-580 -9400 -581 0
580 -9400 581 0
-720 -9540 -721 0
720 -9540 721 0
-860 -9680 -861 0
860 -9680 861 0
10801 -21 22 0
10801 21 -22 0
10801 -1001 1002 0
10801 1001 -1002 0
10941 -161 162 0
10941 161 -162 0
10941 -1141 1142 0
10941 1141 -1142 0
11081 -301 302 0
11081 301 -302 0
11081 -1281 1282 0
11081 1281 -1282 0
11221 -441 442 0
11221 441 -442 0
11221 -1421 1422 0
11221 1421 -1422 0
11361 -581 582 0
11361 581 -582 0
11361 -1561 1562 0
11361 1561 -1562 0
11501 -721 722 0
11501 721 -722 0
11501 -1701 1702 0
11501 1701 -1702 0
11641 -861 862 0
11641 861 -862 0
11641 -1841 1842 0
11641 1841 -1842 0
-21 -7861 -22 0
21 -7861 22 0
-8001 -1142 0
-161 -8001 162 0
161 -8001 -162 0
-8981 1142 0
-8141 -1282 0
-301 -8141 302 0
301 -8141 -302 0
-9121 1282 0
-8281 -1422 0
-441 -8281 442 0
441 -8281 -442 0
-9261 1422 0
-8421 -1562 0
-581 -8421 582 0
581 -8421 -582 0
-9401 1562 0
-8561 -1702 0
-721 -8561 722 0
721 -8561 -722 0
-9541 1702 0
-161 -8981 -162 0
161 -8981 162 0
-301 -9121 -302 0
301 -9121 302 0
-441 -9261 -442 0
441 -9261 442 0
-581 -9401 -582 0
581 -9401 582 0
-721 -9541 -722 0
721 -9541 722 0
-861 -9681 -862 0
861 -9681 862 0
10802 -22 23 0
10802 22 -23 0
10802 -1002 1003 0
10802 1002 -1003 0
10942 -162 163 0
10942 162 -163 0
10942 -1142 1143 0
10942 1142 -1143 0
11082 -302 303 0
11082 302 -303 0
11082 -1282 1283 0
11082 1282 -1283 0
11222 -442 443 0
11222 442 -443 0
11222 -1422 1423 0
11222 1422 -1423 0
11362 -582 583 0
11362 582 -583 0
11362 -1562 1563 0
11362 1562 -1563 0
11502 -722 723 0
11502 722 -723 0
11502 -1702 1703 0
11502 1702 -1703 0
11642 -862 863 0
11642 862 -863 0
11642 -1842 1843 0
11642 1842 -1843 0
-22 -7862 -23 0
22 -7862 23 0
-8002 -1143 0
-162 -8002 163 0
162 -8002 -163 0
-8982 1143 0
-8142 -1283 0
-302 -8142 303 0
302 -8142 -303 0
-9122 1283 0
-8282 -1423 0
-442 -8282 443 0
442 -8282 -443 0
-9262 1423 0
-8422 -1563 0
-582 -8422 583 0
582 -8422 -583 0
-9402 1563 0
-8562 -1703 0
-722 -8562 723 0
722 -8562 -723 0
-9542 1703 0
-162 -8982 -163 0
162 -8982 163 0
-302 -9122 -303 0
302 -9122 303 0
-442 -9262 -443 0
442 -9262 443 0
-582 -9402 -583 0
582 -9402 583 0
-722 -9542 -723 0
722 -9542 723 0
-862 -9682 -863 0
862 -9682 863 0
10803 -23 24 0
10803 23 -24 0
10803 -1003 1004 0
10803 1003 -1004 0
10943 -163 164 0
10943 163 -164 0
10943 -1143 1144 0
10943 1143 -1144 0
11083 -303 304 0
11083 303 -304 0
11083 -1283 1284 0
11083 1283 -1284 0
11223 -443 444 0
11223 443 -444 0
11223 -1423 1424 0
11223 1423 -1424 0
11363 -583 584 0
11363 583 -584 0
11363 -1563 1564 0
11363 1563 -1564 0
11503 -723 724 0
11503 723 -724 0
11503 -1703 1704 0
11503 1703 -1704 0
11643 -863 864 0
11643 863 -864 0
11643 -1843 1844 0
11643 1843 -1844 0
-23 -7863 -24 0
23 -7863 24 0
-8003 -1144 0
-163 -8003 164 0
163 -8003 -164 0
-8983 1144 0
-8143 -1284 0
-303 -8143 304 0
303 -8143 -304 0
-9123 1284 0
-8283 -1424 0
-443 -8283 444 0
443 -8283 -444 0
-9263 1424 0
-8423 -1564 0
-583 -8423 584 0
583 -8423 -584 0
-9403 1564 0
-8563 -1704 0
-723 -8563 724 0
723 -8563 -724 0
-9543 1704 0
-163 -8983 -164 0
163 -8983 164 0
-303 -9123 -304 0
303 -9123 304 0
-443 -9263 -444 0
443 -9263 444 0
-583 -9403 -584 0
583 -9403 584 0
-723 -9543 -724 0
723 -9543 724 0
-863 -9683 -864 0
863 -9683 864 0
10804 -24 25 0
10804 24 -25 0
10804 -1004 1005 0
10804 1004 -1005 0
10944 -164 165 0
10944 164 -165 0
10944 -1144 1145 0
10944 1144 -1145 0
11084 -304 305 0
11084 304 -305 0
11084 -1284 1285 0
11084 1284 -1285 0
11224 -444 445 0
11224 444 -445 0
11224 -1424 1425 0
11224 1424 -1425 0
11364 -584 585 0
11364 584 -585 0
11364 -1564 1565 0
11364 1564 -1565 0
11504 -724 725 0
11504 724 -725 0
11504 -1704 1705 0
11504 1704 -1705 0
11644 -864 865 0
11644 864 -865 0
11644 -1844 1845 0
11644 1844 -1845 0
-24 -7864 -25 0
24 -7864 25 0
-8004 -1145 0
-164 -8004 165 0
164 -8004 -165 0
-8984 1145 0
-8144 -1285 0
-304 -8144 305 0
304 -8144 -305 0
-9124 1285 0
-8284 -1425 0
-444 -8284 445 0
444 -8284 -445 0
-9264 1425 0
-8424 -1565 0
-584 -8424 585 0
584 -8424 -585 0
-9404 1565 0
-8564 -1705 0
-724 -8564 725 0
724 -8564 -725 0
-9544 1705 0
-164 -8984 -165 0
164 -8984 165 0
-304 -9124 -305 0
304 -9124 305 0
-444 -9264 -445 0
444 -9264 445 0
-584 -9404 -585 0
584 -9404 585 0
-724 -9544 -725 0
724 -9544 725 0
-864 -9684 -865 0
864 -9684 865 0
10805 -25 26 0
10805 25 -26 0
10805 -1005 1006 0
10805 1005 -1006 0
10945 -165 166 0
10945 165 -166 0
10945 -1145 1146 0
10945 1145 -1146 0
11085 -305 306 0
11085 305 -306 0
11085 -1285 1286 0
11085 1285 -1286 0
11225 -445 446 0
11225 445 -446 0
11225 -1425 1426 0
11225 1425 -1426 0
11365 -585 586 0
11365 585 -586 0
11365 -1565 1566 0
11365 1565 -1566 0
11505 -725 726 0
11505 725 -726 0
11505 -1705 1706 0
11505 1705 -1706 0
11645 -865 866 0
11645 865 -866 0
11645 -1845 1846 0
11645 1845 -1846 0
-25 -7865 -26 0
25 -7865 26 0
-8005 -1146 0
-165 -8005 166 0
165 -8005 -166 0
-8985 1146 0
-8145 -1286 0
-305 -8145 306 0
305 -8145 -306 0
-9125 1286 0
-8285 -1426 0
-445 -8285 446 0
445 -8285 -446 0
-9265 1426 0
-8425 -1566 0
-585 -8425 586 0
585 -8425 -586 0
-9405 1566 0
-8565 -1706 0
-725 -8565 726 0
725 -8565 -726 0
-9545 1706 0
-165 -8985 -166 0
165 -8985 166 0
-305 -9125 -306 0
305 -9125 306 0
-445 -9265 -446 0
445 -9265 446 0
-585 -9405 -586 0
585 -9405 586 0
-725 -9545 -726 0
725 -9545 726 0
-865 -9685 -866 0
865 -9685 866 0
10806 -26 27 0
10806 26 -27 0
10806 -1006 1007 0
10806 1006 -1007 0
10946 -166 167 0
10946 166 -167 0
10946 -1146 1147 0
10946 1146 -1147 0
11086 -306 307 0
11086 306 -307 0
11086 -1286 1287 0
11086 1286 -1287 0
11226 -446 447 0
11226 446 -447 0
11226 -1426 1427 0
11226 1426 -1427 0
11366 -586 587 0
11366 586 -587 0
11366 -1566 1567 0
11366 1566 -1567 0
11506 -726 727 0
11506 726 -727 0
11506 -1706 1707 0
11506 1706 -1707 0
11646 -866 867 0
11646 866 -867 0
11646 -1846 1847 0
11646 1846 -1847 0
-26 -7866 -27 0
26 -7866 27 0
-8006 -1147 0
-166 -8006 167 0
166 -8006 -167 0
-8986 1147 0
-8146 -1287 0
-306 -8146 307 0
306 -8146 -307 0
-9126 1287 0
-8286 -1427 0
-446 -8286 447 0
446 -8286 -447 0
-9266 1427 0
-8426 -1567 0
-586 -8426 587 0
586 -8426 -587 0
-9406 1567 0
-8566 -1707 0
-726 -8566 727 0
726 -8566 -727 0
-9546 1707 0
-166 -8986 -167 0
166 -8986 167 0
-306 -9126 -307 0
306 -9126 307 0
-446 -9266 -447 0
446 -9266 447 0
-586 -9406 -587 0
586 -9406 587 0
-726 -9546 -727 0
726 -9546 727 0
-866 -9686 -867 0
866 -9686 867 0
10807 -27 28 0
10807 27 -28 0
10807 -1007 1008 0
10807 1007 -1008 0
10947 -167 168 0
10947 167 -168 0
10947 -1147 1148 0
10947 1147 -1148 0
11087 -307 308 0
11087 307 -308 0
11087 -1287 1288 0
11087 1287 -1288 0
11227 -447 448 0
11227 447 -448 0
11227 -1427 1428 0
11227 1427 -1428 0
11367 -587 588 0
11367 587 -588 0
11367 -1567 1568 0
11367 1567 -1568 0
11507 -727 728 0
11507 727 -728 0
11507 -1707 1708 0
11507 1707 -1708 0
11647 -867 868 0
11647 867 -868 0
11647 -1847 1848 0
11647 1847 -1848 0
-27 -7867 -28 0
27 -7867 28 0
-8007 -1148 0
-167 -8007 168 0
167 -8007 -168 0
-8987 1148 0
-8147 -1288 0
-307 -8147 308 0
307 -8147 -308 0
-9127 1288 0
-8287 -1428 0
-447 -8287 448 0
447 -8287 -448 0
-9267 1428 0
-8427 -1568 0
-587 -8427 588 0
587 -8427 -588 0
-9407 1568 0
-8567 -1708 0
-727 -8567 728 0
727 -8567 -728 0
-9547 1708 0
-167 -8987 -168 0
167 -8987 168 0
-307 -9127 -308 0
307 -9127 308 0
-447 -9267 -448 0
447 -9267 448 0
-587 -9407 -588 0
587 -9407 588 0
-727 -9547 -728 0
727 -9547 728 0
-867 -9687 -868 0
867 -9687 868 0
10808 -28 29 0
10808 28 -29 0
10808 -1008 1009 0
10808 1008 -1009 0
10948 -168 169 0
10948 168 -169 0
10948 -1148 1149 0
10948 1148 -1149 0
11088 -308 309 0
11088 308 -309 0
11088 -1288 1289 0
11088 1288 -1289 0
11228 -448 449 0
11228 448 -449 0
11228 -1428 1429 0
11228 1428 -1429 0
11368 -588 589 0
11368 588 -589 0
11368 -1568 1569 0
11368 1568 -1569 0
11508 -728 729 0
11508 728 -729 0
11508 -1708 1709 0
11508 1708 -1709 0
11648 -868 869 0
11648 868 -869 0
11648 -1848 1849 0
11648 1848 -1849 0
-28 -7868 -29 0
28 -7868 29 0
-8008 -1149 0
-168 -8008 169 0
168 -8008 -169 0
-8988 1149 0
-8148 -1289 0
-308 -8148 309 0
308 -8148 -309 0
-9128 1289 0
-8288 -1429 0
-448 -8288 449 0
448 -8288 -449 0
-9268 1429 0
-8428 -1569 0
-588 -8428 589 0
588 -8428 -589 0
-9408 1569 0
-8568 -1709 0
-728 -8568 729 0
728 -8568 -729 0
-9548 1709 0
-168 -8988 -169 0
168 -8988 169 0
-308 -9128 -309 0
308 -9128 309 0
-448 -9268 -449 0
448 -9268 449 0
-588 -9408 -589 0
588 -9408 589 0
-728 -9548 -729 0
728 -9548 729 0
-868 -9688 -869 0
868 -9688 869 0
10809 -29 30 0
10809 29 -30 0
10809 -1009 1010 0
10809 1009 -1010 0
10949 -169 170 0
10949 169 -170 0
10949 -1149 1150 0
10949 1149 -1150 0
11089 -309 310 0
11089 309 -310 0
11089 -1289 1290 0
11089 1289 -1290 0
11229 -449 450 0
11229 449 -450 0
11229 -1429 1430 0
11229 1429 -1430 0
11369 -589 590 0
11369 589 -590 0
11369 -1569 1570 0
11369 1569 -1570 0
11509 -729 730 0
11509 729 -730 0
11509 -1709 1710 0
11509 1709 -1710 0
11649 -869 870 0
11649 869 -870 0
11649 -1849 1850 0
11649 1849 -1850 0
-29 -7869 -30 0
29 -7869 30 0
-8009 -1150 0
-169 -8009 170 0
169 -8009 -170 0
-8989 1150 0
-8149 -1290 0
-309 -8149 310 0
309 -8149 -310 0
-9129 1290 0
-8289 -1430 0
-449 -8289 450 0
449 -8289 -450 0
-9269 1430 0
-8429 -1570 0
-589 -8429 590 0
589 -8429 -590 0
-9409 1570 0
-8569 -1710 0
-729 -8569 730 0
729 -8569 -730 0
-9549 1710 0
-169 -8989 -170 0
169 -8989 170 0
-309 -9129 -310 0
309 -9129 310 0
-449 -9269 -450 0
449 -9269 450 0
-589 -9409 -590 0
589 -9409 590 0
-729 -9549 -730 0
729 -9549 730 0
-869 -9689 -870 0
869 -9689 870 0
10810 -30 31 0
10810 30 -31 0
10810 -1010 1011 0
10810 1010 -1011 0
10950 -170 171 0
10950 170 -171 0
10950 -1150 1151 0
10950 1150 -1151 0
11090 -310 311 0
11090 310 -311 0
11090 -1290 1291 0
11090 1290 -1291 0
11230 -450 451 0
11230 450 -451 0
11230 -1430 1431 0
11230 1430 -1431 0
11370 -590 591 0
11370 590 -591 0
11370 -1570 1571 0
11370 1570 -1571 0
11510 -730 731 0
11510 730 -731 0
11510 -1710 1711 0
11510 1710 -1711 0
11650 -870 871 0
11650 870 -871 0
11650 -1850 1851 0
11650 1850 -1851 0
-30 -7870 -31 0
30 -7870 31 0
-8010 -1151 0
-170 -8010 171 0
170 -8010 -171 0
-8990 1151 0
-8150 -1291 0
-310 -8150 311 0
310 -8150 -311 0
-9130 1291 0
-8290 -1431 0
-450 -8290 451 0
450 -8290 -451 0
-9270 1431 0
-8430 -1571 0
-590 -8430 591 0
590 -8430 -591 0
-9410 1571 0
-8570 -1711 0
-730 -8570 731 0
730 -8570 -731 0
-9550 1711 0
-170 -8990 -171 0
170 -8990 171 0
-310 -9130 -311 0
310 -9130 311 0
-450 -9270 -451 0
450 -9270 451 0
-590 -9410 -591 0
590 -9410 591 0
-730 -9550 -731 0
730 -9550 731 0
-870 -9690 -871 0
870 -9690 871 0
10811 -31 32 0
10811 31 -32 0
10811 -1011 1012 0
10811 1011 -1012 0
10951 -171 172 0
10951 171 -172 0
10951 -1151 1152 0
10951 1151 -1152 0
11091 -311 312 0
11091 311 -312 0
11091 -1291 1292 0
11091 1291 -1292 0
11231 -451 452 0
11231 451 -452 0
11231 -1431 1432 0
11231 1431 -1432 0
11371 -591 592 0
11371 591 -592 0
11371 -1571 1572 0
11371 1571 -1572 0
11511 -731 732 0
11511 731 -732 0
11511 -1711 1712 0
11511 1711 -1712 0
11651 -871 872 0
11651 871 -872 0
11651 -1851 1852 0
11651 1851 -1852 0
-31 -7871 -32 0
31 -7871 32 0
-8011 -1152 0
-171 -8011 172 0
171 -8011 -172 0
-8991 1152 0
-8151 -1292 0
-311 -8151 312 0
311 -8151 -312 0
-9131 1292 0
-8291 -1432 0
-451 -8291 452 0
451 -8291 -452 0
-9271 1432 0
-8431 -1572 0
-591 -8431 592 0
591 -8431 -592 0
-9411 1572 0
-8571 -1712 0
-731 -8571 732 0
731 -8571 -732 0
-9551 1712 0
-171 -8991 -172 0
171 -8991 172 0
-311 -9131 -312 0
311 -9131 312 0
-451 -9271 -452 0
451 -9271 452 0
-591 -9411 -592 0
591 -9411 592 0
-731 -9551 -732 0
731 -9551 732 0
-871 -9691 -872 0
871 -9691 872 0
10812 -32 33 0
10812 32 -33 0
10812 -1012 1013 0
10812 1012 -1013 0
10952 -172 173 0
10952 172 -173 0
10952 -1152 1153 0
10952 1152 -1153 0
11092 -312 313 0
11092 312 -313 0
11092 -1292 1293 0
11092 1292 -1293 0
11232 -452 453 0
11232 452 -453 0
11232 -1432 1433 0
11232 1432 -1433 0
11372 -592 593 0
11372 592 -593 0
11372 -1572 1573 0
11372 1572 -1573 0
11512 -732 733 0
11512 732 -733 0
11512 -1712 1713 0
11512 1712 -1713 0
11652 -872 873 0
11652 872 -873 0
11652 -1852 1853 0
11652 1852 -1853 0
-32 -7872 -33 0
32 -7872 33 0
-8012 -1153 0
-172 -8012 173 0
172 -8012 -173 0
-8992 1153 0
-8152 -1293 0
-312 -8152 313 0
312 -8152 -313 0
-9132 1293 0
-8292 -1433 0
-452 -8292 453 0
452 -8292 -453 0
-9272 1433 0
-8432 -1573 0
-592 -8432 593 0
592 -8432 -593 0
-9412 1573 0
-8572 -1713 0
-732 -8572 733 0
732 -8572 -733 0
-9552 1713 0
-172 -8992 -173 0
172 -8992 173 0
-312 -9132 -313 0
312 -9132 313 0
-452 -9272 -453 0
452 -9272 453 0
-592 -9412 -593 0
592 -9412 593 0
-732 -9552 -733 0
732 -9552 733 0
-872 -9692 -873 0
872 -9692 873 0
10813 -33 34 0
10813 33 -34 0
10813 -1013 1014 0
10813 1013 -1014 0
10953 -173 174 0
10953 173 -174 0
10953 -1153 1154 0
10953 1153 -1154 0
11093 -313 314 0
11093 313 -314 0
11093 -1293 1294 0
11093 1293 -1294 0
11233 -453 454 0
11233 453 -454 0
11233 -1433 1434 0
11233 1433 -1434 0
11373 -593 594 0
11373 593 -594 0
11373 -1573 1574 0
11373 1573 -1574 0
11513 -733 734 0
11513 733 -734 0
11513 -1713 1714 0
11513 1713 -1714 0
11653 -873 874 0
11653 873 -874 0
11653 -1853 1854 0
11653 1853 -1854 0
-33 -7873 -34 0
33 -7873 34 0
-8013 -1154 0
-173 -8013 174 0
173 -8013 -174 0
-8993 1154 0
-8153 -1294 0
-313 -8153 314 0
313 -8153 -314 0
-9133 1294 0
-8293 -1434 0
-453 -8293 454 0
453 -8293 -454 0
-9273 1434 0
-8433 -1574 0
-593 -8433 594 0
593 -8433 -594 0
-9413 1574 0
-8573 -1714 0
-733 -8573 734 0
733 -8573 -734 0
-9553 1714 0
-173 -8993 -174 0
173 -8993 174 0
-313 -9133 -314 0
313 -9133 314 0
-453 -9273 -454 0
453 -9273 454 0
-593 -9413 -594 0
593 -9413 594 0
-733 -9553 -734 0
733 -9553 734 0
-873 -9693 -874 0
873 -9693 874 0
10814 -34 35 0
10814 34 -35 0
10814 -1014 1015 0
10814 1014 -1015 0
10954 -174 175 0
10954 174 -175 0
10954 -1154 1155 0
10954 1154 -1155 0
11094 -314 315 0
11094 314 -315 0
11094 -1294 1295 0
11094 1294 -1295 0
11234 -454 455 0
11234 454 -455 0
11234 -1434 1435 0
11234 1434 -1435 0
11374 -594 595 0
11374 594 -595 0
11374 -1574 1575 0
11374 1574 -1575 0
11514 -734 735 0
11514 734 -735 0
11514 -1714 1715 0
11514 1714 -1715 0
11654 -874 875 0
11654 874 -875 0
11654 -1854 1855 0
11654 1854 -1855 0
-34 -7874 -35 0
34 -7874 35 0
-8014 -1155 0
-174 -8014 175 0
174 -8014 -175 0
-8994 1155 0
-8154 -1295 0
-314 -8154 315 0
314 -8154 -315 0
-9134 1295 0
-8294 -1435 0
-454 -8294 455 0
454 -8294 -455 0
-9274 1435 0
-8434 -1575 0
-594 -8434 595 0
594 -8434 -595 0
-9414 1575 0
-8574 -1715 0
-734 -8574 735 0
734 -8574 -735 0
-9554 1715 0
-174 -8994 -175 0
174 -8994 175 0
-314 -9134 -315 0
314 -9134 315 0
-454 -9274 -455 0
454 -9274 455 0
-594 -9414 -595 0
594 -9414 595 0
-734 -9554 -735 0
734 -9554 735 0
-874 -9694 -875 0
874 -9694 875 0
10815 -35 36 0
10815 35 -36 0
10815 -1015 1016 0
10815 1015 -1016 0
10955 -175 176 0
10955 175 -176 0
10955 -1155 1156 0
10955 1155 -1156 0
11095 -315 316 0
11095 315 -316 0
11095 -1295 1296 0
11095 1295 -1296 0
11235 -455 456 0
11235 455 -456 0
11235 -1435 1436 0
11235 1435 -1436 0
11375 -595 596 0
11375 595 -596 0
11375 -1575 1576 0
11375 1575 -1576 0
11515 -735 736 0
11515 735 -736 0
11515 -1715 1716 0
11515 1715 -1716 0
11655 -875 876 0
11655 875 -876 0
11655 -1855 1856 0
11655 1855 -1856 0
-35 -7875 -36 0
35 -7875 36 0
-8015 -1156 0
-175 -8015 176 0
175 -8015 -176 0
-8995 1156 0
-8155 -1296 0
-315 -8155 316 0
315 -8155 -316 0
-9135 1296 0
-8295 -1436 0
-455 -8295 456 0
455 -8295 -456 0
-9275 1436 0
-8435 -1576 0
-595 -8435 596 0
595 -8435 -596 0
-9415 1576 0
-8575 -1716 0
-735 -8575 736 0
735 -8575 -736 0
-9555 1716 0
-175 -8995 -176 0
175 -8995 176 0
-315 -9135 -316 0
315 -9135 316 0
-455 -9275 -456 0
455 -9275 456 0
-595 -9415 -596 0
595 -9415 596 0
-735 -9555 -736 0
735 -9555 736 0
-875 -9695 -876 0
875 -9695 876 0
10816 -36 37 0
10816 36 -37 0
10816 -1016 1017 0
10816 1016 -1017 0
10956 -176 177 0
10956 176 -177 0
10956 -1156 1157 0
10956 1156 -1157 0
11096 -316 317 0
11096 316 -317 0
11096 -1296 1297 0
11096 1296 -1297 0
11236 -456 457 0
11236 456 -457 0
11236 -1436 1437 0
11236 1436 -1437 0
11376 -596 597 0
11376 596 -597 0
11376 -1576 1577 0
11376 1576 -1577 0
11516 -736 737 0
11516 736 -737 0
11516 -1716 1717 0
11516 1716 -1717 0
11656 -876 877 0
11656 876 -877 0
11656 -1856 1857 0
11656 1856 -1857 0
-36 -7876 -37 0
36 -7876 37 0
-8016 -1157 0
-176 -8016 177 0
176 -8016 -177 0
-8996 1157 0
-8156 -1297 0
-316 -8156 317 0
316 -8156 -317 0
-9136 1297 0
-8296 -1437 0
-456 -8296 457 0
456 -8296 -457 0
-9276 1437 0
-8436 -1577 0
-596 -8436 597 0
596 -8436 -597 0
-9416 1577 0
-8576 -1717 0
-736 -8576 737 0
736 -8576 -737 0
-9556 1717 0
-176 -8996 -177 0
176 -8996 177 0
-316 -9136 -317 0
316 -9136 317 0
-456 -9276 -457 0
456 -9276 457 0
-596 -9416 -597 0
596 -9416 597 0
-736 -9556 -737 0
736 -9556 737 0
-876 -9696 -877 0
876 -9696 877 0
10817 -37 38 0
10817 37 -38 0
10817 -1017 1018 0
10817 1017 -1018 0
10957 -177 178 0
10957 177 -178 0
10957 -1157 1158 0
10957 1157 -1158 0
11097 -317 318 0
11097 317 -318 0
11097 -1297 1298 0
11097 1297 -1298 0
11237 -457 458 0
11237 457 -458 0
11237 -1437 1438 0
11237 1437 -1438 0
11377 -597 598 0
11377 597 -598 0
11377 -1577 1578 0
11377 1577 -1578 0
11517 -737 738 0
11517 737 -738 0
11517 -1717 1718 0
11517 1717 -1718 0
11657 -877 878 0
11657 877 -878 0
11657 -1857 1858 0
11657 1857 -1858 0
-37 -7877 -38 0
37 -7877 38 0
-8017 -1158 0
-177 -8017 178 0
177 -8017 -178 0
-8997 1158 0
-8157 -1298 0
-317 -8157 318 0
317 -8157 -318 0
-9137 1298 0
-8297 -1438 0
-457 -8297 458 0
457 -8297 -458 0
-9277 1438 0
-8437 -1578 0
-597 -8437 598 0
597 -8437 -598 0
-9417 1578 0
-8577 -1718 0
-737 -8577 738 0
737 -8577 -738 0
-9557 1718 0
-177 -8997 -178 0
177 -8997 178 0
-317 -9137 -318 0
317 -9137 318 0
-457 -9277 -458 0
457 -9277 458 0
-597 -9417 -598 0
597 -9417 598 0
-737 -9557 -738 0
737 -9557 738 0
-877 -9697 -878 0
877 -9697 878 0
10818 -38 39 0
10818 38 -39 0
10818 -1018 1019 0
10818 1018 -1019 0
10958 -178 179 0
10958 178 -179 0
10958 -1158 1159 0
10958 1158 -1159 0
11098 -318 319 0
11098 318 -319 0
11098 -1298 1299 0
11098 1298 -1299 0
11238 -458 459 0
11238 458 -459 0
11238 -1438 1439 0
11238 1438 -1439 0
11378 -598 599 0
11378 598 -599 0
11378 -1578 1579 0
11378 1578 -1579 0
11518 -738 739 0
11518 738 -739 0
11518 -1718 1719 0
11518 1718 -1719 0
11658 -878 879 0
11658 878 -879 0
11658 -1858 1859 0
11658 1858 -1859 0
-38 -7878 -39 0
38 -7878 39 0
-8018 -1159 0
-178 -8018 179 0
178 -8018 -179 0
-8998 1159 0
-8158 -1299 0
-318 -8158 319 0
318 -8158 -319 0
-9138 1299 0
-8298 -1439 0
-458 -8298 459 0
458 -8298 -459 0
-9278 1439 0
-8438 -1579 0
-598 -8438 599 0
598 -8438 -599 0
-9418 1579 0
-8578 -1719 0
-738 -8578 739 0
738 -8578 -739 0
-9558 1719 0
-178 -8998 -179 0
178 -8998 179 0
-318 -9138 -319 0
318 -9138 319 0
-458 -9278 -459 0
458 -9278 459 0
-598 -9418 -599 0
598 -9418 599 0
-738 -9558 -739 0
738 -9558 739 0
-878 -9698 -879 0
878 -9698 879 0
10819 -39 40 0
10819 39 -40 0
10819 -1019 1020 0
10819 1019 -1020 0
10959 -179 180 0
10959 179 -180 0
10959 -1159 1160 0
10959 1159 -1160 0
11099 -319 320 0
11099 319 -320 0
11099 -1299 1300 0
11099 1299 -1300 0
11239 -459 460 0
11239 459 -460 0
11239 -1439 1440 0
11239 1439 -1440 0
11379 -599 600 0
11379 599 -600 0
11379 -1579 1580 0
11379 1579 -1580 0
11519 -739 740 0
11519 739 -740 0
11519 -1719 1720 0
11519 1719 -1720 0
11659 -879 880 0
11659 879 -880 0
11659 -1859 1860 0
11659 1859 -1860 0
-39 -7879 -40 0
39 -7879 40 0
-8019 -1160 0
-179 -8019 180 0
179 -8019 -180 0
-8999 1160 0
-8159 -1300 0
-319 -8159 320 0
319 -8159 -320 0
-9139 1300 0
-8299 -1440 0
-459 -8299 460 0
459 -8299 -460 0
-9279 1440 0
-8439 -1580 0
-599 -8439 600 0
599 -8439 -600 0
-9419 1580 0
-8579 -1720 0
-739 -8579 740 0
739 -8579 -740 0
-9559 1720 0
-179 -8999 -180 0
179 -8999 180 0
-319 -9139 -320 0
319 -9139 320 0
-459 -9279 -460 0
459 -9279 460 0
-599 -9419 -600 0
599 -9419 600 0
-739 -9559 -740 0
739 -9559 740 0
-879 -9699 -880 0
879 -9699 880 0
10820 -40 41 0
10820 40 -41 0
10820 -1020 1021 0
10820 1020 -1021 0
10960 -180 181 0
10960 180 -181 0
10960 -1160 1161 0
10960 1160 -1161 0
11100 -320 321 0
11100 320 -321 0
11100 -1300 1301 0
11100 1300 -1301 0
11240 -460 461 0
11240 460 -461 0
11240 -1440 1441 0
11240 1440 -1441 0
11380 -600 601 0
11380 600 -601 0
11380 -1580 1581 0
11380 1580 -1581 0
11520 -740 741 0
11520 740 -741 0
11520 -1720 1721 0
11520 1720 -1721 0
11660 -880 881 0
11660 880 -881 0
11660 -1860 1861 0
11660 1860 -1861 0
-40 -7880 -41 0
40 -7880 41 0
-8020 -1161 0
-180 -8020 181 0
180 -8020 -181 0
-9000 1161 0
-8160 -1301 0
-320 -8160 321 0
320 -8160 -321 0
-9140 1301 0
-8300 -1441 0
-460 -8300 461 0
460 -8300 -461 0
-9280 1441 0
-8440 -1581 0
-600 -8440 601 0
600 -8440 -601 0
-9420 1581 0
-8580 -1721 0
-740 -8580 741 0
740 -8580 -741 0
-9560 1721 0
-180 -9000 -181 0
180 -9000 181 0
-320 -9140 -321 0
320 -9140 321 0
-460 -9280 -461 0
460 -9280 461 0
-600 -9420 -601 0
600 -9420 601 0
-740 -9560 -741 0
740 -9560 741 0
-880 -9700 -881 0
880 -9700 881 0
10821 -41 42 0
10821 41 -42 0
10821 -1021 1022 0
10821 1021 -1022 0
10961 -181 182 0
10961 181 -182 0
10961 -1161 1162 0
10961 1161 -1162 0
11101 -321 322 0
11101 321 -322 0
11101 -1301 1302 0
11101 1301 -1302 0
11241 -461 462 0
11241 461 -462 0
11241 -1441 1442 0
11241 1441 -1442 0
11381 -601 602 0
11381 601 -602 0
11381 -1581 1582 0
11381 1581 -1582 0
11521 -741 742 0
11521 741 -742 0
11521 -1721 1722 0
11521 1721 -1722 0
11661 -881 882 0
11661 881 -882 0
11661 -1861 1862 0
11661 1861 -1862 0
-41 -7881 -42 0
41 -7881 42 0
-8021 -1162 0
-181 -8021 182 0
181 -8021 -182 0
-9001 1162 0
-8161 -1302 0
-321 -8161 322 0
321 -8161 -322 0
-9141 1302 0
-8301 -1442 0
-461 -8301 462 0
461 -8301 -462 0
-9281 1442 0
-8441 -1582 0
-601 -8441 602 0
601 -8441 -602 0
-9421 1582 0
-8581 -1722 0
-741 -8581 742 0
741 -8581 -742 0
-9561 1722 0
-181 -9001 -182 0
181 -9001 182 0
-321 -9141 -322 0
321 -9141 322 0
-461 -9281 -462 0
461 -9281 462 0
-601 -9421 -602 0
601 -9421 602 0
-741 -9561 -742 0
741 -9561 742 0
-881 -9701 -882 0
881 -9701 882 0
10822 -42 43 0
10822 42 -43 0
10822 -1022 1023 0
10822 1022 -1023 0
10962 -182 183 0
10962 182 -183 0
10962 -1162 1163 0
10962 1162 -1163 0
11102 -322 323 0
11102 322 -323 0
11102 -1302 1303 0
11102 1302 -1303 0
11242 -462 463 0
11242 462 -463 0
11242 -1442 1443 0
11242 1442 -1443 0
11382 -602 603 0
11382 602 -603 0
11382 -1582 1583 0
11382 1582 -1583 0
11522 -742 743 0
11522 742 -743 0
11522 -1722 1723 0
11522 1722 -1723 0
11662 -882 883 0
11662 882 -883 0
11662 -1862 1863 0
11662 1862 -1863 0
-42 -7882 -43 0
42 -7882 43 0
-8022 -1163 0
-182 -8022 183 0
182 -8022 -183 0
-9002 1163 0
-8162 -1303 0
-322 -8162 323 0
322 -8162 -323 0
-9142 1303 0
-8302 -1443 0
-462 -8302 463 0
462 -8302 -463 0
-9282 1443 0
-8442 -1583 0
-602 -8442 603 0
602 -8442 -603 0
-9422 1583 0
-8582 -1723 0
-742 -8582 743 0
742 -8582 -743 0
-9562 1723 0
-182 -9002 -183 0
182 -9002 183 0
-322 -9142 -323 0
322 -9142 323 0
-462 -9282 -463 0
462 -9282 463 0
-602 -9422 -603 0
602 -9422 603 0
-742 -9562 -743 0
742 -9562 743 0
-882 -9702 -883 0
882 -9702 883 0
10823 -43 44 0
10823 43 -44 0
10823 -1023 1024 0
10823 1023 -1024 0
10963 -183 184 0
10963 183 -184 0
10963 -1163 1164 0
10963 1163 -1164 0
11103 -323 324 0
11103 323 -324 0
11103 -1303 1304 0
11103 1303 -1304 0
11243 -463 464 0
11243 463 -464 0
11243 -1443 1444 0
11243 1443 -1444 0
11383 -603 604 0
11383 603 -604 0
11383 -1583 1584 0
11383 1583 -1584 0
11523 -743 744 0
11523 743 -744 0
11523 -1723 1724 0
11523 1723 -1724 0
11663 -883 884 0
11663 883 -884 0
11663 -1863 1864 0
11663 1863 -1864 0
-43 -7883 -44 0
43 -7883 44 0
-8023 -1164 0
-183 -8023 184 0
183 -8023 -184 0
-9003 1164 0
-8163 -1304 0
-323 -8163 324 0
323 -8163 -324 0
-9143 1304 0
-8303 -1444 0
-463 -8303 464 0
463 -8303 -464 0
-9283 1444 0
-8443 -1584 0
-603 -8443 604 0
603 -8443 -604 0
-9423 1584 0
-8583 -1724 0
-743 -8583 744 0
743 -8583 -744 0
-9563 1724 0
-183 -9003 -184 0
183 -9003 184 0
-323 -9143 -324 0
323 -9143 324 0
-463 -9283 -464 0
463 -9283 464 0
-603 -9423 -604 0
603 -9423 604 0
-743 -9563 -744 0
743 -9563 744 0
-883 -9703 -884 0
883 -9703 884 0
10824 -44 45 0
10824 44 -45 0
10824 -1024 1025 0
10824 1024 -1025 0
10964 -184 185 0
10964 184 -185 0
10964 -1164 1165 0
10964 1164 -1165 0
11104 -324 325 0
11104 324 -325 0
11104 -1304 1305 0
11104 1304 -1305 0
11244 -464 465 0
11244 464 -465 0
11244 -1444 1445 0
11244 1444 -1445 0
11384 -604 605 0
11384 604 -605 0
11384 -1584 1585 0
11384 1584 -1585 0
11524 -744 745 0
11524 744 -745 0
11524 -1724 1725 0
11524 1724 -1725 0
11664 -884 885 0
11664 884 -885 0
11664 -1864 1865 0
11664 1864 -1865 0
-44 -7884 -45 0
44 -7884 45 0
-8024 -1165 0
-184 -8024 185 0
184 -8024 -185 0
-9004 1165 0
-8164 -1305 0
-324 -8164 325 0
324 -8164 -325 0
-9144 1305 0
-8304 -1445 0
-464 -8304 465 0
464 -8304 -465 0
-9284 1445 0
-8444 -1585 0
-604 -8444 605 0
604 -8444 -605 0
-9424 1585 0
-8584 -1725 0
-744 -8584 745 0
744 -8584 -745 0
-9564 1725 0
-184 -9004 -185 0
184 -9004 185 0
-324 -9144 -325 0
324 -9144 325 0
-464 -9284 -465 0
464 -9284 465 0
-604 -9424 -605 0
604 -9424 605 0
-744 -9564 -745 0
744 -9564 745 0
-884 -9704 -885 0
884 -9704 885 0
10825 -45 46 0
10825 45 -46 0
10825 -1025 1026 0
10825 1025 -1026 0
10965 -185 186 0
10965 185 -186 0
10965 -1165 1166 0
10965 1165 -1166 0
11105 -325 326 0
11105 325 -326 0
11105 -1305 1306 0
11105 1305 -1306 0
11245 -465 466 0
11245 465 -466 0
11245 -1445 1446 0
11245 1445 -1446 0
11385 -605 606 0
11385 605 -606 0
11385 -1585 1586 0
11385 1585 -1586 0
11525 -745 746 0
11525 745 -746 0
11525 -1725 1726 0
11525 1725 -1726 0
11665 -885 886 0
11665 885 -886 0
11665 -1865 1866 0
11665 1865 -1866 0
-45 -7885 -46 0
45 -7885 46 0
-8025 -1166 0
-185 -8025 186 0
185 -8025 -186 0
-9005 1166 0
-8165 -1306 0
-325 -8165 326 0
325 -8165 -326 0
-9145 1306 0
-8305 -1446 0
-465 -8305 466 0
465 -8305 -466 0
-9285 1446 0
-8445 -1586 0
-605 -8445 606 0
605 -8445 -606 0
-9425 1586 0
-8585 -1726 0
-745 -8585 746 0
745 -8585 -746 0
-9565 1726 0
-185 -9005 -186 0
185 -9005 186 0
-325 -9145 -326 0
325 -9145 326 0
-465 -9285 -466 0
465 -9285 466 0
-605 -9425 -606 0
605 -9425 606 0
-745 -9565 -746 0
745 -9565 746 0
-885 -9705 -886 0
885 -9705 886 0
10826 -46 47 0
10826 46 -47 0
10826 -1026 1027 0
10826 1026 -1027 0
10966 -186 187 0
10966 186 -187 0
10966 -1166 1167 0
10966 1166 -1167 0
11106 -326 327 0
11106 326 -327 0
11106 -1306 1307 0
11106 1306 -1307 0
11246 -466 467 0
11246 466 -467 0
11246 -1446 1447 0
11246 1446 -1447 0
11386 -606 607 0
11386 606 -607 0
11386 -1586 1587 0
11386 1586 -1587 0
11526 -746 747 0
11526 746 -747 0
11526 -1726 1727 0
11526 1726 -1727 0
11666 -886 887 0
11666 886 -887 0
11666 -1866 1867 0
11666 1866 -1867 0
-46 -7886 -47 0
46 -7886 47 0
-8026 -1167 0
-186 -8026 187 0
186 -8026 -187 0
-9006 1167 0
-8166 -1307 0
-326 -8166 327 0
326 -8166 -327 0
-9146 1307 0
-8306 -1447 0
-466 -8306 467 0
466 -8306 -467 0
-9286 1447 0
-8446 -1587 0
-606 -8446 607 0
606 -8446 -607 0
-9426 1587 0
-8586 -1727 0
-746 -8586 747 0
746 -8586 -747 0
-9566 1727 0
-186 -9006 -187 0
186 -9006 187 0
-326 -9146 -327 0
326 -9146 327 0
-466 -9286 -467 0
466 -9286 467 0
-606 -9426 -607 0
606 -9426 607 0
-746 -9566 -747 0
746 -9566 747 0
-886 -9706 -887 0
886 -9706 887 0
10827 -47 48 0
10827 47 -48 0
10827 -1027 1028 0
10827 1027 -1028 0
10967 -187 188 0
10967 187 -188 0
10967 -1167 1168 0
10967 1167 -1168 0
11107 -327 328 0
11107 327 -328 0
11107 -1307 1308 0
11107 1307 -1308 0
11247 -467 468 0
11247 467 -468 0
11247 -1447 1448 0
11247 1447 -1448 0
11387 -607 608 0
11387 607 -608 0
11387 -1587 1588 0
11387 1587 -1588 0
11527 -747 748 0
11527 747 -748 0
11527 -1727 1728 0
11527 1727 -1728 0
11667 -887 888 0
11667 887 -888 0
11667 -1867 1868 0
11667 1867 -1868 0
-47 -7887 -48 0
47 -7887 48 0
-8027 -1168 0
-187 -8027 188 0
187 -8027 -188 0
-9007 1168 0
-8167 -1308 0
-327 -8167 328 0
327 -8167 -328 0
-9147 1308 0
-8307 -1448 0
-467 -8307 468 0
467 -8307 -468 0
-9287 1448 0
-8447 -1588 0
-607 -8447 608 0
607 -8447 -608 0
-9427 1588 0
-8587 -1728 0
-747 -8587 748 0
747 -8587 -748 0
-9567 1728 0
-187 -9007 -188 0
187 -9007 188 0
-327 -9147 -328 0
327 -9147 328 0
-467 -9287 -468 0
467 -9287 468 0
-607 -9427 -608 0
607 -9427 608 0
-747 -9567 -748 0
747 -9567 748 0
-887 -9707 -888 0
887 -9707 888 0
10828 -48 49 0
10828 48 -49 0
10828 -1028 1029 0
10828 1028 -1029 0
10968 -188 189 0
10968 188 -189 0
10968 -1168 1169 0
10968 1168 -1169 0
11108 -328 329 0
11108 328 -329 0
11108 -1308 1309 0
11108 1308 -1309 0
11248 -468 469 0
11248 468 -469 0
11248 -1448 1449 0
11248 1448 -1449 0
11388 -608 609 0
11388 608 -609 0
11388 -1588 1589 0
11388 1588 -1589 0
11528 -748 749 0
11528 748 -749 0
11528 -1728 1729 0
11528 1728 -1729 0
11668 -888 889 0
11668 888 -889 0
11668 -1868 1869 0
11668 1868 -1869 0
-48 -7888 -49 0
48 -7888 49 0
-8028 -1169 0
-188 -8028 189 0
188 -8028 -189 0
-9008 1169 0
-8168 -1309 0
-328 -8168 329 0
328 -8168 -329 0
-9148 1309 0
-8308 -1449 0
-468 -8308 469 0
468 -8308 -469 0
-9288 1449 0
-8448 -1589 0
-608 -8448 609 0
608 -8448 -609 0
-9428 1589 0
-8588 -1729 0
-748 -8588 749 0
748 -8588 -749 0
-9568 1729 0
-188 -9008 -189 0
188 -9008 189 0
-328 -9148 -329 0
328 -9148 329 0
-468 -9288 -469 0
468 -9288 469 0
-608 -9428 -609 0
608 -9428 609 0
-748 -9568 -749 0
748 -9568 749 0
-888 -9708 -889 0
888 -9708 889 0
10829 -49 50 0
10829 49 -50 0
10829 -1029 1030 0
10829 1029 -1030 0
10969 -189 190 0
10969 189 -190 0
10969 -1169 1170 0
10969 1169 -1170 0
11109 -329 330 0
11109 329 -330 0
11109 -1309 1310 0
11109 1309 -1310 0
11249 -469 470 0
11249 469 -470 0
11249 -1449 1450 0
11249 1449 -1450 0
11389 -609 610 0
11389 609 -610 0
11389 -1589 1590 0
11389 1589 -1590 0
11529 -749 750 0
11529 749 -750 0
11529 -1729 1730 0
11529 1729 -1730 0
11669 -889 890 0
11669 889 -890 0
11669 -1869 1870 0
11669 1869 -1870 0
-49 -7889 -50 0
49 -7889 50 0
-8029 -1170 0
-189 -8029 190 0
189 -8029 -190 0
-9009 1170 0
-8169 -1310 0
-329 -8169 330 0
329 -8169 -330 0
-9149 1310 0
-8309 -1450 0
-469 -8309 470 0
469 -8309 -470 0
-9289 1450 0
-8449 -1590 0
-609 -8449 610 0
609 -8449 -610 0
-9429 1590 0
-8589 -1730 0
-749 -8589 750 0
749 -8589 -750 0
-9569 1730 0
-189 -9009 -190 0
189 -9009 190 0
-329 -9149 -330 0
329 -9149 330 0
-469 -9289 -470 0
469 -9289 470 0
-609 -9429 -610 0
609 -9429 610 0
-749 -9569 -750 0
749 -9569 750 0
-889 -9709 -890 0
889 -9709 890 0
10830 -50 51 0
10830 50 -51 0
10830 -1030 1031 0
10830 1030 -1031 0
10970 -190 191 0
10970 190 -191 0
10970 -1170 1171 0
10970 1170 -1171 0
11110 -330 331 0
11110 330 -331 0
11110 -1310 1311 0
11110 1310 -1311 0
11250 -470 471 0
11250 470 -471 0
11250 -1450 1451 0
11250 1450 -1451 0
11390 -610 611 0
11390 610 -611 0
11390 -1590 1591 0
11390 1590 -1591 0
11530 -750 751 0
11530 750 -751 0
11530 -1730 1731 0
11530 1730 -1731 0
11670 -890 891 0
11670 890 -891 0
11670 -1870 1871 0
11670 1870 -1871 0
-50 -7890 -51 0
50 -7890 51 0
-8030 -1171 0
-190 -8030 191 0
190 -8030 -191 0
-9010 1171 0
-8170 -1311 0
-330 -8170 331 0
330 -8170 -331 0
-9150 1311 0
-8310 -1451 0
-470 -8310 471 0
470 -8310 -471 0
-9290 1451 0
-8450 -1591 0
-610 -8450 611 0
610 -8450 -611 0
-9430 1591 0
-8590 -1731 0
-750 -8590 751 0
750 -8590 -751 0
-9570 1731 0
-190 -9010 -191 0
190 -9010 191 0
-330 -9150 -331 0
330 -9150 331 0
-470 -9290 -471 0
470 -9290 471 0
-610 -9430 -611 0
610 -9430 611 0
-750 -9570 -751 0
750 -9570 751 0
-890 -9710 -891 0
890 -9710 891 0
10831 -51 52 0
10831 51 -52 0
10831 -1031 1032 0
10831 1031 -1032 0
10971 -191 192 0
10971 191 -192 0
10971 -1171 1172 0
10971 1171 -1172 0
11111 -331 332 0
11111 331 -332 0
11111 -1311 1312 0
11111 1311 -1312 0
11251 -471 472 0
11251 471 -472 0
11251 -1451 1452 0
11251 1451 -1452 0
11391 -611 612 0
11391 611 -612 0
11391 -1591 1592 0
11391 1591 -1592 0
11531 -751 752 0
11531 751 -752 0
11531 -1731 1732 0
11531 1731 -1732 0
11671 -891 892 0
11671 891 -892 0
11671 -1871 1872 0
11671 1871 -1872 0
-51 -7891 -52 0
51 -7891 52 0
-8031 -1172 0
-191 -8031 192 0
191 -8031 -192 0
-9011 1172 0
-8171 -1312 0
-331 -8171 332 0
331 -8171 -332 0
-9151 1312 0
-8311 -1452 0
-471 -8311 472 0
471 -8311 -472 0
-9291 1452 0
-8451 -1592 0
-611 -8451 612 0
611 -8451 -612 0
-9431 1592 0
-8591 -1732 0
-751 -8591 752 0
751 -8591 -752 0
-9571 1732 0
-191 -9011 -192 0
191 -9011 192 0
-331 -9151 -332 0
331 -9151 332 0
-471 -9291 -472 0
471 -9291 472 0
-611 -9431 -612 0
611 -9431 612 0
-751 -9571 -752 0
751 -9571 752 0
-891 -9711 -892 0
891 -9711 892 0
10832 -52 53 0
10832 52 -53 0
10832 -1032 1033 0
10832 1032 -1033 0
10972 -192 193 0
10972 192 -193 0
10972 -1172 1173 0
10972 1172 -1173 0
11112 -332 333 0
11112 332 -333 0
11112 -1312 1313 0
11112 1312 -1313 0
11252 -472 473 0
11252 472 -473 0
11252 -1452 1453 0
11252 1452 -1453 0
11392 -612 613 0
11392 612 -613 0
11392 -1592 1593 0
11392 1592 -1593 0
11532 -752 753 0
11532 752 -753 0
11532 -1732 1733 0
11532 1732 -1733 0
11672 -892 893 0
11672 892 -893 0
11672 -1872 1873 0
11672 1872 -1873 0
-52 -7892 -53 0
52 -7892 53 0
-8032 -1173 0
-192 -8032 193 0
192 -8032 -193 0
-9012 1173 0
-8172 -1313 0
-332 -8172 333 0
332 -8172 -333 0
-9152 1313 0
-8312 -1453 0
-472 -8312 473 0
472 -8312 -473 0
-9292 1453 0
-8452 -1593 0
-612 -8452 613 0
612 -8452 -613 0
-9432 1593 0
-8592 -1733 0
-752 -8592 753 0
752 -8592 -753 0
-9572 1733 0
-192 -9012 -193 0
192 -9012 193 0
-332 -9152 -333 0
332 -9152 333 0
-472 -9292 -473 0
472 -9292 473 0
-612 -9432 -613 0
612 -9432 613 0
-752 -9572 -753 0
752 -9572 753 0
-892 -9712 -893 0
892 -9712 893 0
10833 -53 54 0
10833 53 -54 0
10833 -1033 1034 0
10833 1033 -1034 0
10973 -193 194 0
10973 193 -194 0
10973 -1173 1174 0
10973 1173 -1174 0
11113 -333 334 0
11113 333 -334 0
11113 -1313 1314 0
11113 1313 -1314 0
11253 -473 474 0
11253 473 -474 0
11253 -1453 1454 0
11253 1453 -1454 0
11393 -613 614 0
11393 613 -614 0
11393 -1593 1594 0
11393 1593 -1594 0
11533 -753 754 0
11533 753 -754 0
11533 -1733 1734 0
11533 1733 -1734 0
11673 -893 894 0
11673 893 -894 0
11673 -1873 1874 0
11673 1873 -1874 0
-53 -7893 -54 0
53 -7893 54 0
-8033 -1174 0
-193 -8033 194 0
193 -8033 -194 0
-9013 1174 0
-8173 -1314 0
-333 -8173 334 0
333 -8173 -334 0
-9153 1314 0
-8313 -1454 0
-473 -8313 474 0
473 -8313 -474 0
-9293 1454 0
-8453 -1594 0
-613 -8453 614 0
613 -8453 -614 0
-9433 1594 0
-8593 -1734 0
-753 -8593 754 0
753 -8593 -754 0
-9573 1734 0
-193 -9013 -194 0
193 -9013 194 0
-333 -9153 -334 0
333 -9153 334 0
-473 -9293 -474 0
473 -9293 474 0
-613 -9433 -614 0
613 -9433 614 0
-753 -9573 -754 0
753 -9573 754 0
-893 -9713 -894 0
893 -9713 894 0
10834 -54 55 0
10834 54 -55 0
10834 -1034 1035 0
10834 1034 -1035 0
10974 -194 195 0
10974 194 -195 0
10974 -1174 1175 0
10974 1174 -1175 0
11114 -334 335 0
11114 334 -335 0
11114 -1314 1315 0
11114 1314 -1315 0
11254 -474 475 0
11254 474 -475 0
11254 -1454 1455 0
11254 1454 -1455 0
11394 -614 615 0
11394 614 -615 0
11394 -1594 1595 0
11394 1594 -1595 0
11534 -754 755 0
11534 754 -755 0
11534 -1734 1735 0
11534 1734 -1735 0
11674 -894 895 0
11674 894 -895 0
11674 -1874 1875 0
11674 1874 -1875 0
-54 -7894 -55 0
54 -7894 55 0
-8034 -1175 0
-194 -8034 195 0
194 -8034 -195 0
-9014 1175 0
-8174 -1315 0
-334 -8174 335 0
334 -8174 -335 0
-9154 1315 0
-8314 -1455 0
-474 -8314 475 0
474 -8314 -475 0
-9294 1455 0
-8454 -1595 0
-614 -8454 615 0
614 -8454 -615 0
-9434 1595 0
-8594 -1735 0
-754 -8594 755 0
754 -8594 -755 0
-9574 1735 0
-194 -9014 -195 0
194 -9014 195 0
-334 -9154 -335 0
334 -9154 335 0
-474 -9294 -475 0
474 -9294 475 0
-614 -9434 -615 0
614 -9434 615 0
-754 -9574 -755 0
754 -9574 755 0
-894 -9714 -895 0
894 -9714 895 0
10835 -55 56 0
10835 55 -56 0
10835 -1035 1036 0
10835 1035 -1036 0
10975 -195 196 0
10975 195 -196 0
10975 -1175 1176 0
10975 1175 -1176 0
11115 -335 336 0
11115 335 -336 0
11115 -1315 1316 0
11115 1315 -1316 0
11255 -475 476 0
11255 475 -476 0
11255 -1455 1456 0
11255 1455 -1456 0
11395 -615 616 0
11395 615 -616 0
11395 -1595 1596 0
11395 1595 -1596 0
11535 -755 756 0
11535 755 -756 0
11535 -1735 1736 0
11535 1735 -1736 0
11675 -895 896 0
11675 895 -896 0
11675 -1875 1876 0
11675 1875 -1876 0
-55 -7895 -56 0
55 -7895 56 0
-8035 -1176 0
-195 -8035 196 0
195 -8035 -196 0
-9015 1176 0
-8175 -1316 0
-335 -8175 336 0
335 -8175 -336 0
-9155 1316 0
-8315 -1456 0
-475 -8315 476 0
475 -8315 -476 0
-9295 1456 0
-8455 -1596 0
-615 -8455 616 0
615 -8455 -616 0
-9435 1596 0
-8595 -1736 0
-755 -8595 756 0
755 -8595 -756 0
-9575 1736 0
-195 -9015 -196 0
195 -9015 196 0
-335 -9155 -336 0
335 -9155 336 0
-475 -9295 -476 0
475 -9295 476 0
-615 -9435 -616 0
615 -9435 616 0
-755 -9575 -756 0
755 -9575 756 0
-895 -9715 -896 0
895 -9715 896 0
10836 -56 57 0
10836 56 -57 0
10836 -1036 1037 0
10836 1036 -1037 0
10976 -196 197 0
10976 196 -197 0
10976 -1176 1177 0
10976 1176 -1177 0
11116 -336 337 0
11116 336 -337 0
11116 -1316 1317 0
11116 1316 -1317 0
11256 -476 477 0
11256 476 -477 0
11256 -1456 1457 0
11256 1456 -1457 0
11396 -616 617 0
11396 616 -617 0
11396 -1596 1597 0
11396 1596 -1597 0
11536 -756 757 0
11536 756 -757 0
11536 -1736 1737 0
11536 1736 -1737 0
11676 -896 897 0
11676 896 -897 0
11676 -1876 1877 0
11676 1876 -1877 0
-56 -7896 -57 0
56 -7896 57 0
-8036 -1177 0
-196 -8036 197 0
196 -8036 -197 0
-9016 1177 0
-8176 -1317 0
-336 -8176 337 0
336 -8176 -337 0
-9156 1317 0
-8316 -1457 0
-476 -8316 477 0
476 -8316 -477 0
-9296 1457 0
-8456 -1597 0
-616 -8456 617 0
616 -8456 -617 0
-9436 1597 0
-8596 -1737 0
-756 -8596 757 0
756 -8596 -757 0
-9576 1737 0
-196 -9016 -197 0
196 -9016 197 0
-336 -9156 -337 0
336 -9156 337 0
-476 -9296 -477 0
476 -9296 477 0
-616 -9436 -617 0
616 -9436 617 0
-756 -9576 -757 0
756 -9576 757 0
-896 -9716 -897 0
896 -9716 897 0
10837 -57 58 0
10837 57 -58 0
10837 -1037 1038 0
10837 1037 -1038 0
10977 -197 198 0
10977 197 -198 0
10977 -1177 1178 0
10977 1177 -1178 0
11117 -337 338 0
11117 337 -338 0
11117 -1317 1318 0
11117 1317 -1318 0
11257 -477 478 0
11257 477 -478 0
11257 -1457 1458 0
11257 1457 -1458 0
11397 -617 618 0
11397 617 -618 0
11397 -1597 1598 0
11397 1597 -1598 0
11537 -757 758 0
11537 757 -758 0
11537 -1737 1738 0
11537 1737 -1738 0
11677 -897 898 0
11677 897 -898 0
11677 -1877 1878 0
11677 1877 -1878 0
-57 -7897 -58 0
57 -7897 58 0
-8037 -1178 0
-197 -8037 198 0
197 -8037 -198 0
-9017 1178 0
-8177 -1318 0
-337 -8177 338 0
337 -8177 -338 0
-9157 1318 0
-8317 -1458 0
-477 -8317 478 0
477 -8317 -478 0
-9297 1458 0
-8457 -1598 0
-617 -8457 618 0
617 -8457 -618 0
-9437 1598 0
-8597 -1738 0
-757 -8597 758 0
757 -8597 -758 0
-9577 1738 0
-197 -9017 -198 0
197 -9017 198 0
-337 -9157 -338 0
337 -9157 338 0
-477 -9297 -478 0
477 -9297 478 0
-617 -9437 -618 0
617 -9437 618 0
-757 -9577 -758 0
757 -9577 758 0
-897 -9717 -898 0
897 -9717 898 0
10838 -58 59 0
10838 58 -59 0
10838 -1038 1039 0
10838 1038 -1039 0
10978 -198 199 0
10978 198 -199 0
10978 -1178 1179 0
10978 1178 -1179 0
11118 -338 339 0
11118 338 -339 0
11118 -1318 1319 0
11118 1318 -1319 0
11258 -478 479 0
11258 478 -479 0
11258 -1458 1459 0
11258 1458 -1459 0
11398 -618 619 0
11398 618 -619 0
11398 -1598 1599 0
11398 1598 -1599 0
11538 -758 759 0
11538 758 -759 0
11538 -1738 1739 0
11538 1738 -1739 0
11678 -898 899 0
11678 898 -899 0
11678 -1878 1879 0
11678 1878 -1879 0
-58 -7898 -59 0
58 -7898 59 0
-8038 -1179 0
-198 -8038 199 0
198 -8038 -199 0
-9018 1179 0
-8178 -1319 0
-338 -8178 339 0
338 -8178 -339 0
-9158 1319 0
-8318 -1459 0
-478 -8318 479 0
478 -8318 -479 0
-9298 1459 0
-8458 -1599 0
-618 -8458 619 0
618 -8458 -619 0
-9438 1599 0
-8598 -1739 0
-758 -8598 759 0
758 -8598 -759 0
-9578 1739 0
-198 -9018 -199 0
198 -9018 199 0
-338 -9158 -339 0
338 -9158 339 0
-478 -9298 -479 0
478 -9298 479 0
-618 -9438 -619 0
618 -9438 619 0
-758 -9578 -759 0
758 -9578 759 0
-898 -9718 -899 0
898 -9718 899 0
10839 -59 60 0
10839 59 -60 0
10839 -1039 1040 0
10839 1039 -1040 0
10979 -199 200 0
10979 199 -200 0
10979 -1179 1180 0
10979 1179 -1180 0
11119 -339 340 0
11119 339 -340 0
11119 -1319 1320 0
11119 1319 -1320 0
11259 -479 480 0
11259 479 -480 0
11259 -1459 1460 0
11259 1459 -1460 0
11399 -619 620 0
11399 619 -620 0
11399 -1599 1600 0
11399 1599 -1600 0
11539 -759 760 0
11539 759 -760 0
11539 -1739 1740 0
11539 1739 -1740 0
11679 -899 900 0
11679 899 -900 0
11679 -1879 1880 0
11679 1879 -1880 0
-59 -7899 -60 0
59 -7899 60 0
-8039 -1180 0
-199 -8039 200 0
199 -8039 -200 0
-9019 1180 0
-8179 -1320 0
-339 -8179 340 0
339 -8179 -340 0
-9159 1320 0
-8319 -1460 0
-479 -8319 480 0
479 -8319 -480 0
-9299 1460 0
-8459 -1600 0
-619 -8459 620 0
619 -8459 -620 0
-9439 1600 0
-8599 -1740 0
-759 -8599 760 0
759 -8599 -760 0
-9579 1740 0
-199 -9019 -200 0
199 -9019 200 0
-339 -9159 -340 0
339 -9159 340 0
-479 -9299 -480 0
479 -9299 480 0
-619 -9439 -620 0
619 -9439 620 0
-759 -9579 -760 0
759 -9579 760 0
-899 -9719 -900 0
899 -9719 900 0
10840 -60 61 0
10840 60 -61 0
10840 -1040 1041 0
10840 1040 -1041 0
10980 -200 201 0
10980 200 -201 0
10980 -1180 1181 0
10980 1180 -1181 0
11120 -340 341 0
11120 340 -341 0
11120 -1320 1321 0
11120 1320 -1321 0
11260 -480 481 0
11260 480 -481 0
11260 -1460 1461 0
11260 1460 -1461 0
11400 -620 621 0
11400 620 -621 0
11400 -1600 1601 0
11400 1600 -1601 0
11540 -760 761 0
11540 760 -761 0
11540 -1740 1741 0
11540 1740 -1741 0
11680 -900 901 0
11680 900 -901 0
11680 -1880 1881 0
11680 1880 -1881 0
-60 -7900 -61 0
60 -7900 61 0
-8040 -1181 0
-200 -8040 201 0
200 -8040 -201 0
-9020 1181 0
-8180 -1321 0
-340 -8180 341 0
340 -8180 -341 0
-9160 1321 0
-8320 -1461 0
-480 -8320 481 0
480 -8320 -481 0
-9300 1461 0
-8460 -1601 0
-620 -8460 621 0
620 -8460 -621 0
-9440 1601 0
-8600 -1741 0
-760 -8600 761 0
760 -8600 -761 0
-9580 1741 0
-200 -9020 -201 0
200 -9020 201 0
-340 -9160 -341 0
340 -9160 341 0
-480 -9300 -481 0
480 -9300 481 0
-620 -9440 -621 0
620 -9440 621 0
-760 -9580 -761 0
760 -9580 761 0
-900 -9720 -901 0
900 -9720 901 0
10841 -61 62 0
10841 61 -62 0
10841 -1041 1042 0
10841 1041 -1042 0
10981 -201 202 0
10981 201 -202 0
10981 -1181 1182 0
10981 1181 -1182 0
11121 -341 342 0
11121 341 -342 0
11121 -1321 1322 0
11121 1321 -1322 0
11261 -481 482 0
11261 481 -482 0
11261 -1461 1462 0
11261 1461 -1462 0
11401 -621 622 0
11401 621 -622 0
11401 -1601 1602 0
11401 1601 -1602 0
11541 -761 762 0
11541 761 -762 0
11541 -1741 1742 0
11541 1741 -1742 0
11681 -901 902 0
11681 901 -902 0
11681 -1881 1882 0
11681 1881 -1882 0
-61 -7901 -62 0
61 -7901 62 0
-8041 -1182 0
-201 -8041 202 0
201 -8041 -202 0
-9021 1182 0
-8181 -1322 0
-341 -8181 342 0
341 -8181 -342 0
-9161 1322 0
-8321 -1462 0
-481 -8321 482 0
481 -8321 -482 0
-9301 1462 0
-8461 -1602 0
-621 -8461 622 0
621 -8461 -622 0
-9441 1602 0
-8601 -1742 0
-761 -8601 762 0
761 -8601 -762 0
-9581 1742 0
-201 -9021 -202 0
201 -9021 202 0
-341 -9161 -342 0
341 -9161 342 0
-481 -9301 -482 0
481 -9301 482 0
-621 -9441 -622 0
621 -9441 622 0
-761 -9581 -762 0
761 -9581 762 0
-901 -9721 -902 0
901 -9721 902 0
10842 -62 63 0
10842 62 -63 0
10842 -1042 1043 0
10842 1042 -1043 0
10982 -202 203 0
10982 202 -203 0
10982 -1182 1183 0
10982 1182 -1183 0
11122 -342 343 0
11122 342 -343 0
11122 -1322 1323 0
11122 1322 -1323 0
11262 -482 483 0
11262 482 -483 0
11262 -1462 1463 0
11262 1462 -1463 0
11402 -622 623 0
11402 622 -623 0
11402 -1602 1603 0
11402 1602 -1603 0
11542 -762 763 0
11542 762 -763 0
11542 -1742 1743 0
11542 1742 -1743 0
11682 -902 903 0
11682 902 -903 0
11682 -1882 1883 0
11682 1882 -1883 0
-62 -7902 -63 0
62 -7902 63 0
-8042 -1183 0
-202 -8042 203 0
202 -8042 -203 0
-9022 1183 0
-8182 -1323 0
-342 -8182 343 0
342 -8182 -343 0
-9162 1323 0
-8322 -1463 0
-482 -8322 483 0
482 -8322 -483 0
-9302 1463 0
-8462 -1603 0
-622 -8462 623 0
622 -8462 -623 0
-9442 1603 0
-8602 -1743 0
-762 -8602 763 0
762 -8602 -763 0
-9582 1743 0
-202 -9022 -203 0
202 -9022 203 0
-342 -9162 -343 0
342 -9162 343 0
-482 -9302 -483 0
482 -9302 483 0
-622 -9442 -623 0
622 -9442 623 0
-762 -9582 -763 0
762 -9582 763 0
-902 -9722 -903 0
902 -9722 903 0
10843 -63 64 0
10843 63 -64 0
10843 -1043 1044 0
10843 1043 -1044 0
10983 -203 204 0
10983 203 -204 0
10983 -1183 1184 0
10983 1183 -1184 0
11123 -343 344 0
11123 343 -344 0
11123 -1323 1324 0
11123 1323 -1324 0
11263 -483 484 0
11263 483 -484 0
11263 -1463 1464 0
11263 1463 -1464 0
11403 -623 624 0
11403 623 -624 0
11403 -1603 1604 0
11403 1603 -1604 0
11543 -763 764 0
11543 763 -764 0
11543 -1743 1744 0
11543 1743 -1744 0
11683 -903 904 0
11683 903 -904 0
11683 -1883 1884 0
11683 1883 -1884 0
-63 -7903 -64 0
63 -7903 64 0
-8043 -1184 0
-203 -8043 204 0
203 -8043 -204 0
-9023 1184 0
-8183 -1324 0
-343 -8183 344 0
343 -8183 -344 0
-9163 1324 0
-8323 -1464 0
-483 -8323 484 0
483 -8323 -484 0
-9303 1464 0
-8463 -1604 0
-623 -8463 624 0
623 -8463 -624 0
-9443 1604 0
-8603 -1744 0
-763 -8603 764 0
763 -8603 -764 0
-9583 1744 0
-203 -9023 -204 0
203 -9023 204 0
-343 -9163 -344 0
343 -9163 344 0
-483 -9303 -484 0
483 -9303 484 0
-623 -9443 -624 0
623 -9443 624 0
-763 -9583 -764 0
763 -9583 764 0
-903 -9723 -904 0
903 -9723 904 0
10844 -64 65 0
10844 64 -65 0
10844 -1044 1045 0
10844 1044 -1045 0
10984 -204 205 0
10984 204 -205 0
10984 -1184 1185 0
10984 1184 -1185 0
11124 -344 345 0
11124 344 -345 0
11124 -1324 1325 0
11124 1324 -1325 0
11264 -484 485 0
11264 484 -485 0
11264 -1464 1465 0
11264 1464 -1465 0
11404 -624 625 0
11404 624 -625 0
11404 -1604 1605 0
11404 1604 -1605 0
11544 -764 765 0
11544 764 -765 0
11544 -1744 1745 0
11544 1744 -1745 0
11684 -904 905 0
11684 904 -905 0
11684 -1884 1885 0
11684 1884 -1885 0
-64 -7904 -65 0
64 -7904 65 0
-8044 -1185 0
-204 -8044 205 0
204 -8044 -205 0
-9024 1185 0
-8184 -1325 0
-344 -8184 345 0
344 -8184 -345 0
-9164 1325 0
-8324 -1465 0
-484 -8324 485 0
484 -8324 -485 0
-9304 1465 0
-8464 -1605 0
-624 -8464 625 0
624 -8464 -625 0
-9444 1605 0
-8604 -1745 0
-764 -8604 765 0
764 -8604 -765 0
-9584 1745 0
-204 -9024 -205 0
204 -9024 205 0
-344 -9164 -345 0
344 -9164 345 0
-484 -9304 -485 0
484 -9304 485 0
-624 -9444 -625 0
624 -9444 625 0
-764 -9584 -765 0
764 -9584 765 0
-904 -9724 -905 0
904 -9724 905 0
10845 -65 66 0
10845 65 -66 0
10845 -1045 1046 0
10845 1045 -1046 0
10985 -205 206 0
10985 205 -206 0
10985 -1185 1186 0
10985 1185 -1186 0
11125 -345 346 0
11125 345 -346 0
11125 -1325 1326 0
11125 1325 -1326 0
11265 -485 486 0
11265 485 -486 0
11265 -1465 1466 0
11265 1465 -1466 0
11405 -625 626 0
11405 625 -626 0
11405 -1605 1606 0
11405 1605 -1606 0
11545 -765 766 0
11545 765 -766 0
11545 -1745 1746 0
11545 1745 -1746 0
11685 -905 906 0
11685 905 -906 0
11685 -1885 1886 0
11685 1885 -1886 0
-65 -7905 -66 0
65 -7905 66 0
-8045 -1186 0
-205 -8045 206 0
205 -8045 -206 0
-9025 1186 0
-8185 -1326 0
-345 -8185 346 0
345 -8185 -346 0
-9165 1326 0
-8325 -1466 0
-485 -8325 486 0
485 -8325 -486 0
-9305 1466 0
-8465 -1606 0
-625 -8465 626 0
625 -8465 -626 0
-9445 1606 0
-8605 -1746 0
-765 -8605 766 0
765 -8605 -766 0
-9585 1746 0
-205 -9025 -206 0
205 -9025 206 0
-345 -9165 -346 0
345 -9165 346 0
-485 -9305 -486 0
485 -9305 486 0
-625 -9445 -626 0
625 -9445 626 0
-765 -9585 -766 0
765 -9585 766 0
-905 -9725 -906 0
905 -9725 906 0
10846 -66 67 0
10846 66 -67 0
10846 -1046 1047 0
10846 1046 -1047 0
10986 -206 207 0
10986 206 -207 0
10986 -1186 1187 0
10986 1186 -1187 0
11126 -346 347 0
11126 346 -347 0
11126 -1326 1327 0
11126 1326 -1327 0
11266 -486 487 0
11266 486 -487 0
11266 -1466 1467 0
11266 1466 -1467 0
11406 -626 627 0
11406 626 -627 0
11406 -1606 1607 0
11406 1606 -1607 0
11546 -766 767 0
11546 766 -767 0
11546 -1746 1747 0
11546 1746 -1747 0
11686 -906 907 0
11686 906 -907 0
11686 -1886 1887 0
11686 1886 -1887 0
-66 -7906 -67 0
66 -7906 67 0
-8046 -1187 0
-206 -8046 207 0
206 -8046 -207 0
-9026 1187 0
-8186 -1327 0
-346 -8186 347 0
346 -8186 -347 0
-9166 1327 0
-8326 -1467 0
-486 -8326 487 0
486 -8326 -487 0
-9306 1467 0
-8466 -1607 0
-626 -8466 627 0
626 -8466 -627 0
-9446 1607 0
-8606 -1747 0
-766 -8606 767 0
766 -8606 -767 0
-9586 1747 0
-206 -9026 -207 0
206 -9026 207 0
-346 -9166 -347 0
346 -9166 347 0
-486 -9306 -487 0
486 -9306 487 0
-626 -9446 -627 0
626 -9446 627 0
-766 -9586 -767 0
766 -9586 767 0
-906 -9726 -907 0
906 -9726 907 0
10847 -67 68 0
10847 67 -68 0
10847 -1047 1048 0
10847 1047 -1048 0
10987 -207 208 0
10987 207 -208 0
10987 -1187 1188 0
10987 1187 -1188 0
11127 -347 348 0
11127 347 -348 0
11127 -1327 1328 0
11127 1327 -1328 0
11267 -487 488 0
11267 487 -488 0
11267 -1467 1468 0
11267 1467 -1468 0
11407 -627 628 0
11407 627 -628 0
11407 -1607 1608 0
11407 1607 -1608 0
11547 -767 768 0
11547 767 -768 0
11547 -1747 1748 0
11547 1747 -1748 0
11687 -907 908 0
11687 907 -908 0
11687 -1887 1888 0
11687 1887 -1888 0
-67 -7907 -68 0
67 -7907 68 0
-8047 -1188 0
-207 -8047 208 0
207 -8047 -208 0
-9027 1188 0
-8187 -1328 0
-347 -8187 348 0
347 -8187 -348 0
-9167 1328 0
-8327 -1468 0
-487 -8327 488 0
487 -8327 -488 0
-9307 1468 0
-8467 -1608 0
-627 -8467 628 0
627 -8467 -628 0
-9447 1608 0
-8607 -1748 0
-767 -8607 768 0
767 -8607 -768 0
-9587 1748 0
-207 -9027 -208 0
207 -9027 208 0
-347 -9167 -348 0
347 -9167 348 0
-487 -9307 -488 0
487 -9307 488 0
-627 -9447 -628 0
627 -9447 628 0
-767 -9587 -768 0
767 -9587 768 0
-907 -9727 -908 0
907 -9727 908 0
10848 -68 69 0
10848 68 -69 0
10848 -1048 1049 0
10848 1048 -1049 0
10988 -208 209 0
10988 208 -209 0
10988 -1188 1189 0
10988 1188 -1189 0
11128 -348 349 0
11128 348 -349 0
11128 -1328 1329 0
11128 1328 -1329 0
11268 -488 489 0
11268 488 -489 0
11268 -1468 1469 0
11268 1468 -1469 0
11408 -628 629 0
11408 628 -629 0
11408 -1608 1609 0
11408 1608 -1609 0
11548 -768 769 0
11548 768 -769 0
11548 -1748 1749 0
11548 1748 -1749 0
11688 -908 909 0
11688 908 -909 0
11688 -1888 1889 0
11688 1888 -1889 0
-68 -7908 -69 0
68 -7908 69 0
-8048 -1189 0
-208 -8048 209 0
208 -8048 -209 0
-9028 1189 0
-8188 -1329 0
-348 -8188 349 0
348 -8188 -349 0
-9168 1329 0
-8328 -1469 0
-488 -8328 489 0
488 -8328 -489 0
-9308 1469 0
-8468 -1609 0
-628 -8468 629 0
628 -8468 -629 0
-9448 1609 0
-8608 -1749 0
-768 -8608 769 0
768 -8608 -769 0
-9588 1749 0
-208 -9028 -209 0
208 -9028 209 0
-348 -9168 -349 0
348 -9168 349 0
-488 -9308 -489 0
488 -9308 489 0
-628 -9448 -629 0
628 -9448 629 0
-768 -9588 -769 0
768 -9588 769 0
-908 -9728 -909 0
908 -9728 909 0
10849 -69 70 0
10849 69 -70 0
10849 -1049 1050 0
10849 1049 -1050 0
10989 -209 210 0
10989 209 -210 0
10989 -1189 1190 0
10989 1189 -1190 0
11129 -349 350 0
11129 349 -350 0
11129 -1329 1330 0
11129 1329 -1330 0
11269 -489 490 0
11269 489 -490 0
11269 -1469 1470 0
11269 1469 -1470 0
11409 -629 630 0
11409 629 -630 0
11409 -1609 1610 0
11409 1609 -1610 0
11549 -769 770 0
11549 769 -770 0
11549 -1749 1750 0
11549 1749 -1750 0
11689 -909 910 0
11689 909 -910 0
11689 -1889 1890 0
11689 1889 -1890 0
-69 -7909 -70 0
69 -7909 70 0
-8049 -1190 0
-209 -8049 210 0
209 -8049 -210 0
-9029 1190 0
-8189 -1330 0
-349 -8189 350 0
349 -8189 -350 0
-9169 1330 0
-8329 -1470 0
-489 -8329 490 0
489 -8329 -490 0
-9309 1470 0
-8469 -1610 0
-629 -8469 630 0
629 -8469 -630 0
-9449 1610 0
-8609 -1750 0
-769 -8609 770 0
769 -8609 -770 0
-9589 1750 0
-209 -9029 -210 0
209 -9029 210 0
-349 -9169 -350 0
349 -9169 350 0
-489 -9309 -490 0
489 -9309 490 0
-629 -9449 -630 0
629 -9449 630 0
-769 -9589 -770 0
769 -9589 770 0
-909 -9729 -910 0
909 -9729 910 0
10850 -70 71 0
10850 70 -71 0
10850 -1050 1051 0
10850 1050 -1051 0
10990 -210 211 0
10990 210 -211 0
10990 -1190 1191 0
10990 1190 -1191 0
11130 -350 351 0
11130 350 -351 0
11130 -1330 1331 0
11130 1330 -1331 0
11270 -490 491 0
11270 490 -491 0
11270 -1470 1471 0
11270 1470 -1471 0
11410 -630 631 0
11410 630 -631 0
11410 -1610 1611 0
11410 1610 -1611 0
11550 -770 771 0
11550 770 -771 0
11550 -1750 1751 0
11550 1750 -1751 0
11690 -910 911 0
11690 910 -911 0
11690 -1890 1891 0
11690 1890 -1891 0
-70 -7910 -71 0
70 -7910 71 0
-8050 -1191 0
-210 -8050 211 0
210 -8050 -211 0
-9030 1191 0
-8190 -1331 0
-350 -8190 351 0
350 -8190 -351 0
-9170 1331 0
-8330 -1471 0
-490 -8330 491 0
490 -8330 -491 0
-9310 1471 0
-8470 -1611 0
-630 -8470 631 0
630 -8470 -631 0
-9450 1611 0
-8610 -1751 0
-770 -8610 771 0
770 -8610 -771 0
-9590 1751 0
-210 -9030 -211 0
210 -9030 211 0
-350 -9170 -351 0
350 -9170 351 0
-490 -9310 -491 0
490 -9310 491 0
-630 -9450 -631 0
630 -9450 631 0
-770 -9590 -771 0
770 -9590 771 0
-910 -9730 -911 0
910 -9730 911 0
10851 -71 72 0
10851 71 -72 0
10851 -1051 1052 0
10851 1051 -1052 0
10991 -211 212 0
10991 211 -212 0
10991 -1191 1192 0
10991 1191 -1192 0
11131 -351 352 0
11131 351 -352 0
11131 -1331 1332 0
11131 1331 -1332 0
11271 -491 492 0
11271 491 -492 0
11271 -1471 1472 0
11271 1471 -1472 0
11411 -631 632 0
11411 631 -632 0
11411 -1611 1612 0
11411 1611 -1612 0
11551 -771 772 0
11551 771 -772 0
11551 -1751 1752 0
11551 1751 -1752 0
11691 -911 912 0
11691 911 -912 0
11691 -1891 1892 0
11691 1891 -1892 0
-71 -7911 -72 0
71 -7911 72 0
-8051 -1192 0
-211 -8051 212 0
211 -8051 -212 0
-9031 1192 0
-8191 -1332 0
-351 -8191 352 0
351 -8191 -352 0
-9171 1332 0
-8331 -1472 0
-491 -8331 492 0
491 -8331 -492 0
-9311 1472 0
-8471 -1612 0
-631 -8471 632 0
631 -8471 -632 0
-9451 1612 0
-8611 -1752 0
-771 -8611 772 0
771 -8611 -772 0
-9591 1752 0
-211 -9031 -212 0
211 -9031 212 0
-351 -9171 -352 0
351 -9171 352 0
-491 -9311 -492 0
491 -9311 492 0
-631 -9451 -632 0
631 -9451 632 0
-771 -9591 -772 0
771 -9591 772 0
-911 -9731 -912 0
911 -9731 912 0
10852 -72 73 0
10852 72 -73 0
10852 -1052 1053 0
10852 1052 -1053 0
10992 -212 213 0
10992 212 -213 0
10992 -1192 1193 0
10992 1192 -1193 0
11132 -352 353 0
11132 352 -353 0
11132 -1332 1333 0
11132 1332 -1333 0
11272 -492 493 0
11272 492 -493 0
11272 -1472 1473 0
11272 1472 -1473 0
11412 -632 633 0
11412 632 -633 0
11412 -1612 1613 0
11412 1612 -1613 0
11552 -772 773 0
11552 772 -773 0
11552 -1752 1753 0
11552 1752 -1753 0
11692 -912 913 0
11692 912 -913 0
11692 -1892 1893 0
11692 1892 -1893 0
-72 -7912 -73 0
72 -7912 73 0
-8052 -1193 0
-212 -8052 213 0
212 -8052 -213 0
-9032 1193 0
-8192 -1333 0
-352 -8192 353 0
352 -8192 -353 0
-9172 1333 0
-8332 -1473 0
-492 -8332 493 0
492 -8332 -493 0
-9312 1473 0
-8472 -1613 0
-632 -8472 633 0
632 -8472 -633 0
-9452 1613 0
-8612 -1753 0
-772 -8612 773 0
772 -8612 -773 0
-9592 1753 0
-212 -9032 -213 0
212 -9032 213 0
-352 -9172 -353 0
352 -9172 353 0
-492 -9312 -493 0
492 -9312 493 0
-632 -9452 -633 0
632 -9452 633 0
-772 -9592 -773 0
772 -9592 773 0
-912 -9732 -913 0
912 -9732 913 0
10853 -73 74 0
10853 73 -74 0
10853 -1053 1054 0
10853 1053 -1054 0
10993 -213 214 0
10993 213 -214 0
10993 -1193 1194 0
10993 1193 -1194 0
11133 -353 354 0
11133 353 -354 0
11133 -1333 1334 0
11133 1333 -1334 0
11273 -493 494 0
11273 493 -494 0
11273 -1473 1474 0
11273 1473 -1474 0
11413 -633 634 0
11413 633 -634 0
11413 -1613 1614 0
11413 1613 -1614 0
11553 -773 774 0
11553 773 -774 0
11553 -1753 1754 0
11553 1753 -1754 0
11693 -913 914 0
11693 913 -914 0
11693 -1893 1894 0
11693 1893 -1894 0
-73 -7913 -74 0
73 -7913 74 0
-8053 -1194 0
-213 -8053 214 0
213 -8053 -214 0
-9033 1194 0
-8193 -1334 0
-353 -8193 354 0
353 -8193 -354 0
-9173 1334 0
-8333 -1474 0
-493 -8333 494 0
493 -8333 -494 0
-9313 1474 0
-8473 -1614 0
-633 -8473 634 0
633 -8473 -634 0
-9453 1614 0
-8613 -1754 0
-773 -8613 774 0
773 -8613 -774 0
-9593 1754 0
-213 -9033 -214 0
213 -9033 214 0
-353 -9173 -354 0
353 -9173 354 0
-493 -9313 -494 0
493 -9313 494 0
-633 -9453 -634 0
633 -9453 634 0
-773 -9593 -774 0
773 -9593 774 0
-913 -9733 -914 0
913 -9733 914 0
10854 -74 75 0
10854 74 -75 0
10854 -1054 1055 0
10854 1054 -1055 0
10994 -214 215 0
10994 214 -215 0
10994 -1194 1195 0
10994 1194 -1195 0
11134 -354 355 0
11134 354 -355 0
11134 -1334 1335 0
11134 1334 -1335 0
11274 -494 495 0
11274 494 -495 0
11274 -1474 1475 0
11274 1474 -1475 0
11414 -634 635 0
11414 634 -635 0
11414 -1614 1615 0
11414 1614 -1615 0
11554 -774 775 0
11554 774 -775 0
11554 -1754 1755 0
11554 1754 -1755 0
11694 -914 915 0
11694 914 -915 0
11694 -1894 1895 0
11694 1894 -1895 0
-74 -7914 -75 0
74 -7914 75 0
-8054 -1195 0
-214 -8054 215 0
214 -8054 -215 0
-9034 1195 0
-8194 -1335 0
-354 -8194 355 0
354 -8194 -355 0
-9174 1335 0
-8334 -1475 0
-494 -8334 495 0
494 -8334 -495 0
-9314 1475 0
-8474 -1615 0
-634 -8474 635 0
634 -8474 -635 0
-9454 1615 0
-8614 -1755 0
-774 -8614 775 0
774 -8614 -775 0
-9594 1755 0
-214 -9034 -215 0
214 -9034 215 0
-354 -9174 -355 0
354 -9174 355 0
-494 -9314 -495 0
494 -9314 495 0
-634 -9454 -635 0
634 -9454 635 0
-774 -9594 -775 0
774 -9594 775 0
-914 -9734 -915 0
914 -9734 915 0
10855 -75 76 0
10855 75 -76 0
10855 -1055 1056 0
10855 1055 -1056 0
10995 -215 216 0
10995 215 -216 0
10995 -1195 1196 0
10995 1195 -1196 0
11135 -355 356 0
11135 355 -356 0
11135 -1335 1336 0
11135 1335 -1336 0
11275 -495 496 0
11275 495 -496 0
11275 -1475 1476 0
11275 1475 -1476 0
11415 -635 636 0
11415 635 -636 0
11415 -1615 1616 0
11415 1615 -1616 0
11555 -775 776 0
11555 775 -776 0
11555 -1755 1756 0
11555 1755 -1756 0
11695 -915 916 0
11695 915 -916 0
11695 -1895 1896 0
11695 1895 -1896 0
-75 -7915 -76 0
75 -7915 76 0
-8055 -1196 0
-215 -8055 216 0
215 -8055 -216 0
-9035 1196 0
-8195 -1336 0
-355 -8195 356 0
355 -8195 -356 0
-9175 1336 0
-8335 -1476 0
-495 -8335 496 0
495 -8335 -496 0
-9315 1476 0
-8475 -1616 0
-635 -8475 636 0
635 -8475 -636 0
-9455 1616 0
-8615 -1756 0
-775 -8615 776 0
775 -8615 -776 0
-9595 1756 0
-215 -9035 -216 0
215 -9035 216 0
-355 -9175 -356 0
355 -9175 356 0
-495 -9315 -496 0
495 -9315 496 0
-635 -9455 -636 0
635 -9455 636 0
-775 -9595 -776 0
775 -9595 776 0
-915 -9735 -916 0
915 -9735 916 0
10856 -76 77 0
10856 76 -77 0
10856 -1056 1057 0
10856 1056 -1057 0
10996 -216 217 0
10996 216 -217 0
10996 -1196 1197 0
10996 1196 -1197 0
11136 -356 357 0
11136 356 -357 0
11136 -1336 1337 0
11136 1336 -1337 0
11276 -496 497 0
11276 496 -497 0
11276 -1476 1477 0
11276 1476 -1477 0
11416 -636 637 0
11416 636 -637 0
11416 -1616 1617 0
11416 1616 -1617 0
11556 -776 777 0
11556 776 -777 0
11556 -1756 1757 0
11556 1756 -1757 0
11696 -916 917 0
11696 916 -917 0
11696 -1896 1897 0
11696 1896 -1897 0
-76 -7916 -77 0
76 -7916 77 0
-8056 -1197 0
-216 -8056 217 0
216 -8056 -217 0
-9036 1197 0
-8196 -1337 0
-356 -8196 357 0
356 -8196 -357 0
-9176 1337 0
-8336 -1477 0
-496 -8336 497 0
496 -8336 -497 0
-9316 1477 0
-8476 -1617 0
-636 -8476 637 0
636 -8476 -637 0
-9456 1617 0
-8616 -1757 0
-776 -8616 777 0
776 -8616 -777 0
-9596 1757 0
-216 -9036 -217 0
216 -9036 217 0
-356 -9176 -357 0
356 -9176 357 0
-496 -9316 -497 0
496 -9316 497 0
-636 -9456 -637 0
636 -9456 637 0
-776 -9596 -777 0
776 -9596 777 0
-916 -9736 -917 0
916 -9736 917 0
10857 -77 78 0
10857 77 -78 0
10857 -1057 1058 0
10857 1057 -1058 0
10997 -217 218 0
10997 217 -218 0
10997 -1197 1198 0
10997 1197 -1198 0
11137 -357 358 0
11137 357 -358 0
11137 -1337 1338 0
11137 1337 -1338 0
11277 -497 498 0
11277 497 -498 0
11277 -1477 1478 0
11277 1477 -1478 0
11417 -637 638 0
11417 637 -638 0
11417 -1617 1618 0
11417 1617 -1618 0
11557 -777 778 0
11557 777 -778 0
11557 -1757 1758 0
11557 1757 -1758 0
11697 -917 918 0
11697 917 -918 0
11697 -1897 1898 0
11697 1897 -1898 0
-77 -7917 -78 0
77 -7917 78 0
-8057 -1198 0
-217 -8057 218 0
217 -8057 -218 0
-9037 1198 0
-8197 -1338 0
-357 -8197 358 0
357 -8197 -358 0
-9177 1338 0
-8337 -1478 0
-497 -8337 498 0
497 -8337 -498 0
-9317 1478 0
-8477 -1618 0
-637 -8477 638 0
637 -8477 -638 0
-9457 1618 0
-8617 -1758 0
-777 -8617 778 0
777 -8617 -778 0
-9597 1758 0
-217 -9037 -218 0
217 -9037 218 0
-357 -9177 -358 0
357 -9177 358 0
-497 -9317 -498 0
497 -9317 498 0
-637 -9457 -638 0
637 -9457 638 0
-777 -9597 -778 0
777 -9597 778 0
-917 -9737 -918 0
917 -9737 918 0
10858 -78 79 0
10858 78 -79 0
10858 -1058 1059 0
10858 1058 -1059 0
10998 -218 219 0
10998 218 -219 0
10998 -1198 1199 0
10998 1198 -1199 0
11138 -358 359 0
11138 358 -359 0
11138 -1338 1339 0
11138 1338 -1339 0
11278 -498 499 0
11278 498 -499 0
11278 -1478 1479 0
11278 1478 -1479 0
11418 -638 639 0
11418 638 -639 0
11418 -1618 1619 0
11418 1618 -1619 0
11558 -778 779 0
11558 778 -779 0
11558 -1758 1759 0
11558 1758 -1759 0
11698 -918 919 0
11698 918 -919 0
11698 -1898 1899 0
11698 1898 -1899 0
-78 -7918 -79 0
78 -7918 79 0
-8058 -1199 0
-218 -8058 219 0
218 -8058 -219 0
-9038 1199 0
-8198 -1339 0
-358 -8198 359 0
358 -8198 -359 0
-9178 1339 0
-8338 -1479 0
-498 -8338 499 0
498 -8338 -499 0
-9318 1479 0
-8478 -1619 0
-638 -8478 639 0
638 -8478 -639 0
-9458 1619 0
-8618 -1759 0
-778 -8618 779 0
778 -8618 -779 0
-9598 1759 0
-218 -9038 -219 0
218 -9038 219 0
-358 -9178 -359 0
358 -9178 359 0
-498 -9318 -499 0
498 -9318 499 0
-638 -9458 -639 0
638 -9458 639 0
-778 -9598 -779 0
778 -9598 779 0
-918 -9738 -919 0
918 -9738 919 0
10859 -79 80 0
10859 79 -80 0
10859 -1059 1060 0
10859 1059 -1060 0
10999 -219 220 0
10999 219 -220 0
10999 -1199 1200 0
10999 1199 -1200 0
11139 -359 360 0
11139 359 -360 0
11139 -1339 1340 0
11139 1339 -1340 0
11279 -499 500 0
11279 499 -500 0
11279 -1479 1480 0
11279 1479 -1480 0
11419 -639 640 0
11419 639 -640 0
11419 -1619 1620 0
11419 1619 -1620 0
11559 -779 780 0
11559 779 -780 0
11559 -1759 1760 0
11559 1759 -1760 0
11699 -919 920 0
11699 919 -920 0
11699 -1899 1900 0
11699 1899 -1900 0
-79 -7919 -80 0
79 -7919 80 0
-8059 -1200 0
-219 -8059 220 0
219 -8059 -220 0
-9039 1200 0
-8199 -1340 0
-359 -8199 360 0
359 -8199 -360 0
-9179 1340 0
-8339 -1480 0
-499 -8339 500 0
499 -8339 -500 0
-9319 1480 0
-8479 -1620 0
-639 -8479 640 0
639 -8479 -640 0
-9459 1620 0
-8619 -1760 0
-779 -8619 780 0
779 -8619 -780 0
-9599 1760 0
-219 -9039 -220 0
219 -9039 220 0
-359 -9179 -360 0
359 -9179 360 0
-499 -9319 -500 0
499 -9319 500 0
-639 -9459 -640 0
639 -9459 640 0
-779 -9599 -780 0
779 -9599 780 0
-919 -9739 -920 0
919 -9739 920 0
10860 -80 81 0
10860 80 -81 0
10860 -1060 1061 0
10860 1060 -1061 0
11000 -220 221 0
11000 220 -221 0
11000 -1200 1201 0
11000 1200 -1201 0
11140 -360 361 0
11140 360 -361 0
11140 -1340 1341 0
11140 1340 -1341 0
11280 -500 501 0
11280 500 -501 0
11280 -1480 1481 0
11280 1480 -1481 0
11420 -640 641 0
11420 640 -641 0
11420 -1620 1621 0
11420 1620 -1621 0
11560 -780 781 0
11560 780 -781 0
11560 -1760 1761 0
11560 1760 -1761 0
11700 -920 921 0
11700 920 -921 0
11700 -1900 1901 0
11700 1900 -1901 0
-80 -7920 -81 0
80 -7920 81 0
-8060 -1201 0
-220 -8060 221 0
220 -8060 -221 0
-9040 1201 0
-8200 -1341 0
-360 -8200 361 0
360 -8200 -361 0
-9180 1341 0
-8340 -1481 0
-500 -8340 501 0
500 -8340 -501 0
-9320 1481 0
-8480 -1621 0
-640 -8480 641 0
640 -8480 -641 0
-9460 1621 0
-8620 -1761 0
-780 -8620 781 0
780 -8620 -781 0
-9600 1761 0
-220 -9040 -221 0
220 -9040 221 0
-360 -9180 -361 0
360 -9180 361 0
-500 -9320 -501 0
500 -9320 501 0
-640 -9460 -641 0
640 -9460 641 0
-780 -9600 -781 0
780 -9600 781 0
-920 -9740 -921 0
920 -9740 921 0
10861 -81 82 0
10861 81 -82 0
10861 -1061 1062 0
10861 1061 -1062 0
11001 -221 222 0
11001 221 -222 0
11001 -1201 1202 0
11001 1201 -1202 0
11141 -361 362 0
11141 361 -362 0
11141 -1341 1342 0
11141 1341 -1342 0
11281 -501 502 0
11281 501 -502 0
11281 -1481 1482 0
11281 1481 -1482 0
11421 -641 642 0
11421 641 -642 0
11421 -1621 1622 0
11421 1621 -1622 0
11561 -781 782 0
11561 781 -782 0
11561 -1761 1762 0
11561 1761 -1762 0
11701 -921 922 0
11701 921 -922 0
11701 -1901 1902 0
11701 1901 -1902 0
-81 -7921 -82 0
81 -7921 82 0
-8061 -1202 0
-221 -8061 222 0
221 -8061 -222 0
-9041 1202 0
-8201 -1342 0
-361 -8201 362 0
361 -8201 -362 0
-9181 1342 0
-8341 -1482 0
-501 -8341 502 0
501 -8341 -502 0
-9321 1482 0
-8481 -1622 0
-641 -8481 642 0
641 -8481 -642 0
-9461 1622 0
-8621 -1762 0
-781 -8621 782 0
781 -8621 -782 0
-9601 1762 0
-221 -9041 -222 0
221 -9041 222 0
-361 -9181 -362 0
361 -9181 362 0
-501 -9321 -502 0
501 -9321 502 0
-641 -9461 -642 0
641 -9461 642 0
-781 -9601 -782 0
781 -9601 782 0
-921 -9741 -922 0
921 -9741 922 0
10862 -82 83 0
10862 82 -83 0
10862 -1062 1063 0
10862 1062 -1063 0
11002 -222 223 0
11002 222 -223 0
11002 -1202 1203 0
11002 1202 -1203 0
11142 -362 363 0
11142 362 -363 0
11142 -1342 1343 0
11142 1342 -1343 0
11282 -502 503 0
11282 502 -503 0
11282 -1482 1483 0
11282 1482 -1483 0
11422 -642 643 0
11422 642 -643 0
11422 -1622 1623 0
11422 1622 -1623 0
11562 -782 783 0
11562 782 -783 0
11562 -1762 1763 0
11562 1762 -1763 0
11702 -922 923 0
11702 922 -923 0
11702 -1902 1903 0
11702 1902 -1903 0
-82 -7922 -83 0
82 -7922 83 0
-8062 -1203 0
-222 -8062 223 0
222 -8062 -223 0
-9042 1203 0
-8202 -1343 0
-362 -8202 363 0
362 -8202 -363 0
-9182 1343 0
-8342 -1483 0
-502 -8342 503 0
502 -8342 -503 0
-9322 1483 0
-8482 -1623 0
-642 -8482 643 0
642 -8482 -643 0
-9462 1623 0
-8622 -1763 0
-782 -8622 783 0
782 -8622 -783 0
-9602 1763 0
-222 -9042 -223 0
222 -9042 223 0
-362 -9182 -363 0
362 -9182 363 0
-502 -9322 -503 0
502 -9322 503 0
-642 -9462 -643 0
642 -9462 643 0
-782 -9602 -783 0
782 -9602 783 0
-922 -9742 -923 0
922 -9742 923 0
10863 -83 84 0
10863 83 -84 0
10863 -1063 1064 0
10863 1063 -1064 0
11003 -223 224 0
11003 223 -224 0
11003 -1203 1204 0
11003 1203 -1204 0
11143 -363 364 0
11143 363 -364 0
11143 -1343 1344 0
11143 1343 -1344 0
11283 -503 504 0
11283 503 -504 0
11283 -1483 1484 0
11283 1483 -1484 0
11423 -643 644 0
11423 643 -644 0
11423 -1623 1624 0
11423 1623 -1624 0
11563 -783 784 0
11563 783 -784 0
11563 -1763 1764 0
11563 1763 -1764 0
11703 -923 924 0
11703 923 -924 0
11703 -1903 1904 0
11703 1903 -1904 0
-83 -7923 -84 0
83 -7923 84 0
-8063 -1204 0
-223 -8063 224 0
223 -8063 -224 0
-9043 1204 0
-8203 -1344 0
-363 -8203 364 0
363 -8203 -364 0
-9183 1344 0
-8343 -1484 0
-503 -8343 504 0
503 -8343 -504 0
-9323 1484 0
-8483 -1624 0
-643 -8483 644 0
643 -8483 -644 0
-9463 1624 0
-8623 -1764 0
-783 -8623 784 0
783 -8623 -784 0
-9603 1764 0
-223 -9043 -224 0
223 -9043 224 0
-363 -9183 -364 0
363 -9183 364 0
-503 -9323 -504 0
503 -9323 504 0
-643 -9463 -644 0
643 -9463 644 0
-783 -9603 -784 0
783 -9603 784 0
-923 -9743 -924 0
923 -9743 924 0
10864 -84 85 0
10864 84 -85 0
10864 -1064 1065 0
10864 1064 -1065 0
11004 -224 225 0
11004 224 -225 0
11004 -1204 1205 0
11004 1204 -1205 0
11144 -364 365 0
11144 364 -365 0
11144 -1344 1345 0
11144 1344 -1345 0
11284 -504 505 0
11284 504 -505 0
11284 -1484 1485 0
11284 1484 -1485 0
11424 -644 645 0
11424 644 -645 0
11424 -1624 1625 0
11424 1624 -1625 0
11564 -784 785 0
11564 784 -785 0
11564 -1764 1765 0
11564 1764 -1765 0
11704 -924 925 0
11704 924 -925 0
11704 -1904 1905 0
11704 1904 -1905 0
-84 -7924 -85 0
84 -7924 85 0
-8064 -1205 0
-224 -8064 225 0
224 -8064 -225 0
-9044 1205 0
-8204 -1345 0
-364 -8204 365 0
364 -8204 -365 0
-9184 1345 0
-8344 -1485 0
-504 -8344 505 0
504 -8344 -505 0
-9324 1485 0
-8484 -1625 0
-644 -8484 645 0
644 -8484 -645 0
-9464 1625 0
-8624 -1765 0
-784 -8624 785 0
784 -8624 -785 0
-9604 1765 0
-224 -9044 -225 0
224 -9044 225 0
-364 -9184 -365 0
364 -9184 365 0
-504 -9324 -505 0
504 -9324 505 0
-644 -9464 -645 0
644 -9464 645 0
-784 -9604 -785 0
784 -9604 785 0
-924 -9744 -925 0
924 -9744 925 0
10865 -85 86 0
10865 85 -86 0
10865 -1065 1066 0
10865 1065 -1066 0
11005 -225 226 0
11005 225 -226 0
11005 -1205 1206 0
11005 1205 -1206 0
11145 -365 366 0
11145 365 -366 0
11145 -1345 1346 0
11145 1345 -1346 0
11285 -505 506 0
11285 505 -506 0
11285 -1485 1486 0
11285 1485 -1486 0
11425 -645 646 0
11425 645 -646 0
11425 -1625 1626 0
11425 1625 -1626 0
11565 -785 786 0
11565 785 -786 0
11565 -1765 1766 0
11565 1765 -1766 0
11705 -925 926 0
11705 925 -926 0
11705 -1905 1906 0
11705 1905 -1906 0
-85 -7925 -86 0
85 -7925 86 0
-8065 -1206 0
-225 -8065 226 0
225 -8065 -226 0
-9045 1206 0
-8205 -1346 0
-365 -8205 366 0
365 -8205 -366 0
-9185 1346 0
-8345 -1486 0
-505 -8345 506 0
505 -8345 -506 0
-9325 1486 0
-8485 -1626 0
-645 -8485 646 0
645 -8485 -646 0
-9465 1626 0
-8625 -1766 0
-785 -8625 786 0
785 -8625 -786 0
-9605 1766 0
-225 -9045 -226 0
225 -9045 226 0
-365 -9185 -366 0
365 -9185 366 0
-505 -9325 -506 0
505 -9325 506 0
-645 -9465 -646 0
645 -9465 646 0
-785 -9605 -786 0
785 -9605 786 0
-925 -9745 -926 0
925 -9745 926 0
10866 -86 87 0
10866 86 -87 0
10866 -1066 1067 0
10866 1066 -1067 0
11006 -226 227 0
11006 226 -227 0
11006 -1206 1207 0
11006 1206 -1207 0
11146 -366 367 0
11146 366 -367 0
11146 -1346 1347 0
11146 1346 -1347 0
11286 -506 507 0
11286 506 -507 0
11286 -1486 1487 0
11286 1486 -1487 0
11426 -646 647 0
11426 646 -647 0
11426 -1626 1627 0
11426 1626 -1627 0
11566 -786 787 0
11566 786 -787 0
11566 -1766 1767 0
11566 1766 -1767 0
11706 -926 927 0
11706 926 -927 0
11706 -1906 1907 0
11706 1906 -1907 0
-86 -7926 -87 0
86 -7926 87 0
-8066 -1207 0
-226 -8066 227 0
226 -8066 -227 0
-9046 1207 0
-8206 -1347 0
-366 -8206 367 0
366 -8206 -367 0
-9186 1347 0
-8346 -1487 0
-506 -8346 507 0
506 -8346 -507 0
-9326 1487 0
-8486 -1627 0
-646 -8486 647 0
646 -8486 -647 0
-9466 1627 0
-8626 -1767 0
-786 -8626 787 0
786 -8626 -787 0
-9606 1767 0
-226 -9046 -227 0
226 -9046 227 0
-366 -9186 -367 0
366 -9186 367 0
-506 -9326 -507 0
506 -9326 507 0
-646 -9466 -647 0
646 -9466 647 0
-786 -9606 -787 0
786 -9606 787 0
-926 -9746 -927 0
926 -9746 927 0
10867 -87 88 0
10867 87 -88 0
10867 -1067 1068 0
10867 1067 -1068 0
11007 -227 228 0
11007 227 -228 0
11007 -1207 1208 0
11007 1207 -1208 0
11147 -367 368 0
11147 367 -368 0
11147 -1347 1348 0
11147 1347 -1348 0
11287 -507 508 0
11287 507 -508 0
11287 -1487 1488 0
11287 1487 -1488 0
11427 -647 648 0
11427 647 -648 0
11427 -1627 1628 0
11427 1627 -1628 0
11567 -787 788 0
11567 787 -788 0
11567 -1767 1768 0
11567 1767 -1768 0
11707 -927 928 0
11707 927 -928 0
11707 -1907 1908 0
11707 1907 -1908 0
-87 -7927 -88 0
87 -7927 88 0
-8067 -1208 0
-227 -8067 228 0
227 -8067 -228 0
-9047 1208 0
-8207 -1348 0
-367 -8207 368 0
367 -8207 -368 0
-9187 1348 0
-8347 -1488 0
-507 -8347 508 0
507 -8347 -508 0
-9327 1488 0
-8487 -1628 0
-647 -8487 648 0
647 -8487 -648 0
-9467 1628 0
-8627 -1768 0
-787 -8627 788 0
787 -8627 -788 0
-9607 1768 0
-227 -9047 -228 0
227 -9047 228 0
-367 -9187 -368 0
367 -9187 368 0
-507 -9327 -508 0
507 -9327 508 0
-647 -9467 -648 0
647 -9467 648 0
-787 -9607 -788 0
787 -9607 788 0
-927 -9747 -928 0
927 -9747 928 0
10868 -88 89 0
10868 88 -89 0
10868 -1068 1069 0
10868 1068 -1069 0
11008 -228 229 0
11008 228 -229 0
11008 -1208 1209 0
11008 1208 -1209 0
11148 -368 369 0
11148 368 -369 0
11148 -1348 1349 0
11148 1348 -1349 0
11288 -508 509 0
11288 508 -509 0
11288 -1488 1489 0
11288 1488 -1489 0
11428 -648 649 0
11428 648 -649 0
11428 -1628 1629 0
11428 1628 -1629 0
11568 -788 789 0
11568 788 -789 0
11568 -1768 1769 0
11568 1768 -1769 0
11708 -928 929 0
11708 928 -929 0
11708 -1908 1909 0
11708 1908 -1909 0
-88 -7928 -89 0
88 -7928 89 0
-8068 -1209 0
-228 -8068 229 0
228 -8068 -229 0
-9048 1209 0
-8208 -1349 0
-368 -8208 369 0
368 -8208 -369 0
-9188 1349 0
-8348 -1489 0
-508 -8348 509 0
508 -8348 -509 0
-9328 1489 0
-8488 -1629 0
-648 -8488 649 0
648 -8488 -649 0
-9468 1629 0
-8628 -1769 0
-788 -8628 789 0
788 -8628 -789 0
-9608 1769 0
-228 -9048 -229 0
228 -9048 229 0
-368 -9188 -369 0
368 -9188 369 0
-508 -9328 -509 0
508 -9328 509 0
-648 -9468 -649 0
648 -9468 649 0
-788 -9608 -789 0
788 -9608 789 0
-928 -9748 -929 0
928 -9748 929 0
10869 -89 90 0
10869 89 -90 0
10869 -1069 1070 0
10869 1069 -1070 0
11009 -229 230 0
11009 229 -230 0
11009 -1209 1210 0
11009 1209 -1210 0
11149 -369 370 0
11149 369 -370 0
11149 -1349 1350 0
11149 1349 -1350 0
11289 -509 510 0
11289 509 -510 0
11289 -1489 1490 0
11289 1489 -1490 0
11429 -649 650 0
11429 649 -650 0
11429 -1629 1630 0
11429 1629 -1630 0
11569 -789 790 0
11569 789 -790 0
11569 -1769 1770 0
11569 1769 -1770 0
11709 -929 930 0
11709 929 -930 0
11709 -1909 1910 0
11709 1909 -1910 0
-89 -7929 -90 0
89 -7929 90 0
-8069 -1210 0
-229 -8069 230 0
229 -8069 -230 0
-9049 1210 0
-8209 -1350 0
-369 -8209 370 0
369 -8209 -370 0
-9189 1350 0
-8349 -1490 0
-509 -8349 510 0
509 -8349 -510 0
-9329 1490 0
-8489 -1630 0
-649 -8489 650 0
649 -8489 -650 0
-9469 1630 0
-8629 -1770 0
-789 -8629 790 0
789 -8629 -790 0
-9609 1770 0
-229 -9049 -230 0
229 -9049 230 0
-369 -9189 -370 0
369 -9189 370 0
-509 -9329 -510 0
509 -9329 510 0
-649 -9469 -650 0
649 -9469 650 0
-789 -9609 -790 0
789 -9609 790 0
-929 -9749 -930 0
929 -9749 930 0
10870 -90 91 0
10870 90 -91 0
10870 -1070 1071 0
10870 1070 -1071 0
11010 -230 231 0
11010 230 -231 0
11010 -1210 1211 0
11010 1210 -1211 0
11150 -370 371 0
11150 370 -371 0
11150 -1350 1351 0
11150 1350 -1351 0
11290 -510 511 0
11290 510 -511 0
11290 -1490 1491 0
11290 1490 -1491 0
11430 -650 651 0
11430 650 -651 0
11430 -1630 1631 0
11430 1630 -1631 0
11570 -790 791 0
11570 790 -791 0
11570 -1770 1771 0
11570 1770 -1771 0
11710 -930 931 0
11710 930 -931 0
11710 -1910 1911 0
11710 1910 -1911 0
-90 -7930 -91 0
90 -7930 91 0
-8070 -1211 0
-230 -8070 231 0
230 -8070 -231 0
-9050 1211 0
-8210 -1351 0
-370 -8210 371 0
370 -8210 -371 0
-9190 1351 0
-8350 -1491 0
-510 -8350 511 0
510 -8350 -511 0
-9330 1491 0
-8490 -1631 0
-650 -8490 651 0
650 -8490 -651 0
-9470 1631 0
-8630 -1771 0
-790 -8630 791 0
790 -8630 -791 0
-9610 1771 0
-230 -9050 -231 0
230 -9050 231 0
-370 -9190 -371 0
370 -9190 371 0
-510 -9330 -511 0
510 -9330 511 0
-650 -9470 -651 0
650 -9470 651 0
-790 -9610 -791 0
790 -9610 791 0
-930 -9750 -931 0
930 -9750 931 0
10871 -91 92 0
10871 91 -92 0
10871 -1071 1072 0
10871 1071 -1072 0
11011 -231 232 0
11011 231 -232 0
11011 -1211 1212 0
11011 1211 -1212 0
11151 -371 372 0
11151 371 -372 0
11151 -1351 1352 0
11151 1351 -1352 0
11291 -511 512 0
11291 511 -512 0
11291 -1491 1492 0
11291 1491 -1492 0
11431 -651 652 0
11431 651 -652 0
11431 -1631 1632 0
11431 1631 -1632 0
11571 -791 792 0
11571 791 -792 0
11571 -1771 1772 0
11571 1771 -1772 0
11711 -931 932 0
11711 931 -932 0
11711 -1911 1912 0
11711 1911 -1912 0
-91 -7931 -92 0
91 -7931 92 0
-8071 -1212 0
-231 -8071 232 0
231 -8071 -232 0
-9051 1212 0
-8211 -1352 0
-371 -8211 372 0
371 -8211 -372 0
-9191 1352 0
-8351 -1492 0
-511 -8351 512 0
511 -8351 -512 0
-9331 1492 0
-8491 -1632 0
-651 -8491 652 0
651 -8491 -652 0
-9471 1632 0
-8631 -1772 0
-791 -8631 792 0
791 -8631 -792 0
-9611 1772 0
-231 -9051 -232 0
231 -9051 232 0
-371 -9191 -372 0
371 -9191 372 0
-511 -9331 -512 0
511 -9331 512 0
-651 -9471 -652 0
651 -9471 652 0
-791 -9611 -792 0
791 -9611 792 0
-931 -9751 -932 0
931 -9751 932 0
10872 -92 93 0
10872 92 -93 0
10872 -1072 1073 0
10872 1072 -1073 0
11012 -232 233 0
11012 232 -233 0
11012 -1212 1213 0
11012 1212 -1213 0
11152 -372 373 0
11152 372 -373 0
11152 -1352 1353 0
11152 1352 -1353 0
11292 -512 513 0
11292 512 -513 0
11292 -1492 1493 0
11292 1492 -1493 0
11432 -652 653 0
11432 652 -653 0
11432 -1632 1633 0
11432 1632 -1633 0
11572 -792 793 0
11572 792 -793 0
11572 -1772 1773 0
11572 1772 -1773 0
11712 -932 933 0
11712 932 -933 0
11712 -1912 1913 0
11712 1912 -1913 0
-92 -7932 -93 0
92 -7932 93 0
-8072 -1213 0
-232 -8072 233 0
232 -8072 -233 0
-9052 1213 0
-8212 -1353 0
-372 -8212 373 0
372 -8212 -373 0
-9192 1353 0
-8352 -1493 0
-512 -8352 513 0
512 -8352 -513 0
-9332 1493 0
-8492 -1633 0
-652 -8492 653 0
652 -8492 -653 0
-9472 1633 0
-8632 -1773 0
-792 -8632 793 0
792 -8632 -793 0
-9612 1773 0
-232 -9052 -233 0
232 -9052 233 0
-372 -9192 -373 0
372 -9192 373 0
-512 -9332 -513 0
512 -9332 513 0
-652 -9472 -653 0
652 -9472 653 0
-792 -9612 -793 0
792 -9612 793 0
-932 -9752 -933 0
932 -9752 933 0
10873 -93 94 0
10873 93 -94 0
10873 -1073 1074 0
10873 1073 -1074 0
11013 -233 234 0
11013 233 -234 0
11013 -1213 1214 0
11013 1213 -1214 0
11153 -373 374 0
11153 373 -374 0
11153 -1353 1354 0
11153 1353 -1354 0
11293 -513 514 0
11293 513 -514 0
11293 -1493 1494 0
11293 1493 -1494 0
11433 -653 654 0
11433 653 -654 0
11433 -1633 1634 0
11433 1633 -1634 0
11573 -793 794 0
11573 793 -794 0
11573 -1773 1774 0
11573 1773 -1774 0
11713 -933 934 0
11713 933 -934 0
11713 -1913 1914 0
11713 1913 -1914 0
-93 -7933 -94 0
93 -7933 94 0
-8073 -1214 0
-233 -8073 234 0
233 -8073 -234 0
-9053 1214 0
-8213 -1354 0
-373 -8213 374 0
373 -8213 -374 0
-9193 1354 0
-8353 -1494 0
-513 -8353 514 0
513 -8353 -514 0
-9333 1494 0
-8493 -1634 0
-653 -8493 654 0
653 -8493 -654 0
-9473 1634 0
-8633 -1774 0
-793 -8633 794 0
793 -8633 -794 0
-9613 1774 0
-233 -9053 -234 0
233 -9053 234 0
-373 -9193 -374 0
373 -9193 374 0
-513 -9333 -514 0
513 -9333 514 0
-653 -9473 -654 0
653 -9473 654 0
-793 -9613 -794 0
793 -9613 794 0
-933 -9753 -934 0
933 -9753 934 0
10874 -94 95 0
10874 94 -95 0
10874 -1074 1075 0
10874 1074 -1075 0
11014 -234 235 0
11014 234 -235 0
11014 -1214 1215 0
11014 1214 -1215 0
11154 -374 375 0
11154 374 -375 0
11154 -1354 1355 0
11154 1354 -1355 0
11294 -514 515 0
11294 514 -515 0
11294 -1494 1495 0
11294 1494 -1495 0
11434 -654 655 0
11434 654 -655 0
11434 -1634 1635 0
11434 1634 -1635 0
11574 -794 795 0
11574 794 -795 0
11574 -1774 1775 0
11574 1774 -1775 0
11714 -934 935 0
11714 934 -935 0
11714 -1914 1915 0
11714 1914 -1915 0
-94 -7934 -95 0
94 -7934 95 0
-8074 -1215 0
-234 -8074 235 0
234 -8074 -235 0
-9054 1215 0
-8214 -1355 0
-374 -8214 375 0
374 -8214 -375 0
-9194 1355 0
-8354 -1495 0
-514 -8354 515 0
514 -8354 -515 0
-9334 1495 0
-8494 -1635 0
-654 -8494 655 0
654 -8494 -655 0
-9474 1635 0
-8634 -1775 0
-794 -8634 795 0
794 -8634 -795 0
-9614 1775 0
-234 -9054 -235 0
234 -9054 235 0
-374 -9194 -375 0
374 -9194 375 0
-514 -9334 -515 0
514 -9334 515 0
-654 -9474 -655 0
654 -9474 655 0
-794 -9614 -795 0
794 -9614 795 0
-934 -9754 -935 0
934 -9754 935 0
10875 -95 96 0
10875 95 -96 0
10875 -1075 1076 0
10875 1075 -1076 0
11015 -235 236 0
11015 235 -236 0
11015 -1215 1216 0
11015 1215 -1216 0
11155 -375 376 0
11155 375 -376 0
11155 -1355 1356 0
11155 1355 -1356 0
11295 -515 516 0
11295 515 -516 0
11295 -1495 1496 0
11295 1495 -1496 0
11435 -655 656 0
11435 655 -656 0
11435 -1635 1636 0
11435 1635 -1636 0
11575 -795 796 0
11575 795 -796 0
11575 -1775 1776 0
11575 1775 -1776 0
11715 -935 936 0
11715 935 -936 0
11715 -1915 1916 0
11715 1915 -1916 0
-95 -7935 -96 0
95 -7935 96 0
-8075 -1216 0
-235 -8075 236 0
235 -8075 -236 0
-9055 1216 0
-8215 -1356 0
-375 -8215 376 0
375 -8215 -376 0
-9195 1356 0
-8355 -1496 0
-515 -8355 516 0
515 -8355 -516 0
-9335 1496 0
-8495 -1636 0
-655 -8495 656 0
655 -8495 -656 0
-9475 1636 0
-8635 -1776 0
-795 -8635 796 0
795 -8635 -796 0
-9615 1776 0
-235 -9055 -236 0
235 -9055 236 0
-375 -9195 -376 0
375 -9195 376 0
-515 -9335 -516 0
515 -9335 516 0
-655 -9475 -656 0
655 -9475 656 0
-795 -9615 -796 0
795 -9615 796 0
-935 -9755 -936 0
935 -9755 936 0
10876 -96 97 0
10876 96 -97 0
10876 -1076 1077 0
10876 1076 -1077 0
11016 -236 237 0
11016 236 -237 0
11016 -1216 1217 0
11016 1216 -1217 0
11156 -376 377 0
11156 376 -377 0
11156 -1356 1357 0
11156 1356 -1357 0
11296 -516 517 0
11296 516 -517 0
11296 -1496 1497 0
11296 1496 -1497 0
11436 -656 657 0
11436 656 -657 0
11436 -1636 1637 0
11436 1636 -1637 0
11576 -796 797 0
11576 796 -797 0
11576 -1776 1777 0
11576 1776 -1777 0
11716 -936 937 0
11716 936 -937 0
11716 -1916 1917 0
11716 1916 -1917 0
-96 -7936 -97 0
96 -7936 97 0
-8076 -1217 0
-236 -8076 237 0
236 -8076 -237 0
-9056 1217 0
-8216 -1357 0
-376 -8216 377 0
376 -8216 -377 0
-9196 1357 0
-8356 -1497 0
-516 -8356 517 0
516 -8356 -517 0
-9336 1497 0
-8496 -1637 0
-656 -8496 657 0
656 -8496 -657 0
-9476 1637 0
-8636 -1777 0
-796 -8636 797 0
796 -8636 -797 0
-9616 1777 0
-236 -9056 -237 0
236 -9056 237 0
-376 -9196 -377 0
376 -9196 377 0
-516 -9336 -517 0
516 -9336 517 0
-656 -9476 -657 0
656 -9476 657 0
-796 -9616 -797 0
796 -9616 797 0
-936 -9756 -937 0
936 -9756 937 0
10877 -97 98 0
10877 97 -98 0
10877 -1077 1078 0
10877 1077 -1078 0
11017 -237 238 0
11017 237 -238 0
11017 -1217 1218 0
11017 1217 -1218 0
11157 -377 378 0
11157 377 -378 0
11157 -1357 1358 0
11157 1357 -1358 0
11297 -517 518 0
11297 517 -518 0
11297 -1497 1498 0
11297 1497 -1498 0
11437 -657 658 0
11437 657 -658 0
11437 -1637 1638 0
11437 1637 -1638 0
11577 -797 798 0
11577 797 -798 0
11577 -1777 1778 0
11577 1777 -1778 0
11717 -937 938 0
11717 937 -938 0
11717 -1917 1918 0
11717 1917 -1918 0
-97 -7937 -98 0
97 -7937 98 0
-8077 -1218 0
-237 -8077 238 0
237 -8077 -238 0
-9057 1218 0
-8217 -1358 0
-377 -8217 378 0
377 -8217 -378 0
-9197 1358 0
-8357 -1498 0
-517 -8357 518 0
517 -8357 -518 0
-9337 1498 0
-8497 -1638 0
-657 -8497 658 0
657 -8497 -658 0
-9477 1638 0
-8637 -1778 0
-797 -8637 798 0
797 -8637 -798 0
-9617 1778 0
-237 -9057 -238 0
237 -9057 238 0
-377 -9197 -378 0
377 -9197 378 0
-517 -9337 -518 0
517 -9337 518 0
-657 -9477 -658 0
657 -9477 658 0
-797 -9617 -798 0
797 -9617 798 0
-937 -9757 -938 0
937 -9757 938 0
10878 -98 99 0
10878 98 -99 0
10878 -1078 1079 0
10878 1078 -1079 0
11018 -238 239 0
11018 238 -239 0
11018 -1218 1219 0
11018 1218 -1219 0
11158 -378 379 0
11158 378 -379 0
11158 -1358 1359 0
11158 1358 -1359 0
11298 -518 519 0
11298 518 -519 0
11298 -1498 1499 0
11298 1498 -1499 0
11438 -658 659 0
11438 658 -659 0
11438 -1638 1639 0
11438 1638 -1639 0
11578 -798 799 0
11578 798 -799 0
11578 -1778 1779 0
11578 1778 -1779 0
11718 -938 939 0
11718 938 -939 0
11718 -1918 1919 0
11718 1918 -1919 0
-98 -7938 -99 0
98 -7938 99 0
-8078 -1219 0
-238 -8078 239 0
238 -8078 -239 0
-9058 1219 0
-8218 -1359 0
-378 -8218 379 0
378 -8218 -379 0
-9198 1359 0
-8358 -1499 0
-518 -8358 519 0
518 -8358 -519 0
-9338 1499 0
-8498 -1639 0
-658 -8498 659 0
658 -8498 -659 0
-9478 1639 0
-8638 -1779 0
-798 -8638 799 0
798 -8638 -799 0
-9618 1779 0
-238 -9058 -239 0
238 -9058 239 0
-378 -9198 -379 0
378 -9198 379 0
-518 -9338 -519 0
518 -9338 519 0
-658 -9478 -659 0
658 -9478 659 0
-798 -9618 -799 0
798 -9618 799 0
-938 -9758 -939 0
938 -9758 939 0
10879 -99 100 0
10879 99 -100 0
10879 -1079 1080 0
10879 1079 -1080 0
11019 -239 240 0
11019 239 -240 0
11019 -1219 1220 0
11019 1219 -1220 0
11159 -379 380 0
11159 379 -380 0
11159 -1359 1360 0
11159 1359 -1360 0
11299 -519 520 0
11299 519 -520 0
11299 -1499 1500 0
11299 1499 -1500 0
11439 -659 660 0
11439 659 -660 0
11439 -1639 1640 0
11439 1639 -1640 0
11579 -799 800 0
11579 799 -800 0
11579 -1779 1780 0
11579 1779 -1780 0
11719 -939 940 0
11719 939 -940 0
11719 -1919 1920 0
11719 1919 -1920 0
-99 -7939 -100 0
99 -7939 100 0
-8079 -1220 0
-239 -8079 240 0
239 -8079 -240 0
-9059 1220 0
-8219 -1360 0
-379 -8219 380 0
379 -8219 -380 0
-9199 1360 0
-8359 -1500 0
-519 -8359 520 0
519 -8359 -520 0
-9339 1500 0
-8499 -1640 0
-659 -8499 660 0
659 -8499 -660 0
-9479 1640 0
-8639 -1780 0
-799 -8639 800 0
799 -8639 -800 0
-9619 1780 0
-239 -9059 -240 0
239 -9059 240 0
-379 -9199 -380 0
379 -9199 380 0
-519 -9339 -520 0
519 -9339 520 0
-659 -9479 -660 0
659 -9479 660 0
-799 -9619 -800 0
799 -9619 800 0
-939 -9759 -940 0
939 -9759 940 0
10880 -100 101 0
10880 100 -101 0
10880 -1080 1081 0
10880 1080 -1081 0
11020 -240 241 0
11020 240 -241 0
11020 -1220 1221 0
11020 1220 -1221 0
11160 -380 381 0
11160 380 -381 0
11160 -1360 1361 0
11160 1360 -1361 0
11300 -520 521 0
11300 520 -521 0
11300 -1500 1501 0
11300 1500 -1501 0
11440 -660 661 0
11440 660 -661 0
11440 -1640 1641 0
11440 1640 -1641 0
11580 -800 801 0
11580 800 -801 0
11580 -1780 1781 0
11580 1780 -1781 0
11720 -940 941 0
11720 940 -941 0
11720 -1920 1921 0
11720 1920 -1921 0
-100 -7940 -101 0
100 -7940 101 0
-8080 -1221 0
-240 -8080 241 0
240 -8080 -241 0
-9060 1221 0
-8220 -1361 0
-380 -8220 381 0
380 -8220 -381 0
-9200 1361 0
-8360 -1501 0
-520 -8360 521 0
520 -8360 -521 0
-9340 1501 0
-8500 -1641 0
-660 -8500 661 0
660 -8500 -661 0
-9480 1641 0
-8640 -1781 0
-800 -8640 801 0
800 -8640 -801 0
-9620 1781 0
-240 -9060 -241 0
240 -9060 241 0
-380 -9200 -381 0
380 -9200 381 0
-520 -9340 -521 0
520 -9340 521 0
-660 -9480 -661 0
660 -9480 661 0
-800 -9620 -801 0
800 -9620 801 0
-940 -9760 -941 0
940 -9760 941 0
10881 -101 102 0
10881 101 -102 0
10881 -1081 1082 0
10881 1081 -1082 0
11021 -241 242 0
11021 241 -242 0
11021 -1221 1222 0
11021 1221 -1222 0
11161 -381 382 0
11161 381 -382 0
11161 -1361 1362 0
11161 1361 -1362 0
11301 -521 522 0
11301 521 -522 0
11301 -1501 1502 0
11301 1501 -1502 0
11441 -661 662 0
11441 661 -662 0
11441 -1641 1642 0
11441 1641 -1642 0
11581 -801 802 0
11581 801 -802 0
11581 -1781 1782 0
11581 1781 -1782 0
11721 -941 942 0
11721 941 -942 0
11721 -1921 1922 0
11721 1921 -1922 0
-101 -7941 -102 0
101 -7941 102 0
-8081 -1222 0
-241 -8081 242 0
241 -8081 -242 0
-9061 1222 0
-8221 -1362 0
-381 -8221 382 0
381 -8221 -382 0
-9201 1362 0
-8361 -1502 0
-521 -8361 522 0
521 -8361 -522 0
-9341 1502 0
-8501 -1642 0
-661 -8501 662 0
661 -8501 -662 0
-9481 1642 0
-8641 -1782 0
-801 -8641 802 0
801 -8641 -802 0
-9621 1782 0
-241 -9061 -242 0
241 -9061 242 0
-381 -9201 -382 0
381 -9201 382 0
-521 -9341 -522 0
521 -9341 522 0
-661 -9481 -662 0
661 -9481 662 0
-801 -9621 -802 0
801 -9621 802 0
-941 -9761 -942 0
941 -9761 942 0
10882 -102 103 0
10882 102 -103 0
10882 -1082 1083 0
10882 1082 -1083 0
11022 -242 243 0
11022 242 -243 0
11022 -1222 1223 0
11022 1222 -1223 0
11162 -382 383 0
11162 382 -383 0
11162 -1362 1363 0
11162 1362 -1363 0
11302 -522 523 0
11302 522 -523 0
11302 -1502 1503 0
11302 1502 -1503 0
11442 -662 663 0
11442 662 -663 0
11442 -1642 1643 0
11442 1642 -1643 0
11582 -802 803 0
11582 802 -803 0
11582 -1782 1783 0
11582 1782 -1783 0
11722 -942 943 0
11722 942 -943 0
11722 -1922 1923 0
11722 1922 -1923 0
-102 -7942 -103 0
102 -7942 103 0
-8082 -1223 0
-242 -8082 243 0
242 -8082 -243 0
-9062 1223 0
-8222 -1363 0
-382 -8222 383 0
382 -8222 -383 0
-9202 1363 0
-8362 -1503 0
-522 -8362 523 0
522 -8362 -523 0
-9342 1503 0
-8502 -1643 0
-662 -8502 663 0
662 -8502 -663 0
-9482 1643 0
-8642 -1783 0
-802 -8642 803 0
802 -8642 -803 0
-9622 1783 0
-242 -9062 -243 0
242 -9062 243 0
-382 -9202 -383 0
382 -9202 383 0
-522 -9342 -523 0
522 -9342 523 0
-662 -9482 -663 0
662 -9482 663 0
-802 -9622 -803 0
802 -9622 803 0
-942 -9762 -943 0
942 -9762 943 0
10883 -103 104 0
10883 103 -104 0
10883 -1083 1084 0
10883 1083 -1084 0
11023 -243 244 0
11023 243 -244 0
11023 -1223 1224 0
11023 1223 -1224 0
11163 -383 384 0
11163 383 -384 0
11163 -1363 1364 0
11163 1363 -1364 0
11303 -523 524 0
11303 523 -524 0
11303 -1503 1504 0
11303 1503 -1504 0
11443 -663 664 0
11443 663 -664 0
11443 -1643 1644 0
11443 1643 -1644 0
11583 -803 804 0
11583 803 -804 0
11583 -1783 1784 0
11583 1783 -1784 0
11723 -943 944 0
11723 943 -944 0
11723 -1923 1924 0
11723 1923 -1924 0
-103 -7943 -104 0
103 -7943 104 0
-8083 -1224 0
-243 -8083 244 0
243 -8083 -244 0
-9063 1224 0
-8223 -1364 0
-383 -8223 384 0
383 -8223 -384 0
-9203 1364 0
-8363 -1504 0
-523 -8363 524 0
523 -8363 -524 0
-9343 1504 0
-8503 -1644 0
-663 -8503 664 0
663 -8503 -664 0
-9483 1644 0
-8643 -1784 0
-803 -8643 804 0
803 -8643 -804 0
-9623 1784 0
-243 -9063 -244 0
243 -9063 244 0
-383 -9203 -384 0
383 -9203 384 0
-523 -9343 -524 0
523 -9343 524 0
-663 -9483 -664 0
663 -9483 664 0
-803 -9623 -804 0
803 -9623 804 0
-943 -9763 -944 0
943 -9763 944 0
10884 -104 105 0
10884 104 -105 0
10884 -1084 1085 0
10884 1084 -1085 0
11024 -244 245 0
11024 244 -245 0
11024 -1224 1225 0
11024 1224 -1225 0
11164 -384 385 0
11164 384 -385 0
11164 -1364 1365 0
11164 1364 -1365 0
11304 -524 525 0
11304 524 -525 0
11304 -1504 1505 0
11304 1504 -1505 0
11444 -664 665 0
11444 664 -665 0
11444 -1644 1645 0
11444 1644 -1645 0
11584 -804 805 0
11584 804 -805 0
11584 -1784 1785 0
11584 1784 -1785 0
11724 -944 945 0
11724 944 -945 0
11724 -1924 1925 0
11724 1924 -1925 0
-104 -7944 -105 0
104 -7944 105 0
-8084 -1225 0
-244 -8084 245 0
244 -8084 -245 0
-9064 1225 0
-8224 -1365 0
-384 -8224 385 0
384 -8224 -385 0
-9204 1365 0
-8364 -1505 0
-524 -8364 525 0
524 -8364 -525 0
-9344 1505 0
-8504 -1645 0
-664 -8504 665 0
664 -8504 -665 0
-9484 1645 0
-8644 -1785 0
-804 -8644 805 0
804 -8644 -805 0
-9624 1785 0
-244 -9064 -245 0
244 -9064 245 0
-384 -9204 -385 0
384 -9204 385 0
-524 -9344 -525 0
524 -9344 525 0
-664 -9484 -665 0
664 -9484 665 0
-804 -9624 -805 0
804 -9624 805 0
-944 -9764 -945 0
944 -9764 945 0
10885 -105 106 0
10885 105 -106 0
10885 -1085 1086 0
10885 1085 -1086 0
11025 -245 246 0
11025 245 -246 0
11025 -1225 1226 0
11025 1225 -1226 0
11165 -385 386 0
11165 385 -386 0
11165 -1365 1366 0
11165 1365 -1366 0
11305 -525 526 0
11305 525 -526 0
11305 -1505 1506 0
11305 1505 -1506 0
11445 -665 666 0
11445 665 -666 0
11445 -1645 1646 0
11445 1645 -1646 0
11585 -805 806 0
11585 805 -806 0
11585 -1785 1786 0
11585 1785 -1786 0
11725 -945 946 0
11725 945 -946 0
11725 -1925 1926 0
11725 1925 -1926 0
-105 -7945 -106 0
105 -7945 106 0
-8085 -1226 0
-245 -8085 246 0
245 -8085 -246 0
-9065 1226 0
-8225 -1366 0
-385 -8225 386 0
385 -8225 -386 0
-9205 1366 0
-8365 -1506 0
-525 -8365 526 0
525 -8365 -526 0
-9345 1506 0
-8505 -1646 0
-665 -8505 666 0
665 -8505 -666 0
-9485 1646 0
-8645 -1786 0
-805 -8645 806 0
805 -8645 -806 0
-9625 1786 0
-245 -9065 -246 0
245 -9065 246 0
-385 -9205 -386 0
385 -9205 386 0
-525 -9345 -526 0
525 -9345 526 0
-665 -9485 -666 0
665 -9485 666 0
-805 -9625 -806 0
805 -9625 806 0
-945 -9765 -946 0
945 -9765 946 0
10886 -106 107 0
10886 106 -107 0
10886 -1086 1087 0
10886 1086 -1087 0
11026 -246 247 0
11026 246 -247 0
11026 -1226 1227 0
11026 1226 -1227 0
11166 -386 387 0
11166 386 -387 0
11166 -1366 1367 0
11166 1366 -1367 0
11306 -526 527 0
11306 526 -527 0
11306 -1506 1507 0
11306 1506 -1507 0
11446 -666 667 0
11446 666 -667 0
11446 -1646 1647 0
11446 1646 -1647 0
11586 -806 807 0
11586 806 -807 0
11586 -1786 1787 0
11586 1786 -1787 0
11726 -946 947 0
11726 946 -947 0
11726 -1926 1927 0
11726 1926 -1927 0
-106 -7946 -107 0
106 -7946 107 0
-8086 -1227 0
-246 -8086 247 0
246 -8086 -247 0
-9066 1227 0
-8226 -1367 0
-386 -8226 387 0
386 -8226 -387 0
-9206 1367 0
-8366 -1507 0
-526 -8366 527 0
526 -8366 -527 0
-9346 1507 0
-8506 -1647 0
-666 -8506 667 0
666 -8506 -667 0
-9486 1647 0
-8646 -1787 0
-806 -8646 807 0
806 -8646 -807 0
-9626 1787 0
-246 -9066 -247 0
246 -9066 247 0
-386 -9206 -387 0
386 -9206 387 0
-526 -9346 -527 0
526 -9346 527 0
-666 -9486 -667 0
666 -9486 667 0
-806 -9626 -807 0
806 -9626 807 0
-946 -9766 -947 0
946 -9766 947 0
10887 -107 108 0
10887 107 -108 0
10887 -1087 1088 0
10887 1087 -1088 0
11027 -247 248 0
11027 247 -248 0
11027 -1227 1228 0
11027 1227 -1228 0
11167 -387 388 0
11167 387 -388 0
11167 -1367 1368 0
11167 1367 -1368 0
11307 -527 528 0
11307 527 -528 0
11307 -1507 1508 0
11307 1507 -1508 0
11447 -667 668 0
11447 667 -668 0
11447 -1647 1648 0
11447 1647 -1648 0
11587 -807 808 0
11587 807 -808 0
11587 -1787 1788 0
11587 1787 -1788 0
11727 -947 948 0
11727 947 -948 0
11727 -1927 1928 0
11727 1927 -1928 0
-107 -7947 -108 0
107 -7947 108 0
-8087 -1228 0
-247 -8087 248 0
247 -8087 -248 0
-9067 1228 0
-8227 -1368 0
-387 -8227 388 0
387 -8227 -388 0
-9207 1368 0
-8367 -1508 0
-527 -8367 528 0
527 -8367 -528 0
-9347 1508 0
-8507 -1648 0
-667 -8507 668 0
667 -8507 -668 0
-9487 1648 0
-8647 -1788 0
-807 -8647 808 0
807 -8647 -808 0
-9627 1788 0
-247 -9067 -248 0
247 -9067 248 0
-387 -9207 -388 0
387 -9207 388 0
-527 -9347 -528 0
527 -9347 528 0
-667 -9487 -668 0
667 -9487 668 0
-807 -9627 -808 0
807 -9627 808 0
-947 -9767 -948 0
947 -9767 948 0
10888 -108 109 0
10888 108 -109 0
10888 -1088 1089 0
10888 1088 -1089 0
11028 -248 249 0
11028 248 -249 0
11028 -1228 1229 0
11028 1228 -1229 0
11168 -388 389 0
11168 388 -389 0
11168 -1368 1369 0
11168 1368 -1369 0
11308 -528 529 0
11308 528 -529 0
11308 -1508 1509 0
11308 1508 -1509 0
11448 -668 669 0
11448 668 -669 0
11448 -1648 1649 0
11448 1648 -1649 0
11588 -808 809 0
11588 808 -809 0
11588 -1788 1789 0
11588 1788 -1789 0
11728 -948 949 0
11728 948 -949 0
11728 -1928 1929 0
11728 1928 -1929 0
-108 -7948 -109 0
108 -7948 109 0
-8088 -1229 0
-248 -8088 249 0
248 -8088 -249 0
-9068 1229 0
-8228 -1369 0
-388 -8228 389 0
388 -8228 -389 0
-9208 1369 0
-8368 -1509 0
-528 -8368 529 0
528 -8368 -529 0
-9348 1509 0
-8508 -1649 0
-668 -8508 669 0
668 -8508 -669 0
-9488 1649 0
-8648 -1789 0
-808 -8648 809 0
808 -8648 -809 0
-9628 1789 0
-248 -9068 -249 0
248 -9068 249 0
-388 -9208 -389 0
388 -9208 389 0
-528 -9348 -529 0
528 -9348 529 0
-668 -9488 -669 0
668 -9488 669 0
-808 -9628 -809 0
808 -9628 809 0
-948 -9768 -949 0
948 -9768 949 0
10889 -109 110 0
10889 109 -110 0
10889 -1089 1090 0
10889 1089 -1090 0
11029 -249 250 0
11029 249 -250 0
11029 -1229 1230 0
11029 1229 -1230 0
11169 -389 390 0
11169 389 -390 0
11169 -1369 1370 0
11169 1369 -1370 0
11309 -529 530 0
11309 529 -530 0
11309 -1509 1510 0
11309 1509 -1510 0
11449 -669 670 0
11449 669 -670 0
11449 -1649 1650 0
11449 1649 -1650 0
11589 -809 810 0
11589 809 -810 0
11589 -1789 1790 0
11589 1789 -1790 0
11729 -949 950 0
11729 949 -950 0
11729 -1929 1930 0
11729 1929 -1930 0
-109 -7949 -110 0
109 -7949 110 0
-8089 -1230 0
-249 -8089 250 0
249 -8089 -250 0
-9069 1230 0
-8229 -1370 0
-389 -8229 390 0
389 -8229 -390 0
-9209 1370 0
-8369 -1510 0
-529 -8369 530 0
529 -8369 -530 0
-9349 1510 0
-8509 -1650 0
-669 -8509 670 0
669 -8509 -670 0
-9489 1650 0
-8649 -1790 0
-809 -8649 810 0
809 -8649 -810 0
-9629 1790 0
-249 -9069 -250 0
249 -9069 250 0
-389 -9209 -390 0
389 -9209 390 0
-529 -9349 -530 0
529 -9349 530 0
-669 -9489 -670 0
669 -9489 670 0
-809 -9629 -810 0
809 -9629 810 0
-949 -9769 -950 0
949 -9769 950 0
10890 -110 111 0
10890 110 -111 0
10890 -1090 1091 0
10890 1090 -1091 0
11030 -250 251 0
11030 250 -251 0
11030 -1230 1231 0
11030 1230 -1231 0
11170 -390 391 0
11170 390 -391 0
11170 -1370 1371 0
11170 1370 -1371 0
11310 -530 531 0
11310 530 -531 0
11310 -1510 1511 0
11310 1510 -1511 0
11450 -670 671 0
11450 670 -671 0
11450 -1650 1651 0
11450 1650 -1651 0
11590 -810 811 0
11590 810 -811 0
11590 -1790 1791 0
11590 1790 -1791 0
11730 -950 951 0
11730 950 -951 0
11730 -1930 1931 0
11730 1930 -1931 0
-110 -7950 -111 0
110 -7950 111 0
-8090 -1231 0
-250 -8090 251 0
250 -8090 -251 0
-9070 1231 0
-8230 -1371 0
-390 -8230 391 0
390 -8230 -391 0
-9210 1371 0
-8370 -1511 0
-530 -8370 531 0
530 -8370 -531 0
-9350 1511 0
-8510 -1651 0
-670 -8510 671 0
670 -8510 -671 0
-9490 1651 0
-8650 -1791 0
-810 -8650 811 0
810 -8650 -811 0
-9630 1791 0
-250 -9070 -251 0
250 -9070 251 0
-390 -9210 -391 0
390 -9210 391 0
-530 -9350 -531 0
530 -9350 531 0
-670 -9490 -671 0
670 -9490 671 0
-810 -9630 -811 0
810 -9630 811 0
-950 -9770 -951 0
950 -9770 951 0
10891 -111 112 0
10891 111 -112 0
10891 -1091 1092 0
10891 1091 -1092 0
11031 -251 252 0
11031 251 -252 0
11031 -1231 1232 0
11031 1231 -1232 0
11171 -391 392 0
11171 391 -392 0
11171 -1371 1372 0
11171 1371 -1372 0
11311 -531 532 0
11311 531 -532 0
11311 -1511 1512 0
11311 1511 -1512 0
11451 -671 672 0
11451 671 -672 0
11451 -1651 1652 0
11451 1651 -1652 0
11591 -811 812 0
11591 811 -812 0
11591 -1791 1792 0
11591 1791 -1792 0
11731 -951 952 0
11731 951 -952 0
11731 -1931 1932 0
11731 1931 -1932 0
-111 -7951 -112 0
111 -7951 112 0
-8091 -1232 0
-251 -8091 252 0
251 -8091 -252 0
-9071 1232 0
-8231 -1372 0
-391 -8231 392 0
391 -8231 -392 0
-9211 1372 0
-8371 -1512 0
-531 -8371 532 0
531 -8371 -532 0
-9351 1512 0
-8511 -1652 0
-671 -8511 672 0
671 -8511 -672 0
-9491 1652 0
-8651 -1792 0
-811 -8651 812 0
811 -8651 -812 0
-9631 1792 0
-251 -9071 -252 0
251 -9071 252 0
-391 -9211 -392 0
391 -9211 392 0
-531 -9351 -532 0
531 -9351 532 0
-671 -9491 -672 0
671 -9491 672 0
-811 -9631 -812 0
811 -9631 812 0
-951 -9771 -952 0
951 -9771 952 0
10892 -112 113 0
10892 112 -113 0
10892 -1092 1093 0
10892 1092 -1093 0
11032 -252 253 0
11032 252 -253 0
11032 -1232 1233 0
11032 1232 -1233 0
11172 -392 393 0
11172 392 -393 0
11172 -1372 1373 0
11172 1372 -1373 0
11312 -532 533 0
11312 532 -533 0
11312 -1512 1513 0
11312 1512 -1513 0
11452 -672 673 0
11452 672 -673 0
11452 -1652 1653 0
11452 1652 -1653 0
11592 -812 813 0
11592 812 -813 0
11592 -1792 1793 0
11592 1792 -1793 0
11732 -952 953 0
11732 952 -953 0
11732 -1932 1933 0
11732 1932 -1933 0
-112 -7952 -113 0
112 -7952 113 0
-8092 -1233 0
-252 -8092 253 0
252 -8092 -253 0
-9072 1233 0
-8232 -1373 0
-392 -8232 393 0
392 -8232 -393 0
-9212 1373 0
-8372 -1513 0
-532 -8372 533 0
532 -8372 -533 0
-9352 1513 0
-8512 -1653 0
-672 -8512 673 0
672 -8512 -673 0
-9492 1653 0
-8652 -1793 0
-812 -8652 813 0
812 -8652 -813 0
-9632 1793 0
-252 -9072 -253 0
252 -9072 253 0
-392 -9212 -393 0
392 -9212 393 0
-532 -9352 -533 0
532 -9352 533 0
-672 -9492 -673 0
672 -9492 673 0
-812 -9632 -813 0
812 -9632 813 0
-952 -9772 -953 0
952 -9772 953 0
10893 -113 114 0
10893 113 -114 0
10893 -1093 1094 0
10893 1093 -1094 0
11033 -253 254 0
11033 253 -254 0
11033 -1233 1234 0
11033 1233 -1234 0
11173 -393 394 0
11173 393 -394 0
11173 -1373 1374 0
11173 1373 -1374 0
11313 -533 534 0
11313 533 -534 0
11313 -1513 1514 0
11313 1513 -1514 0
11453 -673 674 0
11453 673 -674 0
11453 -1653 1654 0
11453 1653 -1654 0
11593 -813 814 0
11593 813 -814 0
11593 -1793 1794 0
11593 1793 -1794 0
11733 -953 954 0
11733 953 -954 0
11733 -1933 1934 0
11733 1933 -1934 0
-113 -7953 -114 0
113 -7953 114 0
-8093 -1234 0
-253 -8093 254 0
253 -8093 -254 0
-9073 1234 0
-8233 -1374 0
-393 -8233 394 0
393 -8233 -394 0
-9213 1374 0
-8373 -1514 0
-533 -8373 534 0
533 -8373 -534 0
-9353 1514 0
-8513 -1654 0
-673 -8513 674 0
673 -8513 -674 0
-9493 1654 0
-8653 -1794 0
-813 -8653 814 0
813 -8653 -814 0
-9633 1794 0
-253 -9073 -254 0
253 -9073 254 0
-393 -9213 -394 0
393 -9213 394 0
-533 -9353 -534 0
533 -9353 534 0
-673 -9493 -674 0
673 -9493 674 0
-813 -9633 -814 0
813 -9633 814 0
-953 -9773 -954 0
953 -9773 954 0
10894 -114 115 0
10894 114 -115 0
10894 -1094 1095 0
10894 1094 -1095 0
11034 -254 255 0
11034 254 -255 0
11034 -1234 1235 0
11034 1234 -1235 0
11174 -394 395 0
11174 394 -395 0
11174 -1374 1375 0
11174 1374 -1375 0
11314 -534 535 0
11314 534 -535 0
11314 -1514 1515 0
11314 1514 -1515 0
11454 -674 675 0
11454 674 -675 0
11454 -1654 1655 0
11454 1654 -1655 0
11594 -814 815 0
11594 814 -815 0
11594 -1794 1795 0
11594 1794 -1795 0
11734 -954 955 0
11734 954 -955 0
11734 -1934 1935 0
11734 1934 -1935 0
-114 -7954 -115 0
114 -7954 115 0
-8094 -1235 0
-254 -8094 255 0
254 -8094 -255 0
-9074 1235 0
-8234 -1375 0
-394 -8234 395 0
394 -8234 -395 0
-9214 1375 0
-8374 -1515 0
-534 -8374 535 0
534 -8374 -535 0
-9354 1515 0
-8514 -1655 0
-674 -8514 675 0
674 -8514 -675 0
-9494 1655 0
-8654 -1795 0
-814 -8654 815 0
814 -8654 -815 0
-9634 1795 0
-254 -9074 -255 0
254 -9074 255 0
-394 -9214 -395 0
394 -9214 395 0
-534 -9354 -535 0
534 -9354 535 0
-674 -9494 -675 0
674 -9494 675 0
-814 -9634 -815 0
814 -9634 815 0
-954 -9774 -955 0
954 -9774 955 0
10895 -115 116 0
10895 115 -116 0
10895 -1095 1096 0
10895 1095 -1096 0
11035 -255 256 0
11035 255 -256 0
11035 -1235 1236 0
11035 1235 -1236 0
11175 -395 396 0
11175 395 -396 0
11175 -1375 1376 0
11175 1375 -1376 0
11315 -535 536 0
11315 535 -536 0
11315 -1515 1516 0
11315 1515 -1516 0
11455 -675 676 0
11455 675 -676 0
11455 -1655 1656 0
11455 1655 -1656 0
11595 -815 816 0
11595 815 -816 0
11595 -1795 1796 0
11595 1795 -1796 0
11735 -955 956 0
11735 955 -956 0
11735 -1935 1936 0
11735 1935 -1936 0
-115 -7955 -116 0
115 -7955 116 0
-8095 -1236 0
-255 -8095 256 0
255 -8095 -256 0
-9075 1236 0
-8235 -1376 0
-395 -8235 396 0
395 -8235 -396 0
-9215 1376 0
-8375 -1516 0
-535 -8375 536 0
535 -8375 -536 0
-9355 1516 0
-8515 -1656 0
-675 -8515 676 0
675 -8515 -676 0
-9495 1656 0
-8655 -1796 0
-815 -8655 816 0
815 -8655 -816 0
-9635 1796 0
-255 -9075 -256 0
255 -9075 256 0
-395 -9215 -396 0
395 -9215 396 0
-535 -9355 -536 0
535 -9355 536 0
-675 -9495 -676 0
675 -9495 676 0
-815 -9635 -816 0
815 -9635 816 0
-955 -9775 -956 0
955 -9775 956 0
10896 -116 117 0
10896 116 -117 0
10896 -1096 1097 0
10896 1096 -1097 0
11036 -256 257 0
11036 256 -257 0
11036 -1236 1237 0
11036 1236 -1237 0
11176 -396 397 0
11176 396 -397 0
11176 -1376 1377 0
11176 1376 -1377 0
11316 -536 537 0
11316 536 -537 0
11316 -1516 1517 0
11316 1516 -1517 0
11456 -676 677 0
11456 676 -677 0
11456 -1656 1657 0
11456 1656 -1657 0
11596 -816 817 0
11596 816 -817 0
11596 -1796 1797 0
11596 1796 -1797 0
11736 -956 957 0
11736 956 -957 0
11736 -1936 1937 0
11736 1936 -1937 0
-116 -7956 -117 0
116 -7956 117 0
-8096 -1237 0
-256 -8096 257 0
256 -8096 -257 0
-9076 1237 0
-8236 -1377 0
-396 -8236 397 0
396 -8236 -397 0
-9216 1377 0
-8376 -1517 0
-536 -8376 537 0
536 -8376 -537 0
-9356 1517 0
-8516 -1657 0
-676 -8516 677 0
676 -8516 -677 0
-9496 1657 0
-8656 -1797 0
-816 -8656 817 0
816 -8656 -817 0
-9636 1797 0
-256 -9076 -257 0
256 -9076 257 0
-396 -9216 -397 0
396 -9216 397 0
-536 -9356 -537 0
536 -9356 537 0
-676 -9496 -677 0
676 -9496 677 0
-816 -9636 -817 0
816 -9636 817 0
-956 -9776 -957 0
956 -9776 957 0
10897 -117 118 0
10897 117 -118 0
10897 -1097 1098 0
10897 1097 -1098 0
11037 -257 258 0
11037 257 -258 0
11037 -1237 1238 0
11037 1237 -1238 0
11177 -397 398 0
11177 397 -398 0
11177 -1377 1378 0
11177 1377 -1378 0
11317 -537 538 0
11317 537 -538 0
11317 -1517 1518 0
11317 1517 -1518 0
11457 -677 678 0
11457 677 -678 0
11457 -1657 1658 0
11457 1657 -1658 0
11597 -817 818 0
11597 817 -818 0
11597 -1797 1798 0
11597 1797 -1798 0
11737 -957 958 0
11737 957 -958 0
11737 -1937 1938 0
11737 1937 -1938 0
-117 -7957 -118 0
117 -7957 118 0
-8097 -1238 0
-257 -8097 258 0
257 -8097 -258 0
-9077 1238 0
-8237 -1378 0
-397 -8237 398 0
397 -8237 -398 0
-9217 1378 0
-8377 -1518 0
-537 -8377 538 0
537 -8377 -538 0
-9357 1518 0
-8517 -1658 0
-677 -8517 678 0
677 -8517 -678 0
-9497 1658 0
-8657 -1798 0
-817 -8657 818 0
817 -8657 -818 0
-9637 1798 0
-257 -9077 -258 0
257 -9077 258 0
-397 -9217 -398 0
397 -9217 398 0
-537 -9357 -538 0
537 -9357 538 0
-677 -9497 -678 0
677 -9497 678 0
-817 -9637 -818 0
817 -9637 818 0
-957 -9777 -958 0
957 -9777 958 0
10898 -118 119 0
10898 118 -119 0
10898 -1098 1099 0
10898 1098 -1099 0
11038 -258 259 0
11038 258 -259 0
11038 -1238 1239 0
11038 1238 -1239 0
11178 -398 399 0
11178 398 -399 0
11178 -1378 1379 0
11178 1378 -1379 0
11318 -538 539 0
11318 538 -539 0
11318 -1518 1519 0
11318 1518 -1519 0
11458 -678 679 0
11458 678 -679 0
11458 -1658 1659 0
11458 1658 -1659 0
11598 -818 819 0
11598 818 -819 0
11598 -1798 1799 0
11598 1798 -1799 0
11738 -958 959 0
11738 958 -959 0
11738 -1938 1939 0
11738 1938 -1939 0
-118 -7958 -119 0
118 -7958 119 0
-8098 -1239 0
-258 -8098 259 0
258 -8098 -259 0
-9078 1239 0
-8238 -1379 0
-398 -8238 399 0
398 -8238 -399 0
-9218 1379 0
-8378 -1519 0
-538 -8378 539 0
538 -8378 -539 0
-9358 1519 0
-8518 -1659 0
-678 -8518 679 0
678 -8518 -679 0
-9498 1659 0
-8658 -1799 0
-818 -8658 819 0
818 -8658 -819 0
-9638 1799 0
-258 -9078 -259 0
258 -9078 259 0
-398 -9218 -399 0
398 -9218 399 0
-538 -9358 -539 0
538 -9358 539 0
-678 -9498 -679 0
678 -9498 679 0
-818 -9638 -819 0
818 -9638 819 0
-958 -9778 -959 0
958 -9778 959 0
10899 -119 120 0
10899 119 -120 0
10899 -1099 1100 0
10899 1099 -1100 0
11039 -259 260 0
11039 259 -260 0
11039 -1239 1240 0
11039 1239 -1240 0
11179 -399 400 0
11179 399 -400 0
11179 -1379 1380 0
11179 1379 -1380 0
11319 -539 540 0
11319 539 -540 0
11319 -1519 1520 0
11319 1519 -1520 0
11459 -679 680 0
11459 679 -680 0
11459 -1659 1660 0
11459 1659 -1660 0
11599 -819 820 0
11599 819 -820 0
11599 -1799 1800 0
11599 1799 -1800 0
11739 -959 960 0
11739 959 -960 0
11739 -1939 1940 0
11739 1939 -1940 0
-119 -7959 -120 0
119 -7959 120 0
-8099 -1240 0
-259 -8099 260 0
259 -8099 -260 0
-9079 1240 0
-8239 -1380 0
-399 -8239 400 0
399 -8239 -400 0
-9219 1380 0
-8379 -1520 0
-539 -8379 540 0
539 -8379 -540 0
-9359 1520 0
-8519 -1660 0
-679 -8519 680 0
679 -8519 -680 0
-9499 1660 0
-8659 -1800 0
-819 -8659 820 0
819 -8659 -820 0
-9639 1800 0
-259 -9079 -260 0
259 -9079 260 0
-399 -9219 -400 0
399 -9219 400 0
-539 -9359 -540 0
539 -9359 540 0
-679 -9499 -680 0
679 -9499 680 0
-819 -9639 -820 0
819 -9639 820 0
-959 -9779 -960 0
959 -9779 960 0
10900 -120 121 0
10900 120 -121 0
10900 -1100 1101 0
10900 1100 -1101 0
11040 -260 261 0
11040 260 -261 0
11040 -1240 1241 0
11040 1240 -1241 0
11180 -400 401 0
11180 400 -401 0
11180 -1380 1381 0
11180 1380 -1381 0
11320 -540 541 0
11320 540 -541 0
11320 -1520 1521 0
11320 1520 -1521 0
11460 -680 681 0
11460 680 -681 0
11460 -1660 1661 0
11460 1660 -1661 0
11600 -820 821 0
11600 820 -821 0
11600 -1800 1801 0
11600 1800 -1801 0
11740 -960 961 0
11740 960 -961 0
11740 -1940 1941 0
11740 1940 -1941 0
-120 -7960 -121 0
120 -7960 121 0
-8100 -1241 0
-260 -8100 261 0
260 -8100 -261 0
-9080 1241 0
-8240 -1381 0
-400 -8240 401 0
400 -8240 -401 0
-9220 1381 0
-8380 -1521 0
-540 -8380 541 0
540 -8380 -541 0
-9360 1521 0
-8520 -1661 0
-680 -8520 681 0
680 -8520 -681 0
-9500 1661 0
-8660 -1801 0
-820 -8660 821 0
820 -8660 -821 0
-9640 1801 0
-260 -9080 -261 0
260 -9080 261 0
-400 -9220 -401 0
400 -9220 401 0
-540 -9360 -541 0
540 -9360 541 0
-680 -9500 -681 0
680 -9500 681 0
-820 -9640 -821 0
820 -9640 821 0
-960 -9780 -961 0
960 -9780 961 0
10901 -121 122 0
10901 121 -122 0
10901 -1101 1102 0
10901 1101 -1102 0
11041 -261 262 0
11041 261 -262 0
11041 -1241 1242 0
11041 1241 -1242 0
11181 -401 402 0
11181 401 -402 0
11181 -1381 1382 0
11181 1381 -1382 0
11321 -541 542 0
11321 541 -542 0
11321 -1521 1522 0
11321 1521 -1522 0
11461 -681 682 0
11461 681 -682 0
11461 -1661 1662 0
11461 1661 -1662 0
11601 -821 822 0
11601 821 -822 0
11601 -1801 1802 0
11601 1801 -1802 0
11741 -961 962 0
11741 961 -962 0
11741 -1941 1942 0
11741 1941 -1942 0
-121 -7961 -122 0
121 -7961 122 0
-8101 -1242 0
-261 -8101 262 0
261 -8101 -262 0
-9081 1242 0
-8241 -1382 0
-401 -8241 402 0
401 -8241 -402 0
-9221 1382 0
-8381 -1522 0
-541 -8381 542 0
541 -8381 -542 0
-9361 1522 0
-8521 -1662 0
-681 -8521 682 0
681 -8521 -682 0
-9501 1662 0
-8661 -1802 0
-821 -8661 822 0
821 -8661 -822 0
-9641 1802 0
-261 -9081 -262 0
261 -9081 262 0
-401 -9221 -402 0
401 -9221 402 0
-541 -9361 -542 0
541 -9361 542 0
-681 -9501 -682 0
681 -9501 682 0
-821 -9641 -822 0
821 -9641 822 0
-961 -9781 -962 0
961 -9781 962 0
10902 -122 123 0
10902 122 -123 0
10902 -1102 1103 0
10902 1102 -1103 0
11042 -262 263 0
11042 262 -263 0
11042 -1242 1243 0
11042 1242 -1243 0
11182 -402 403 0
11182 402 -403 0
11182 -1382 1383 0
11182 1382 -1383 0
11322 -542 543 0
11322 542 -543 0
11322 -1522 1523 0
11322 1522 -1523 0
11462 -682 683 0
11462 682 -683 0
11462 -1662 1663 0
11462 1662 -1663 0
11602 -822 823 0
11602 822 -823 0
11602 -1802 1803 0
11602 1802 -1803 0
11742 -962 963 0
11742 962 -963 0
11742 -1942 1943 0
11742 1942 -1943 0
-122 -7962 -123 0
122 -7962 123 0
-8102 -1243 0
-262 -8102 263 0
262 -8102 -263 0
-9082 1243 0
-8242 -1383 0
-402 -8242 403 0
402 -8242 -403 0
-9222 1383 0
-8382 -1523 0
-542 -8382 543 0
542 -8382 -543 0
-9362 1523 0
-8522 -1663 0
-682 -8522 683 0
682 -8522 -683 0
-9502 1663 0
-8662 -1803 0
-822 -8662 823 0
822 -8662 -823 0
-9642 1803 0
-262 -9082 -263 0
262 -9082 263 0
-402 -9222 -403 0
402 -9222 403 0
-542 -9362 -543 0
542 -9362 543 0
-682 -9502 -683 0
682 -9502 683 0
-822 -9642 -823 0
822 -9642 823 0
-962 -9782 -963 0
962 -9782 963 0
10903 -123 124 0
10903 123 -124 0
10903 -1103 1104 0
10903 1103 -1104 0
11043 -263 264 0
11043 263 -264 0
11043 -1243 1244 0
11043 1243 -1244 0
11183 -403 404 0
11183 403 -404 0
11183 -1383 1384 0
11183 1383 -1384 0
11323 -543 544 0
11323 543 -544 0
11323 -1523 1524 0
11323 1523 -1524 0
11463 -683 684 0
11463 683 -684 0
11463 -1663 1664 0
11463 1663 -1664 0
11603 -823 824 0
11603 823 -824 0
11603 -1803 1804 0
11603 1803 -1804 0
11743 -963 964 0
11743 963 -964 0
11743 -1943 1944 0
11743 1943 -1944 0
-123 -7963 -124 0
123 -7963 124 0
-8103 -1244 0
-263 -8103 264 0
263 -8103 -264 0
-9083 1244 0
-8243 -1384 0
-403 -8243 404 0
403 -8243 -404 0
-9223 1384 0
-8383 -1524 0
-543 -8383 544 0
543 -8383 -544 0
-9363 1524 0
-8523 -1664 0
-683 -8523 684 0
683 -8523 -684 0
-9503 1664 0
-8663 -1804 0
-823 -8663 824 0
823 -8663 -824 0
-9643 1804 0
-263 -9083 -264 0
263 -9083 264 0
-403 -9223 -404 0
403 -9223 404 0
-543 -9363 -544 0
543 -9363 544 0
-683 -9503 -684 0
683 -9503 684 0
-823 -9643 -824 0
823 -9643 824 0
-963 -9783 -964 0
963 -9783 964 0
10904 -124 125 0
10904 124 -125 0
10904 -1104 1105 0
10904 1104 -1105 0
11044 -264 265 0
11044 264 -265 0
11044 -1244 1245 0
11044 1244 -1245 0
11184 -404 405 0
11184 404 -405 0
11184 -1384 1385 0
11184 1384 -1385 0
11324 -544 545 0
11324 544 -545 0
11324 -1524 1525 0
11324 1524 -1525 0
11464 -684 685 0
11464 684 -685 0
11464 -1664 1665 0
11464 1664 -1665 0
11604 -824 825 0
11604 824 -825 0
11604 -1804 1805 0
11604 1804 -1805 0
11744 -964 965 0
11744 964 -965 0
11744 -1944 1945 0
11744 1944 -1945 0
-124 -7964 -125 0
124 -7964 125 0
-8104 -1245 0
-264 -8104 265 0
264 -8104 -265 0
-9084 1245 0
-8244 -1385 0
-404 -8244 405 0
404 -8244 -405 0
-9224 1385 0
-8384 -1525 0
-544 -8384 545 0
544 -8384 -545 0
-9364 1525 0
-8524 -1665 0
-684 -8524 685 0
684 -8524 -685 0
-9504 1665 0
-8664 -1805 0
-824 -8664 825 0
824 -8664 -825 0
-9644 1805 0
-264 -9084 -265 0
264 -9084 265 0
-404 -9224 -405 0
404 -9224 405 0
-544 -9364 -545 0
544 -9364 545 0
-684 -9504 -685 0
684 -9504 685 0
-824 -9644 -825 0
824 -9644 825 0
-964 -9784 -965 0
964 -9784 965 0
10905 -125 126 0
10905 125 -126 0
10905 -1105 1106 0
10905 1105 -1106 0
11045 -265 266 0
11045 265 -266 0
11045 -1245 1246 0
11045 1245 -1246 0
11185 -405 406 0
11185 405 -406 0
11185 -1385 1386 0
11185 1385 -1386 0
11325 -545 546 0
11325 545 -546 0
11325 -1525 1526 0
11325 1525 -1526 0
11465 -685 686 0
11465 685 -686 0
11465 -1665 1666 0
11465 1665 -1666 0
11605 -825 826 0
11605 825 -826 0
11605 -1805 1806 0
11605 1805 -1806 0
11745 -965 966 0
11745 965 -966 0
11745 -1945 1946 0
11745 1945 -1946 0
-125 -7965 -126 0
125 -7965 126 0
-8105 -1246 0
-265 -8105 266 0
265 -8105 -266 0
-9085 1246 0
-8245 -1386 0
-405 -8245 406 0
405 -8245 -406 0
-9225 1386 0
-8385 -1526 0
-545 -8385 546 0
545 -8385 -546 0
-9365 1526 0
-8525 -1666 0
-685 -8525 686 0
685 -8525 -686 0
-9505 1666 0
-8665 -1806 0
-825 -8665 826 0
825 -8665 -826 0
-9645 1806 0
-265 -9085 -266 0
265 -9085 266 0
-405 -9225 -406 0
405 -9225 406 0
-545 -9365 -546 0
545 -9365 546 0
-685 -9505 -686 0
685 -9505 686 0
-825 -9645 -826 0
825 -9645 826 0
-965 -9785 -966 0
965 -9785 966 0
10906 -126 127 0
10906 126 -127 0
10906 -1106 1107 0
10906 1106 -1107 0
11046 -266 267 0
11046 266 -267 0
11046 -1246 1247 0
11046 1246 -1247 0
11186 -406 407 0
11186 406 -407 0
11186 -1386 1387 0
11186 1386 -1387 0
11326 -546 547 0
11326 546 -547 0
11326 -1526 1527 0
11326 1526 -1527 0
11466 -686 687 0
11466 686 -687 0
11466 -1666 1667 0
11466 1666 -1667 0
11606 -826 827 0
11606 826 -827 0
11606 -1806 1807 0
11606 1806 -1807 0
11746 -966 967 0
11746 966 -967 0
11746 -1946 1947 0
11746 1946 -1947 0
-126 -7966 -127 0
126 -7966 127 0
-8106 -1247 0
-266 -8106 267 0
266 -8106 -267 0
-9086 1247 0
-8246 -1387 0
-406 -8246 407 0
406 -8246 -407 0
-9226 1387 0
-8386 -1527 0
-546 -8386 547 0
546 -8386 -547 0
-9366 1527 0
-8526 -1667 0
-686 -8526 687 0
686 -8526 -687 0
-9506 1667 0
-8666 -1807 0
-826 -8666 827 0
826 -8666 -827 0
-9646 1807 0
-266 -9086 -267 0
266 -9086 267 0
-406 -9226 -407 0
406 -9226 407 0
-546 -9366 -547 0
546 -9366 547 0
-686 -9506 -687 0
686 -9506 687 0
-826 -9646 -827 0
826 -9646 827 0
-966 -9786 -967 0
966 -9786 967 0
10907 -127 128 0
10907 127 -128 0
10907 -1107 1108 0
10907 1107 -1108 0
11047 -267 268 0
11047 267 -268 0
11047 -1247 1248 0
11047 1247 -1248 0
11187 -407 408 0
11187 407 -408 0
11187 -1387 1388 0
11187 1387 -1388 0
11327 -547 548 0
11327 547 -548 0
11327 -1527 1528 0
11327 1527 -1528 0
11467 -687 688 0
11467 687 -688 0
11467 -1667 1668 0
11467 1667 -1668 0
11607 -827 828 0
11607 827 -828 0
11607 -1807 1808 0
11607 1807 -1808 0
11747 -967 968 0
11747 967 -968 0
11747 -1947 1948 0
11747 1947 -1948 0
-127 -7967 -128 0
127 -7967 128 0
-8107 -1248 0
-267 -8107 268 0
267 -8107 -268 0
-9087 1248 0
-8247 -1388 0
-407 -8247 408 0
407 -8247 -408 0
-9227 1388 0
-8387 -1528 0
-547 -8387 548 0
547 -8387 -548 0
-9367 1528 0
-8527 -1668 0
-687 -8527 688 0
687 -8527 -688 0
-9507 1668 0
-8667 -1808 0
-827 -8667 828 0
827 -8667 -828 0
-9647 1808 0
-267 -9087 -268 0
267 -9087 268 0
-407 -9227 -408 0
407 -9227 408 0
-547 -9367 -548 0
547 -9367 548 0
-687 -9507 -688 0
687 -9507 688 0
-827 -9647 -828 0
827 -9647 828 0
-967 -9787 -968 0
967 -9787 968 0
10908 -128 129 0
10908 128 -129 0
10908 -1108 1109 0
10908 1108 -1109 0
11048 -268 269 0
11048 268 -269 0
11048 -1248 1249 0
11048 1248 -1249 0
11188 -408 409 0
11188 408 -409 0
11188 -1388 1389 0
11188 1388 -1389 0
11328 -548 549 0
11328 548 -549 0
11328 -1528 1529 0
11328 1528 -1529 0
11468 -688 689 0
11468 688 -689 0
11468 -1668 1669 0
11468 1668 -1669 0
11608 -828 829 0
11608 828 -829 0
11608 -1808 1809 0
11608 1808 -1809 0
11748 -968 969 0
11748 968 -969 0
11748 -1948 1949 0
11748 1948 -1949 0
-128 -7968 -129 0
128 -7968 129 0
-8108 -1249 0
-268 -8108 269 0
268 -8108 -269 0
-9088 1249 0
-8248 -1389 0
-408 -8248 409 0
408 -8248 -409 0
-9228 1389 0
-8388 -1529 0
-548 -8388 549 0
548 -8388 -549 0
-9368 1529 0
-8528 -1669 0
-688 -8528 689 0
688 -8528 -689 0
-9508 1669 0
-8668 -1809 0
-828 -8668 829 0
828 -8668 -829 0
-9648 1809 0
-268 -9088 -269 0
268 -9088 269 0
-408 -9228 -409 0
408 -9228 409 0
-548 -9368 -549 0
548 -9368 549 0
-688 -9508 -689 0
688 -9508 689 0
-828 -9648 -829 0
828 -9648 829 0
-968 -9788 -969 0
968 -9788 969 0
10909 -129 130 0
10909 129 -130 0
10909 -1109 1110 0
10909 1109 -1110 0
11049 -269 270 0
11049 269 -270 0
11049 -1249 1250 0
11049 1249 -1250 0
11189 -409 410 0
11189 409 -410 0
11189 -1389 1390 0
11189 1389 -1390 0
11329 -549 550 0
11329 549 -550 0
11329 -1529 1530 0
11329 1529 -1530 0
11469 -689 690 0
11469 689 -690 0
11469 -1669 1670 0
11469 1669 -1670 0
11609 -829 830 0
11609 829 -830 0
11609 -1809 1810 0
11609 1809 -1810 0
11749 -969 970 0
11749 969 -970 0
11749 -1949 1950 0
11749 1949 -1950 0
-129 -7969 -130 0
129 -7969 130 0
-8109 -1250 0
-269 -8109 270 0
269 -8109 -270 0
-9089 1250 0
-8249 -1390 0
-409 -8249 410 0
409 -8249 -410 0
-9229 1390 0
-8389 -1530 0
-549 -8389 550 0
549 -8389 -550 0
-9369 1530 0
-8529 -1670 0
-689 -8529 690 0
689 -8529 -690 0
-9509 1670 0
-8669 -1810 0
-829 -8669 830 0
829 -8669 -830 0
-9649 1810 0
-269 -9089 -270 0
269 -9089 270 0
-409 -9229 -410 0
409 -9229 410 0
-549 -9369 -550 0
549 -9369 550 0
-689 -9509 -690 0
689 -9509 690 0
-829 -9649 -830 0
829 -9649 830 0
-969 -9789 -970 0
969 -9789 970 0
10910 -130 131 0
10910 130 -131 0
10910 -1110 1111 0
10910 1110 -1111 0
11050 -270 271 0
11050 270 -271 0
11050 -1250 1251 0
11050 1250 -1251 0
11190 -410 411 0
11190 410 -411 0
11190 -1390 1391 0
11190 1390 -1391 0
11330 -550 551 0
11330 550 -551 0
11330 -1530 1531 0
11330 1530 -1531 0
11470 -690 691 0
11470 690 -691 0
11470 -1670 1671 0
11470 1670 -1671 0
11610 -830 831 0
11610 830 -831 0
11610 -1810 1811 0
11610 1810 -1811 0
11750 -970 971 0
11750 970 -971 0
11750 -1950 1951 0
11750 1950 -1951 0
-130 -7970 -131 0
130 -7970 131 0
-8110 -1251 0
-270 -8110 271 0
270 -8110 -271 0
-9090 1251 0
-8250 -1391 0
-410 -8250 411 0
410 -8250 -411 0
-9230 1391 0
-8390 -1531 0
-550 -8390 551 0
550 -8390 -551 0
-9370 1531 0
-8530 -1671 0
-690 -8530 691 0
690 -8530 -691 0
-9510 1671 0
-8670 -1811 0
-830 -8670 831 0
830 -8670 -831 0
-9650 1811 0
-270 -9090 -271 0
270 -9090 271 0
-410 -9230 -411 0
410 -9230 411 0
-550 -9370 -551 0
550 -9370 551 0
-690 -9510 -691 0
690 -9510 691 0
-830 -9650 -831 0
830 -9650 831 0
-970 -9790 -971 0
970 -9790 971 0
10911 -131 132 0
10911 131 -132 0
10911 -1111 1112 0
10911 1111 -1112 0
11051 -271 272 0
11051 271 -272 0
11051 -1251 1252 0
11051 1251 -1252 0
11191 -411 412 0
11191 411 -412 0
11191 -1391 1392 0
11191 1391 -1392 0
11331 -551 552 0
11331 551 -552 0
11331 -1531 1532 0
11331 1531 -1532 0
11471 -691 692 0
11471 691 -692 0
11471 -1671 1672 0
11471 1671 -1672 0
11611 -831 832 0
11611 831 -832 0
11611 -1811 1812 0
11611 1811 -1812 0
11751 -971 972 0
11751 971 -972 0
11751 -1951 1952 0
11751 1951 -1952 0
-131 -7971 -132 0
131 -7971 132 0
-8111 -1252 0
-271 -8111 272 0
271 -8111 -272 0
-9091 1252 0
-8251 -1392 0
-411 -8251 412 0
411 -8251 -412 0
-9231 1392 0
-8391 -1532 0
-551 -8391 552 0
551 -8391 -552 0
-9371 1532 0
-8531 -1672 0
-691 -8531 692 0
691 -8531 -692 0
-9511 1672 0
-8671 -1812 0
-831 -8671 832 0
831 -8671 -832 0
-9651 1812 0
-271 -9091 -272 0
271 -9091 272 0
-411 -9231 -412 0
411 -9231 412 0
-551 -9371 -552 0
551 -9371 552 0
-691 -9511 -692 0
691 -9511 692 0
-831 -9651 -832 0
831 -9651 832 0
-971 -9791 -972 0
971 -9791 972 0
10912 -132 133 0
10912 132 -133 0
10912 -1112 1113 0
10912 1112 -1113 0
11052 -272 273 0
11052 272 -273 0
11052 -1252 1253 0
11052 1252 -1253 0
11192 -412 413 0
11192 412 -413 0
11192 -1392 1393 0
11192 1392 -1393 0
11332 -552 553 0
11332 552 -553 0
11332 -1532 1533 0
11332 1532 -1533 0
11472 -692 693 0
11472 692 -693 0
11472 -1672 1673 0
11472 1672 -1673 0
11612 -832 833 0
11612 832 -833 0
11612 -1812 1813 0
11612 1812 -1813 0
11752 -972 973 0
11752 972 -973 0
11752 -1952 1953 0
11752 1952 -1953 0
-132 -7972 -133 0
132 -7972 133 0
-8112 -1253 0
-272 -8112 273 0
272 -8112 -273 0
-9092 1253 0
-8252 -1393 0
-412 -8252 413 0
412 -8252 -413 0
-9232 1393 0
-8392 -1533 0
-552 -8392 553 0
552 -8392 -553 0
-9372 1533 0
-8532 -1673 0
-692 -8532 693 0
692 -8532 -693 0
-9512 1673 0
-8672 -1813 0
-832 -8672 833 0
832 -8672 -833 0
-9652 1813 0
-272 -9092 -273 0
272 -9092 273 0
-412 -9232 -413 0
412 -9232 413 0
-552 -9372 -553 0
552 -9372 553 0
-692 -9512 -693 0
692 -9512 693 0
-832 -9652 -833 0
832 -9652 833 0
-972 -9792 -973 0
972 -9792 973 0
10913 -133 134 0
10913 133 -134 0
10913 -1113 1114 0
10913 1113 -1114 0
11053 -273 274 0
11053 273 -274 0
11053 -1253 1254 0
11053 1253 -1254 0
11193 -413 414 0
11193 413 -414 0
11193 -1393 1394 0
11193 1393 -1394 0
11333 -553 554 0
11333 553 -554 0
11333 -1533 1534 0
11333 1533 -1534 0
11473 -693 694 0
11473 693 -694 0
11473 -1673 1674 0
11473 1673 -1674 0
11613 -833 834 0
11613 833 -834 0
11613 -1813 1814 0
11613 1813 -1814 0
11753 -973 974 0
11753 973 -974 0
11753 -1953 1954 0
11753 1953 -1954 0
-133 -7973 -134 0
133 -7973 134 0
-8113 -1254 0
-273 -8113 274 0
273 -8113 -274 0
-9093 1254 0
-8253 -1394 0
-413 -8253 414 0
413 -8253 -414 0
-9233 1394 0
-8393 -1534 0
-553 -8393 554 0
553 -8393 -554 0
-9373 1534 0
-8533 -1674 0
-693 -8533 694 0
693 -8533 -694 0
-9513 1674 0
-8673 -1814 0
-833 -8673 834 0
833 -8673 -834 0
-9653 1814 0
-273 -9093 -274 0
273 -9093 274 0
-413 -9233 -414 0
413 -9233 414 0
-553 -9373 -554 0
553 -9373 554 0
-693 -9513 -694 0
693 -9513 694 0
-833 -9653 -834 0
833 -9653 834 0
-973 -9793 -974 0
973 -9793 974 0
10914 -134 135 0
10914 134 -135 0
10914 -1114 1115 0
10914 1114 -1115 0
11054 -274 275 0
11054 274 -275 0
11054 -1254 1255 0
11054 1254 -1255 0
11194 -414 415 0
11194 414 -415 0
11194 -1394 1395 0
11194 1394 -1395 0
11334 -554 555 0
11334 554 -555 0
11334 -1534 1535 0
11334 1534 -1535 0
11474 -694 695 0
11474 694 -695 0
11474 -1674 1675 0
11474 1674 -1675 0
11614 -834 835 0
11614 834 -835 0
11614 -1814 1815 0
11614 1814 -1815 0
11754 -974 975 0
11754 974 -975 0
11754 -1954 1955 0
11754 1954 -1955 0
-134 -7974 -135 0
134 -7974 135 0
-8114 -1255 0
-274 -8114 275 0
274 -8114 -275 0
-9094 1255 0
-8254 -1395 0
-414 -8254 415 0
414 -8254 -415 0
-9234 1395 0
-8394 -1535 0
-554 -8394 555 0
554 -8394 -555 0
-9374 1535 0
-8534 -1675 0
-694 -8534 695 0
694 -8534 -695 0
-9514 1675 0
-8674 -1815 0
-834 -8674 835 0
834 -8674 -835 0
-9654 1815 0
-274 -9094 -275 0
274 -9094 275 0
-414 -9234 -415 0
414 -9234 415 0
-554 -9374 -555 0
554 -9374 555 0
-694 -9514 -695 0
694 -9514 695 0
-834 -9654 -835 0
834 -9654 835 0
-974 -9794 -975 0
974 -9794 975 0
10915 -135 136 0
10915 135 -136 0
10915 -1115 1116 0
10915 1115 -1116 0
11055 -275 276 0
11055 275 -276 0
11055 -1255 1256 0
11055 1255 -1256 0
11195 -415 416 0
11195 415 -416 0
11195 -1395 1396 0
11195 1395 -1396 0
11335 -555 556 0
11335 555 -556 0
11335 -1535 1536 0
11335 1535 -1536 0
11475 -695 696 0
11475 695 -696 0
11475 -1675 1676 0
11475 1675 -1676 0
11615 -835 836 0
11615 835 -836 0
11615 -1815 1816 0
11615 1815 -1816 0
11755 -975 976 0
11755 975 -976 0
11755 -1955 1956 0
11755 1955 -1956 0
-135 -7975 -136 0
135 -7975 136 0
-8115 -1256 0
-275 -8115 276 0
275 -8115 -276 0
-9095 1256 0
-8255 -1396 0
-415 -8255 416 0
415 -8255 -416 0
-9235 1396 0
-8395 -1536 0
-555 -8395 556 0
555 -8395 -556 0
-9375 1536 0
-8535 -1676 0
-695 -8535 696 0
695 -8535 -696 0
-9515 1676 0
-8675 -1816 0
-835 -8675 836 0
835 -8675 -836 0
-9655 1816 0
-275 -9095 -276 0
275 -9095 276 0
-415 -9235 -416 0
415 -9235 416 0
-555 -9375 -556 0
555 -9375 556 0
-695 -9515 -696 0
695 -9515 696 0
-835 -9655 -836 0
835 -9655 836 0
-975 -9795 -976 0
975 -9795 976 0
10916 -136 137 0
10916 136 -137 0
10916 -1116 1117 0
10916 1116 -1117 0
11056 -276 277 0
11056 276 -277 0
11056 -1256 1257 0
11056 1256 -1257 0
11196 -416 417 0
11196 416 -417 0
11196 -1396 1397 0
11196 1396 -1397 0
11336 -556 557 0
11336 556 -557 0
11336 -1536 1537 0
11336 1536 -1537 0
11476 -696 697 0
11476 696 -697 0
11476 -1676 1677 0
11476 1676 -1677 0
11616 -836 837 0
11616 836 -837 0
11616 -1816 1817 0
11616 1816 -1817 0
11756 -976 977 0
11756 976 -977 0
11756 -1956 1957 0
11756 1956 -1957 0
-136 -7976 -137 0
136 -7976 137 0
-8116 -1257 0
-276 -8116 277 0
276 -8116 -277 0
-9096 1257 0
-8256 -1397 0
-416 -8256 417 0
416 -8256 -417 0
-9236 1397 0
-8396 -1537 0
-556 -8396 557 0
556 -8396 -557 0
-9376 1537 0
-8536 -1677 0
-696 -8536 697 0
696 -8536 -697 0
-9516 1677 0
-8676 -1817 0
-836 -8676 837 0
836 -8676 -837 0
-9656 1817 0
-276 -9096 -277 0
276 -9096 277 0
-416 -9236 -417 0
416 -9236 417 0
-556 -9376 -557 0
556 -9376 557 0
-696 -9516 -697 0
696 -9516 697 0
-836 -9656 -837 0
836 -9656 837 0
-976 -9796 -977 0
976 -9796 977 0
10917 -137 138 0
10917 137 -138 0
10917 -1117 1118 0
10917 1117 -1118 0
11057 -277 278 0
11057 277 -278 0
11057 -1257 1258 0
11057 1257 -1258 0
11197 -417 418 0
11197 417 -418 0
11197 -1397 1398 0
11197 1397 -1398 0
11337 -557 558 0
11337 557 -558 0
11337 -1537 1538 0
11337 1537 -1538 0
11477 -697 698 0
11477 697 -698 0
11477 -1677 1678 0
11477 1677 -1678 0
11617 -837 838 0
11617 837 -838 0
11617 -1817 1818 0
11617 1817 -1818 0
11757 -977 978 0
11757 977 -978 0
11757 -1957 1958 0
11757 1957 -1958 0
-137 -7977 -138 0
137 -7977 138 0
-8117 -1258 0
-277 -8117 278 0
277 -8117 -278 0
-9097 1258 0
-8257 -1398 0
-417 -8257 418 0
417 -8257 -418 0
-9237 1398 0
-8397 -1538 0
-557 -8397 558 0
557 -8397 -558 0
-9377 1538 0
-8537 -1678 0
-697 -8537 698 0
697 -8537 -698 0
-9517 1678 0
-8677 -1818 0
-837 -8677 838 0
837 -8677 -838 0
-9657 1818 0
-277 -9097 -278 0
277 -9097 278 0
-417 -9237 -418 0
417 -9237 418 0
-557 -9377 -558 0
557 -9377 558 0
-697 -9517 -698 0
697 -9517 698 0
-837 -9657 -838 0
837 -9657 838 0
-977 -9797 -978 0
977 -9797 978 0
10918 -138 139 0
10918 138 -139 0
10918 -1118 1119 0
10918 1118 -1119 0
11058 -278 279 0
11058 278 -279 0
11058 -1258 1259 0
11058 1258 -1259 0
11198 -418 419 0
11198 418 -419 0
11198 -1398 1399 0
11198 1398 -1399 0
11338 -558 559 0
11338 558 -559 0
11338 -1538 1539 0
11338 1538 -1539 0
11478 -698 699 0
11478 698 -699 0
11478 -1678 1679 0
11478 1678 -1679 0
11618 -838 839 0
11618 838 -839 0
11618 -1818 1819 0
11618 1818 -1819 0
11758 -978 979 0
11758 978 -979 0
11758 -1958 1959 0
11758 1958 -1959 0
-138 -7978 -139 0
138 -7978 139 0
-8118 -1259 0
-278 -8118 279 0
278 -8118 -279 0
-9098 1259 0
-8258 -1399 0
-418 -8258 419 0
418 -8258 -419 0
-9238 1399 0
-8398 -1539 0
-558 -8398 559 0
558 -8398 -559 0
-9378 1539 0
-8538 -1679 0
-698 -8538 699 0
698 -8538 -699 0
-9518 1679 0
-8678 -1819 0
-838 -8678 839 0
838 -8678 -839 0
-9658 1819 0
-278 -9098 -279 0
278 -9098 279 0
-418 -9238 -419 0
418 -9238 419 0
-558 -9378 -559 0
558 -9378 559 0
-698 -9518 -699 0
698 -9518 699 0
-838 -9658 -839 0
838 -9658 839 0
-978 -9798 -979 0
978 -9798 979 0
10919 -139 140 0
10919 139 -140 0
10919 -1119 1120 0
10919 1119 -1120 0
11059 -279 280 0
11059 279 -280 0
11059 -1259 1260 0
11059 1259 -1260 0
11199 -419 420 0
11199 419 -420 0
11199 -1399 1400 0
11199 1399 -1400 0
11339 -559 560 0
11339 559 -560 0
11339 -1539 1540 0
11339 1539 -1540 0
11479 -699 700 0
11479 699 -700 0
11479 -1679 1680 0
11479 1679 -1680 0
11619 -839 840 0
11619 839 -840 0
11619 -1819 1820 0
11619 1819 -1820 0
11759 -979 980 0
11759 979 -980 0
11759 -1959 1960 0
11759 1959 -1960 0
-139 -7979 -140 0
139 -7979 140 0
-8119 -1260 0
-279 -8119 280 0
279 -8119 -280 0
-9099 1260 0
-8259 -1400 0
-419 -8259 420 0
419 -8259 -420 0
-9239 1400 0
-8399 -1540 0
-559 -8399 560 0
559 -8399 -560 0
-9379 1540 0
-8539 -1680 0
-699 -8539 700 0
699 -8539 -700 0
-9519 1680 0
-8679 -1820 0
-839 -8679 840 0
839 -8679 -840 0
-9659 1820 0
-279 -9099 -280 0
279 -9099 280 0
-419 -9239 -420 0
419 -9239 420 0
-559 -9379 -560 0
559 -9379 560 0
-699 -9519 -700 0
699 -9519 700 0
-839 -9659 -840 0
839 -9659 840 0
-979 -9799 -980 0
979 -9799 980 0
981 0
-1821 0
-1961 2941 0
-1961 3921 0
-1961 981 0
-1961 -1121 0
1961 -2941 -3921 -981 1121 0
-1 141 -2941 0
1 2941 0
-141 2941 0
1 -141 -3921 0
-1 3921 0
141 3921 0
-2101 3081 0
-2101 4061 0
-2101 1121 0
-2101 -1261 0
2101 -3081 -4061 -1121 1261 0
-141 281 -3081 0
141 3081 0
-281 3081 0
141 -281 -4061 0
-141 4061 0
281 4061 0
-2241 3221 0
-2241 4201 0
-2241 1261 0
-2241 -1401 0
2241 -3221 -4201 -1261 1401 0
-281 421 -3221 0
281 3221 0
-421 3221 0
281 -421 -4201 0
-281 4201 0
421 4201 0
-2381 3361 0
-2381 4341 0
-2381 1401 0
-2381 -1541 0
2381 -3361 -4341 -1401 1541 0
-421 561 -3361 0
421 3361 0
-561 3361 0
421 -561 -4341 0
-421 4341 0
561 4341 0
-2521 3501 0
-2521 4481 0
-2521 1541 0
-2521 -1681 0
2521 -3501 -4481 -1541 1681 0
-561 701 -3501 0
561 3501 0
-701 3501 0
561 -701 -4481 0
-561 4481 0
701 4481 0
-2661 3641 0
-2661 4621 0
-2661 1681 0
-2661 -1821 0
2661 -3641 -4621 -1681 1821 0
-701 841 -3641 0
701 3641 0
-841 3641 0
701 -841 -4621 0
-701 4621 0
841 4621 0
5041 6021 0
5041 7001 0
-5041 -6021 -7001 0
-141 1 -6021 0
141 6021 0
-1 6021 0
141 -1 -7001 0
-141 7001 0
1 7001 0
5181 6161 0
5181 7141 0
-5181 -6161 -7141 0
-281 141 -6161 0
281 6161 0
-141 6161 0
281 -141 -7141 0
-281 7141 0
141 7141 0
5321 6301 0
5321 7281 0
-5321 -6301 -7281 0
-421 281 -6301 0
421 6301 0
-281 6301 0
421 -281 -7281 0
-421 7281 0
281 7281 0
5461 6441 0
5461 7421 0
-5461 -6441 -7421 0
-561 421 -6441 0
561 6441 0
-421 6441 0
561 -421 -7421 0
-561 7421 0
421 7421 0
5601 6581 0
5601 7561 0
-5601 -6581 -7561 0
-701 561 -6581 0
701 6581 0
-561 6581 0
701 -561 -7561 0
-701 7561 0
561 7561 0
5741 6721 0
5741 7701 0
-5741 -6721 -7701 0
-841 701 -6721 0
841 6721 0
-701 6721 0
841 -701 -7701 0
-841 7701 0
701 7701 0
982 0
-1822 0
-1962 2942 0
-1962 3922 0
-1962 982 0
-1962 -1122 0
1962 -2942 -3922 -982 1122 0
-2 142 -2942 0
2 2942 0
-142 2942 0
2 -142 -3922 0
-2 3922 0
142 3922 0
-2102 3082 0
-2102 4062 0
-2102 1122 0
-2102 -1262 0
2102 -3082 -4062 -1122 1262 0
-142 282 -3082 0
142 3082 0
-282 3082 0
142 -282 -4062 0
-142 4062 0
282 4062 0
-2242 3222 0
-2242 4202 0
-2242 1262 0
-2242 -1402 0
2242 -3222 -4202 -1262 1402 0
-282 422 -3222 0
282 3222 0
-422 3222 0
282 -422 -4202 0
-282 4202 0
422 4202 0
-2382 3362 0
-2382 4342 0
-2382 1402 0
-2382 -1542 0
2382 -3362 -4342 -1402 1542 0
-422 562 -3362 0
422 3362 0
-562 3362 0
422 -562 -4342 0
-422 4342 0
562 4342 0
-2522 3502 0
-2522 4482 0
-2522 1542 0
-2522 -1682 0
2522 -3502 -4482 -1542 1682 0
-562 702 -3502 0
562 3502 0
-702 3502 0
562 -702 -4482 0
-562 4482 0
702 4482 0
-2662 3642 0
-2662 4622 0
-2662 1682 0
-2662 -1822 0
2662 -3642 -4622 -1682 1822 0
-702 842 -3642 0
702 3642 0
-842 3642 0
702 -842 -4622 0
-702 4622 0
842 4622 0
5042 6022 0
5042 7002 0
-5042 -6022 -7002 0
-142 2 -6022 0
142 6022 0
-2 6022 0
142 -2 -7002 0
-142 7002 0
2 7002 0
5182 6162 0
5182 7142 0
-5182 -6162 -7142 0
-282 142 -6162 0
282 6162 0
-142 6162 0
282 -142 -7142 0
-282 7142 0
142 7142 0
5322 6302 0
5322 7282 0
-5322 -6302 -7282 0
-422 282 -6302 0
422 6302 0
-282 6302 0
422 -282 -7282 0
-422 7282 0
282 7282 0
5462 6442 0
5462 7422 0
-5462 -6442 -7422 0
-562 422 -6442 0
562 6442 0
-422 6442 0
562 -422 -7422 0
-562 7422 0
422 7422 0
5602 6582 0
5602 7562 0
-5602 -6582 -7562 0
-702 562 -6582 0
702 6582 0
-562 6582 0
702 -562 -7562 0
-702 7562 0
562 7562 0
5742 6722 0
5742 7702 0
-5742 -6722 -7702 0
-842 702 -6722 0
842 6722 0
-702 6722 0
842 -702 -7702 0
-842 7702 0
702 7702 0
983 0
-1823 0
-1963 2943 0
-1963 3923 0
-1963 983 0
-1963 -1123 0
1963 -2943 -3923 -983 1123 0
-3 143 -2943 0
3 2943 0
-143 2943 0
3 -143 -3923 0
-3 3923 0
143 3923 0
-2103 3083 0
-2103 4063 0
-2103 1123 0
-2103 -1263 0
2103 -3083 -4063 -1123 1263 0
-143 283 -3083 0
143 3083 0
-283 3083 0
143 -283 -4063 0
-143 4063 0
283 4063 0
-2243 3223 0
-2243 4203 0
-2243 1263 0
-2243 -1403 0
2243 -3223 -4203 -1263 1403 0
-283 423 -3223 0
283 3223 0
-423 3223 0
283 -423 -4203 0
-283 4203 0
423 4203 0
-2383 3363 0
-2383 4343 0
-2383 1403 0
-2383 -1543 0
2383 -3363 -4343 -1403 1543 0
-423 563 -3363 0
423 3363 0
-563 3363 0
423 -563 -4343 0
-423 4343 0
563 4343 0
-2523 3503 0
-2523 4483 0
-2523 1543 0
-2523 -1683 0
2523 -3503 -4483 -1543 1683 0
-563 703 -3503 0
563 3503 0
-703 3503 0
563 -703 -4483 0
-563 4483 0
703 4483 0
-2663 3643 0
-2663 4623 0
-2663 1683 0
-2663 -1823 0
2663 -3643 -4623 -1683 1823 0
-703 843 -3643 0
703 3643 0
-843 3643 0
703 -843 -4623 0
-703 4623 0
843 4623 0
5043 6023 0
5043 7003 0
-5043 -6023 -7003 0
-143 3 -6023 0
143 6023 0
-3 6023 0
143 -3 -7003 0
-143 7003 0
3 7003 0
5183 6163 0
5183 7143 0
-5183 -6163 -7143 0
-283 143 -6163 0
283 6163 0
-143 6163 0
283 -143 -7143 0
-283 7143 0
143 7143 0
5323 6303 0
5323 7283 0
-5323 -6303 -7283 0
-423 283 -6303 0
423 6303 0
-283 6303 0
423 -283 -7283 0
-423 7283 0
283 7283 0
5463 6443 0
5463 7423 0
-5463 -6443 -7423 0
-563 423 -6443 0
563 6443 0
-423 6443 0
563 -423 -7423 0
-563 7423 0
423 7423 0
5603 6583 0
5603 7563 0
-5603 -6583 -7563 0
-703 563 -6583 0
703 6583 0
-563 6583 0
703 -563 -7563 0
-703 7563 0
563 7563 0
5743 6723 0
5743 7703 0
-5743 -6723 -7703 0
-843 703 -6723 0
843 6723 0
-703 6723 0
843 -703 -7703 0
-843 7703 0
703 7703 0
984 0
-1824 0
-1964 2944 0
-1964 3924 0
-1964 984 0
-1964 -1124 0
1964 -2944 -3924 -984 1124 0
-4 144 -2944 0
4 2944 0
-144 2944 0
4 -144 -3924 0
-4 3924 0
144 3924 0
-2104 3084 0
-2104 4064 0
-2104 1124 0
-2104 -1264 0
2104 -3084 -4064 -1124 1264 0
-144 284 -3084 0
144 3084 0
-284 3084 0
144 -284 -4064 0
-144 4064 0
284 4064 0
-2244 3224 0
-2244 4204 0
-2244 1264 0
-2244 -1404 0
2244 -3224 -4204 -1264 1404 0
-284 424 -3224 0
284 3224 0
-424 3224 0
284 -424 -4204 0
-284 4204 0
424 4204 0
-2384 3364 0
-2384 4344 0
-2384 1404 0
-2384 -1544 0
2384 -3364 -4344 -1404 1544 0
-424 564 -3364 0
424 3364 0
-564 3364 0
424 -564 -4344 0
-424 4344 0
564 4344 0
-2524 3504 0
-2524 4484 0
-2524 1544 0
-2524 -1684 0
2524 -3504 -4484 -1544 1684 0
-564 704 -3504 0
564 3504 0
-704 3504 0
564 -704 -4484 0
-564 4484 0
704 4484 0
-2664 3644 0
-2664 4624 0
-2664 1684 0
-2664 -1824 0
2664 -3644 -4624 -1684 1824 0
-704 844 -3644 0
704 3644 0
-844 3644 0
704 -844 -4624 0
-704 4624 0
844 4624 0
5044 6024 0
5044 7004 0
-5044 -6024 -7004 0
-144 4 -6024 0
144 6024 0
-4 6024 0
144 -4 -7004 0
-144 7004 0
4 7004 0
5184 6164 0
5184 7144 0
-5184 -6164 -7144 0
-284 144 -6164 0
284 6164 0
-144 6164 0
284 -144 -7144 0
-284 7144 0
144 7144 0
5324 6304 0
5324 7284 0
-5324 -6304 -7284 0
-424 284 -6304 0
424 6304 0
-284 6304 0
424 -284 -7284 0
-424 7284 0
284 7284 0
5464 6444 0
5464 7424 0
-5464 -6444 -7424 0
-564 424 -6444 0
564 6444 0
-424 6444 0
564 -424 -7424 0
-564 7424 0
424 7424 0
5604 6584 0
5604 7564 0
-5604 -6584 -7564 0
-704 564 -6584 0
704 6584 0
-564 6584 0
704 -564 -7564 0
-704 7564 0
564 7564 0
5744 6724 0
5744 7704 0
-5744 -6724 -7704 0
-844 704 -6724 0
844 6724 0
-704 6724 0
844 -704 -7704 0
-844 7704 0
704 7704 0
985 0
-1825 0
-1965 2945 0
-1965 3925 0
-1965 985 0
-1965 -1125 0
1965 -2945 -3925 -985 1125 0
-5 145 -2945 0
5 2945 0
-145 2945 0
5 -145 -3925 0
-5 3925 0
145 3925 0
-2105 3085 0
-2105 4065 0
-2105 1125 0
-2105 -1265 0
2105 -3085 -4065 -1125 1265 0
-145 285 -3085 0
145 3085 0
-285 3085 0
145 -285 -4065 0
-145 4065 0
285 4065 0
-2245 3225 0
-2245 4205 0
-2245 1265 0
-2245 -1405 0
2245 -3225 -4205 -1265 1405 0
-285 425 -3225 0
285 3225 0
-425 3225 0
285 -425 -4205 0
-285 4205 0
425 4205 0
-2385 3365 0
-2385 4345 0
-2385 1405 0
-2385 -1545 0
2385 -3365 -4345 -1405 1545 0
-425 565 -3365 0
425 3365 0
-565 3365 0
425 -565 -4345 0
-425 4345 0
565 4345 0
-2525 3505 0
-2525 4485 0
-2525 1545 0
-2525 -1685 0
2525 -3505 -4485 -1545 1685 0
-565 705 -3505 0
565 3505 0
-705 3505 0
565 -705 -4485 0
-565 4485 0
705 4485 0
-2665 3645 0
-2665 4625 0
-2665 1685 0
-2665 -1825 0
2665 -3645 -4625 -1685 1825 0
-705 845 -3645 0
705 3645 0
-845 3645 0
705 -845 -4625 0
-705 4625 0
845 4625 0
5045 6025 0
5045 7005 0
-5045 -6025 -7005 0
-145 5 -6025 0
145 6025 0
-5 6025 0
145 -5 -7005 0
-145 7005 0
5 7005 0
5185 6165 0
5185 7145 0
-5185 -6165 -7145 0
-285 145 -6165 0
285 6165 0
-145 6165 0
285 -145 -7145 0
-285 7145 0
145 7145 0
5325 6305 0
5325 7285 0
-5325 -6305 -7285 0
-425 285 -6305 0
425 6305 0
-285 6305 0
425 -285 -7285 0
-425 7285 0
285 7285 0
5465 6445 0
5465 7425 0
-5465 -6445 -7425 0
-565 425 -6445 0
565 6445 0
-425 6445 0
565 -425 -7425 0
-565 7425 0
425 7425 0
5605 6585 0
5605 7565 0
-5605 -6585 -7565 0
-705 565 -6585 0
705 6585 0
-565 6585 0
705 -565 -7565 0
-705 7565 0
565 7565 0
5745 6725 0
5745 7705 0
-5745 -6725 -7705 0
-845 705 -6725 0
845 6725 0
-705 6725 0
845 -705 -7705 0
-845 7705 0
705 7705 0
986 0
-1826 0
-1966 2946 0
-1966 3926 0
-1966 986 0
-1966 -1126 0
1966 -2946 -3926 -986 1126 0
-6 146 -2946 0
6 2946 0
-146 2946 0
6 -146 -3926 0
-6 3926 0
146 3926 0
-2106 3086 0
-2106 4066 0
-2106 1126 0
-2106 -1266 0
2106 -3086 -4066 -1126 1266 0
-146 286 -3086 0
146 3086 0
-286 3086 0
146 -286 -4066 0
-146 4066 0
286 4066 0
-2246 3226 0
-2246 4206 0
-2246 1266 0
-2246 -1406 0
2246 -3226 -4206 -1266 1406 0
-286 426 -3226 0
286 3226 0
-426 3226 0
286 -426 -4206 0
-286 4206 0
426 4206 0
-2386 3366 0
-2386 4346 0
-2386 1406 0
-2386 -1546 0
2386 -3366 -4346 -1406 1546 0
-426 566 -3366 0
426 3366 0
-566 3366 0
426 -566 -4346 0
-426 4346 0
566 4346 0
-2526 3506 0
-2526 4486 0
-2526 1546 0
-2526 -1686 0
2526 -3506 -4486 -1546 1686 0
-566 706 -3506 0
566 3506 0
-706 3506 0
566 -706 -4486 0
-566 4486 0
706 4486 0
-2666 3646 0
-2666 4626 0
-2666 1686 0
-2666 -1826 0
2666 -3646 -4626 -1686 1826 0
-706 846 -3646 0
706 3646 0
-846 3646 0
706 -846 -4626 0
-706 4626 0
846 4626 0
5046 6026 0
5046 7006 0
-5046 -6026 -7006 0
-146 6 -6026 0
146 6026 0
-6 6026 0
146 -6 -7006 0
-146 7006 0
6 7006 0
5186 6166 0
5186 7146 0
-5186 -6166 -7146 0
-286 146 -6166 0
286 6166 0
-146 6166 0
286 -146 -7146 0
-286 7146 0
146 7146 0
5326 6306 0
5326 7286 0
-5326 -6306 -7286 0
-426 286 -6306 0
426 6306 0
-286 6306 0
426 -286 -7286 0
-426 7286 0
286 7286 0
5466 6446 0
5466 7426 0
-5466 -6446 -7426 0
-566 426 -6446 0
566 6446 0
-426 6446 0
566 -426 -7426 0
-566 7426 0
426 7426 0
5606 6586 0
5606 7566 0
-5606 -6586 -7566 0
-706 566 -6586 0
706 6586 0
-566 6586 0
706 -566 -7566 0
-706 7566 0
566 7566 0
5746 6726 0
5746 7706 0
-5746 -6726 -7706 0
-846 706 -6726 0
846 6726 0
-706 6726 0
846 -706 -7706 0
-846 7706 0
706 7706 0
987 0
-1827 0
-1967 2947 0
-1967 3927 0
-1967 987 0
-1967 -1127 0
1967 -2947 -3927 -987 1127 0
-7 147 -2947 0
7 2947 0
-147 2947 0
7 -147 -3927 0
-7 3927 0
147 3927 0
-2107 3087 0
-2107 4067 0
-2107 1127 0
-2107 -1267 0
2107 -3087 -4067 -1127 1267 0
-147 287 -3087 0
147 3087 0
-287 3087 0
147 -287 -4067 0
-147 4067 0
287 4067 0
-2247 3227 0
-2247 4207 0
-2247 1267 0
-2247 -1407 0
2247 -3227 -4207 -1267 1407 0
-287 427 -3227 0
287 3227 0
-427 3227 0
287 -427 -4207 0
-287 4207 0
427 4207 0
-2387 3367 0
-2387 4347 0
-2387 1407 0
-2387 -1547 0
2387 -3367 -4347 -1407 1547 0
-427 567 -3367 0
427 3367 0
-567 3367 0
427 -567 -4347 0
-427 4347 0
567 4347 0
-2527 3507 0
-2527 4487 0
-2527 1547 0
-2527 -1687 0
2527 -3507 -4487 -1547 1687 0
-567 707 -3507 0
567 3507 0
-707 3507 0
567 -707 -4487 0
-567 4487 0
707 4487 0
-2667 3647 0
-2667 4627 0
-2667 1687 0
-2667 -1827 0
2667 -3647 -4627 -1687 1827 0
-707 847 -3647 0
707 3647 0
-847 3647 0
707 -847 -4627 0
-707 4627 0
847 4627 0
5047 6027 0
5047 7007 0
-5047 -6027 -7007 0
-147 7 -6027 0
147 6027 0
-7 6027 0
147 -7 -7007 0
-147 7007 0
7 7007 0
5187 6167 0
5187 7147 0
-5187 -6167 -7147 0
-287 147 -6167 0
287 6167 0
-147 6167 0
287 -147 -7147 0
-287 7147 0
147 7147 0
5327 6307 0
5327 7287 0
-5327 -6307 -7287 0
-427 287 -6307 0
427 6307 0
-287 6307 0
427 -287 -7287 0
-427 7287 0
287 7287 0
5467 6447 0
5467 7427 0
-5467 -6447 -7427 0
-567 427 -6447 0
567 6447 0
-427 6447 0
567 -427 -7427 0
-567 7427 0
427 7427 0
5607 6587 0
5607 7567 0
-5607 -6587 -7567 0
-707 567 -6587 0
707 6587 0
-567 6587 0
707 -567 -7567 0
-707 7567 0
567 7567 0
5747 6727 0
5747 7707 0
-5747 -6727 -7707 0
-847 707 -6727 0
847 6727 0
-707 6727 0
847 -707 -7707 0
-847 7707 0
707 7707 0
988 0
-1828 0
-1968 2948 0
-1968 3928 0
-1968 988 0
-1968 -1128 0
1968 -2948 -3928 -988 1128 0
-8 148 -2948 0
8 2948 0
-148 2948 0
8 -148 -3928 0
-8 3928 0
148 3928 0
-2108 3088 0
-2108 4068 0
-2108 1128 0
-2108 -1268 0
2108 -3088 -4068 -1128 1268 0
-148 288 -3088 0
148 3088 0
-288 3088 0
148 -288 -4068 0
-148 4068 0
288 4068 0
-2248 3228 0
-2248 4208 0
-2248 1268 0
-2248 -1408 0
2248 -3228 -4208 -1268 1408 0
-288 428 -3228 0
288 3228 0
-428 3228 0
288 -428 -4208 0
-288 4208 0
428 4208 0
-2388 3368 0
-2388 4348 0
-2388 1408 0
-2388 -1548 0
2388 -3368 -4348 -1408 1548 0
-428 568 -3368 0
428 3368 0
-568 3368 0
428 -568 -4348 0
-428 4348 0
568 4348 0
-2528 3508 0
-2528 4488 0
-2528 1548 0
-2528 -1688 0
2528 -3508 -4488 -1548 1688 0
-568 708 -3508 0
568 3508 0
-708 3508 0
568 -708 -4488 0
-568 4488 0
708 4488 0
-2668 3648 0
-2668 4628 0
-2668 1688 0
-2668 -1828 0
2668 -3648 -4628 -1688 1828 0
-708 848 -3648 0
708 3648 0
-848 3648 0
708 -848 -4628 0
-708 4628 0
848 4628 0
5048 6028 0
5048 7008 0
-5048 -6028 -7008 0
-148 8 -6028 0
148 6028 0
-8 6028 0
148 -8 -7008 0
-148 7008 0
8 7008 0
5188 6168 0
5188 7148 0
-5188 -6168 -7148 0
-288 148 -6168 0
288 6168 0
-148 6168 0
288 -148 -7148 0
-288 7148 0
148 7148 0
5328 6308 0
5328 7288 0
-5328 -6308 -7288 0
-428 288 -6308 0
428 6308 0
-288 6308 0
428 -288 -7288 0
-428 7288 0
288 7288 0
5468 6448 0
5468 7428 0
-5468 -6448 -7428 0
-568 428 -6448 0
568 6448 0
-428 6448 0
568 -428 -7428 0
-568 7428 0
428 7428 0
5608 6588 0
5608 7568 0
-5608 -6588 -7568 0
-708 568 -6588 0
708 6588 0
-568 6588 0
708 -568 -7568 0
-708 7568 0
568 7568 0
5748 6728 0
5748 7708 0
-5748 -6728 -7708 0
-848 708 -6728 0
848 6728 0
-708 6728 0
848 -708 -7708 0
-848 7708 0
708 7708 0
989 0
-1829 0
-1969 2949 0
-1969 3929 0
-1969 989 0
-1969 -1129 0
1969 -2949 -3929 -989 1129 0
-9 149 -2949 0
9 2949 0
-149 2949 0
9 -149 -3929 0
-9 3929 0
149 3929 0
-2109 3089 0
-2109 4069 0
-2109 1129 0
-2109 -1269 0
2109 -3089 -4069 -1129 1269 0
-149 289 -3089 0
149 3089 0
-289 3089 0
149 -289 -4069 0
-149 4069 0
289 4069 0
-2249 3229 0
-2249 4209 0
-2249 1269 0
-2249 -1409 0
2249 -3229 -4209 -1269 1409 0
-289 429 -3229 0
289 3229 0
-429 3229 0
289 -429 -4209 0
-289 4209 0
429 4209 0
-2389 3369 0
-2389 4349 0
-2389 1409 0
-2389 -1549 0
2389 -3369 -4349 -1409 1549 0
-429 569 -3369 0
429 3369 0
-569 3369 0
429 -569 -4349 0
-429 4349 0
569 4349 0
-2529 3509 0
-2529 4489 0
-2529 1549 0
-2529 -1689 0
2529 -3509 -4489 -1549 1689 0
-569 709 -3509 0
569 3509 0
-709 3509 0
569 -709 -4489 0
-569 4489 0
709 4489 0
-2669 3649 0
-2669 4629 0
-2669 1689 0
-2669 -1829 0
2669 -3649 -4629 -1689 1829 0
-709 849 -3649 0
709 3649 0
-849 3649 0
709 -849 -4629 0
-709 4629 0
849 4629 0
5049 6029 0
5049 7009 0
-5049 -6029 -7009 0
-149 9 -6029 0
149 6029 0
-9 6029 0
149 -9 -7009 0
-149 7009 0
9 7009 0
5189 6169 0
5189 7149 0
-5189 -6169 -7149 0
-289 149 -6169 0
289 6169 0
-149 6169 0
289 -149 -7149 0
-289 7149 0
149 7149 0
5329 6309 0
5329 7289 0
-5329 -6309 -7289 0
-429 289 -6309 0
429 6309 0
-289 6309 0
429 -289 -7289 0
-429 7289 0
289 7289 0
5469 6449 0
5469 7429 0
-5469 -6449 -7429 0
-569 429 -6449 0
569 6449 0
-429 6449 0
569 -429 -7429 0
-569 7429 0
429 7429 0
5609 6589 0
5609 7569 0
-5609 -6589 -7569 0
-709 569 -6589 0
709 6589 0
-569 6589 0
709 -569 -7569 0
-709 7569 0
569 7569 0
5749 6729 0
5749 7709 0
-5749 -6729 -7709 0
-849 709 -6729 0
849 6729 0
-709 6729 0
849 -709 -7709 0
-849 7709 0
709 7709 0
990 0
-1830 0
-1970 2950 0
-1970 3930 0
-1970 990 0
-1970 -1130 0
1970 -2950 -3930 -990 1130 0
-10 150 -2950 0
10 2950 0
-150 2950 0
10 -150 -3930 0
-10 3930 0
150 3930 0
-2110 3090 0
-2110 4070 0
-2110 1130 0
-2110 -1270 0
2110 -3090 -4070 -1130 1270 0
-150 290 -3090 0
150 3090 0
-290 3090 0
150 -290 -4070 0
-150 4070 0
290 4070 0
-2250 3230 0
-2250 4210 0
-2250 1270 0
-2250 -1410 0
2250 -3230 -4210 -1270 1410 0
-290 430 -3230 0
290 3230 0
-430 3230 0
290 -430 -4210 0
-290 4210 0
430 4210 0
-2390 3370 0
-2390 4350 0
-2390 1410 0
-2390 -1550 0
2390 -3370 -4350 -1410 1550 0
-430 570 -3370 0
430 3370 0
-570 3370 0
430 -570 -4350 0
-430 4350 0
570 4350 0
-2530 3510 0
-2530 4490 0
-2530 1550 0
-2530 -1690 0
2530 -3510 -4490 -1550 1690 0
-570 710 -3510 0
570 3510 0
-710 3510 0
570 -710 -4490 0
-570 4490 0
710 4490 0
-2670 3650 0
-2670 4630 0
-2670 1690 0
-2670 -1830 0
2670 -3650 -4630 -1690 1830 0
-710 850 -3650 0
710 3650 0
-850 3650 0
710 -850 -4630 0
-710 4630 0
850 4630 0
5050 6030 0
5050 7010 0
-5050 -6030 -7010 0
-150 10 -6030 0
150 6030 0
-10 6030 0
150 -10 -7010 0
-150 7010 0
10 7010 0
5190 6170 0
5190 7150 0
-5190 -6170 -7150 0
-290 150 -6170 0
290 6170 0
-150 6170 0
290 -150 -7150 0
-290 7150 0
150 7150 0
5330 6310 0
5330 7290 0
-5330 -6310 -7290 0
-430 290 -6310 0
430 6310 0
-290 6310 0
430 -290 -7290 0
-430 7290 0
290 7290 0
5470 6450 0
5470 7430 0
-5470 -6450 -7430 0
-570 430 -6450 0
570 6450 0
-430 6450 0
570 -430 -7430 0
-570 7430 0
430 7430 0
5610 6590 0
5610 7570 0
-5610 -6590 -7570 0
-710 570 -6590 0
710 6590 0
-570 6590 0
710 -570 -7570 0
-710 7570 0
570 7570 0
5750 6730 0
5750 7710 0
-5750 -6730 -7710 0
-850 710 -6730 0
850 6730 0
-710 6730 0
850 -710 -7710 0
-850 7710 0
710 7710 0
991 0
-1831 0
-1971 2951 0
-1971 3931 0
-1971 991 0
-1971 -1131 0
1971 -2951 -3931 -991 1131 0
-11 151 -2951 0
11 2951 0
-151 2951 0
11 -151 -3931 0
-11 3931 0
151 3931 0
-2111 3091 0
-2111 4071 0
-2111 1131 0
-2111 -1271 0
2111 -3091 -4071 -1131 1271 0
-151 291 -3091 0
151 3091 0
-291 3091 0
151 -291 -4071 0
-151 4071 0
291 4071 0
-2251 3231 0
-2251 4211 0
-2251 1271 0
-2251 -1411 0
2251 -3231 -4211 -1271 1411 0
-291 431 -3231 0
291 3231 0
-431 3231 0
291 -431 -4211 0
-291 4211 0
431 4211 0
-2391 3371 0
-2391 4351 0
-2391 1411 0
-2391 -1551 0
2391 -3371 -4351 -1411 1551 0
-431 571 -3371 0
431 3371 0
-571 3371 0
431 -571 -4351 0
-431 4351 0
571 4351 0
-2531 3511 0
-2531 4491 0
-2531 1551 0
-2531 -1691 0
2531 -3511 -4491 -1551 1691 0
-571 711 -3511 0
571 3511 0
-711 3511 0
571 -711 -4491 0
-571 4491 0
711 4491 0
-2671 3651 0
-2671 4631 0
-2671 1691 0
-2671 -1831 0
2671 -3651 -4631 -1691 1831 0
-711 851 -3651 0
711 3651 0
-851 3651 0
711 -851 -4631 0
-711 4631 0
851 4631 0
5051 6031 0
5051 7011 0
-5051 -6031 -7011 0
-151 11 -6031 0
151 6031 0
-11 6031 0
151 -11 -7011 0
-151 7011 0
11 7011 0
5191 6171 0
5191 7151 0
-5191 -6171 -7151 0
-291 151 -6171 0
291 6171 0
-151 6171 0
291 -151 -7151 0
-291 7151 0
151 7151 0
5331 6311 0
5331 7291 0
-5331 -6311 -7291 0
-431 291 -6311 0
431 6311 0
-291 6311 0
431 -291 -7291 0
-431 7291 0
291 7291 0
5471 6451 0
5471 7431 0
-5471 -6451 -7431 0
-571 431 -6451 0
571 6451 0
-431 6451 0
571 -431 -7431 0
-571 7431 0
431 7431 0
5611 6591 0
5611 7571 0
-5611 -6591 -7571 0
-711 571 -6591 0
711 6591 0
-571 6591 0
711 -571 -7571 0
-711 7571 0
571 7571 0
5751 6731 0
5751 7711 0
-5751 -6731 -7711 0
-851 711 -6731 0
851 6731 0
-711 6731 0
851 -711 -7711 0
-851 7711 0
711 7711 0
992 0
-1832 0
-1972 2952 0
-1972 3932 0
-1972 992 0
-1972 -1132 0
1972 -2952 -3932 -992 1132 0
-12 152 -2952 0
12 2952 0
-152 2952 0
12 -152 -3932 0
-12 3932 0
152 3932 0
-2112 3092 0
-2112 4072 0
-2112 1132 0
-2112 -1272 0
2112 -3092 -4072 -1132 1272 0
-152 292 -3092 0
152 3092 0
-292 3092 0
152 -292 -4072 0
-152 4072 0
292 4072 0
-2252 3232 0
-2252 4212 0
-2252 1272 0
-2252 -1412 0
2252 -3232 -4212 -1272 1412 0
-292 432 -3232 0
292 3232 0
-432 3232 0
292 -432 -4212 0
-292 4212 0
432 4212 0
-2392 3372 0
-2392 4352 0
-2392 1412 0
-2392 -1552 0
2392 -3372 -4352 -1412 1552 0
-432 572 -3372 0
432 3372 0
-572 3372 0
432 -572 -4352 0
-432 4352 0
572 4352 0
-2532 3512 0
-2532 4492 0
-2532 1552 0
-2532 -1692 0
2532 -3512 -4492 -1552 1692 0
-572 712 -3512 0
572 3512 0
-712 3512 0
572 -712 -4492 0
-572 4492 0
712 4492 0
-2672 3652 0
-2672 4632 0
-2672 1692 0
-2672 -1832 0
2672 -3652 -4632 -1692 1832 0
-712 852 -3652 0
712 3652 0
-852 3652 0
712 -852 -4632 0
-712 4632 0
852 4632 0
5052 6032 0
5052 7012 0
-5052 -6032 -7012 0
-152 12 -6032 0
152 6032 0
-12 6032 0
152 -12 -7012 0
-152 7012 0
12 7012 0
5192 6172 0
5192 7152 0
-5192 -6172 -7152 0
-292 152 -6172 0
292 6172 0
-152 6172 0
292 -152 -7152 0
-292 7152 0
152 7152 0
5332 6312 0
5332 7292 0
-5332 -6312 -7292 0
-432 292 -6312 0
432 6312 0
-292 6312 0
432 -292 -7292 0
-432 7292 0
292 7292 0
5472 6452 0
5472 7432 0
-5472 -6452 -7432 0
-572 432 -6452 0
572 6452 0
-432 6452 0
572 -432 -7432 0
-572 7432 0
432 7432 0
5612 6592 0
5612 7572 0
-5612 -6592 -7572 0
-712 572 -6592 0
712 6592 0
-572 6592 0
712 -572 -7572 0
-712 7572 0
572 7572 0
5752 6732 0
5752 7712 0
-5752 -6732 -7712 0
-852 712 -6732 0
852 6732 0
-712 6732 0
852 -712 -7712 0
-852 7712 0
712 7712 0
993 0
-1833 0
-1973 2953 0
-1973 3933 0
-1973 993 0
-1973 -1133 0
1973 -2953 -3933 -993 1133 0
-13 153 -2953 0
13 2953 0
-153 2953 0
13 -153 -3933 0
-13 3933 0
153 3933 0
-2113 3093 0
-2113 4073 0
-2113 1133 0
-2113 -1273 0
2113 -3093 -4073 -1133 1273 0
-153 293 -3093 0
153 3093 0
-293 3093 0
153 -293 -4073 0
-153 4073 0
293 4073 0
-2253 3233 0
-2253 4213 0
-2253 1273 0
-2253 -1413 0
2253 -3233 -4213 -1273 1413 0
-293 433 -3233 0
293 3233 0
-433 3233 0
293 -433 -4213 0
-293 4213 0
433 4213 0
-2393 3373 0
-2393 4353 0
-2393 1413 0
-2393 -1553 0
2393 -3373 -4353 -1413 1553 0
-433 573 -3373 0
433 3373 0
-573 3373 0
433 -573 -4353 0
-433 4353 0
573 4353 0
-2533 3513 0
-2533 4493 0
-2533 1553 0
-2533 -1693 0
2533 -3513 -4493 -1553 1693 0
-573 713 -3513 0
573 3513 0
-713 3513 0
573 -713 -4493 0
-573 4493 0
713 4493 0
-2673 3653 0
-2673 4633 0
-2673 1693 0
-2673 -1833 0
2673 -3653 -4633 -1693 1833 0
-713 853 -3653 0
713 3653 0
-853 3653 0
713 -853 -4633 0
-713 4633 0
853 4633 0
5053 6033 0
5053 7013 0
-5053 -6033 -7013 0
-153 13 -6033 0
153 6033 0
-13 6033 0
153 -13 -7013 0
-153 7013 0
13 7013 0
5193 6173 0
5193 7153 0
-5193 -6173 -7153 0
-293 153 -6173 0
293 6173 0
-153 6173 0
293 -153 -7153 0
-293 7153 0
153 7153 0
5333 6313 0
5333 7293 0
-5333 -6313 -7293 0
-433 293 -6313 0
433 6313 0
-293 6313 0
433 -293 -7293 0
-433 7293 0
293 7293 0
5473 6453 0
5473 7433 0
-5473 -6453 -7433 0
-573 433 -6453 0
573 6453 0
-433 6453 0
573 -433 -7433 0
-573 7433 0
433 7433 0
5613 6593 0
5613 7573 0
-5613 -6593 -7573 0
-713 573 -6593 0
713 6593 0
-573 6593 0
713 -573 -7573 0
-713 7573 0
573 7573 0
5753 6733 0
5753 7713 0
-5753 -6733 -7713 0
-853 713 -6733 0
853 6733 0
-713 6733 0
853 -713 -7713 0
-853 7713 0
713 7713 0
994 0
-1834 0
-1974 2954 0
-1974 3934 0
-1974 994 0
-1974 -1134 0
1974 -2954 -3934 -994 1134 0
-14 154 -2954 0
14 2954 0
-154 2954 0
14 -154 -3934 0
-14 3934 0
154 3934 0
-2114 3094 0
-2114 4074 0
-2114 1134 0
-2114 -1274 0
2114 -3094 -4074 -1134 1274 0
-154 294 -3094 0
154 3094 0
-294 3094 0
154 -294 -4074 0
-154 4074 0
294 4074 0
-2254 3234 0
-2254 4214 0
-2254 1274 0
-2254 -1414 0
2254 -3234 -4214 -1274 1414 0
-294 434 -3234 0
294 3234 0
-434 3234 0
294 -434 -4214 0
-294 4214 0
434 4214 0
-2394 3374 0
-2394 4354 0
-2394 1414 0
-2394 -1554 0
2394 -3374 -4354 -1414 1554 0
-434 574 -3374 0
434 3374 0
-574 3374 0
434 -574 -4354 0
-434 4354 0
574 4354 0
-2534 3514 0
-2534 4494 0
-2534 1554 0
-2534 -1694 0
2534 -3514 -4494 -1554 1694 0
-574 714 -3514 0
574 3514 0
-714 3514 0
574 -714 -4494 0
-574 4494 0
714 4494 0
-2674 3654 0
-2674 4634 0
-2674 1694 0
-2674 -1834 0
2674 -3654 -4634 -1694 1834 0
-714 854 -3654 0
714 3654 0
-854 3654 0
714 -854 -4634 0
-714 4634 0
854 4634 0
5054 6034 0
5054 7014 0
-5054 -6034 -7014 0
-154 14 -6034 0
154 6034 0
-14 6034 0
154 -14 -7014 0
-154 7014 0
14 7014 0
5194 6174 0
5194 7154 0
-5194 -6174 -7154 0
-294 154 -6174 0
294 6174 0
-154 6174 0
294 -154 -7154 0
-294 7154 0
154 7154 0
5334 6314 0
5334 7294 0
-5334 -6314 -7294 0
-434 294 -6314 0
434 6314 0
-294 6314 0
434 -294 -7294 0
-434 7294 0
294 7294 0
5474 6454 0
5474 7434 0
-5474 -6454 -7434 0
-574 434 -6454 0
574 6454 0
-434 6454 0
574 -434 -7434 0
-574 7434 0
434 7434 0
5614 6594 0
5614 7574 0
-5614 -6594 -7574 0
-714 574 -6594 0
714 6594 0
-574 6594 0
714 -574 -7574 0
-714 7574 0
574 7574 0
5754 6734 0
5754 7714 0
-5754 -6734 -7714 0
-854 714 -6734 0
854 6734 0
-714 6734 0
854 -714 -7714 0
-854 7714 0
714 7714 0
995 0
-1835 0
-1975 2955 0
-1975 3935 0
-1975 995 0
-1975 -1135 0
1975 -2955 -3935 -995 1135 0
-15 155 -2955 0
15 2955 0
-155 2955 0
15 -155 -3935 0
-15 3935 0
155 3935 0
-2115 3095 0
-2115 4075 0
-2115 1135 0
-2115 -1275 0
2115 -3095 -4075 -1135 1275 0
-155 295 -3095 0
155 3095 0
-295 3095 0
155 -295 -4075 0
-155 4075 0
295 4075 0
-2255 3235 0
-2255 4215 0
-2255 1275 0
-2255 -1415 0
2255 -3235 -4215 -1275 1415 0
-295 435 -3235 0
295 3235 0
-435 3235 0
295 -435 -4215 0
-295 4215 0
435 4215 0
-2395 3375 0
-2395 4355 0
-2395 1415 0
-2395 -1555 0
2395 -3375 -4355 -1415 1555 0
-435 575 -3375 0
435 3375 0
-575 3375 0
435 -575 -4355 0
-435 4355 0
575 4355 0
-2535 3515 0
-2535 4495 0
-2535 1555 0
-2535 -1695 0
2535 -3515 -4495 -1555 1695 0
-575 715 -3515 0
575 3515 0
-715 3515 0
575 -715 -4495 0
-575 4495 0
715 4495 0
-2675 3655 0
-2675 4635 0
-2675 1695 0
-2675 -1835 0
2675 -3655 -4635 -1695 1835 0
-715 855 -3655 0
715 3655 0
-855 3655 0
715 -855 -4635 0
-715 4635 0
855 4635 0
5055 6035 0
5055 7015 0
-5055 -6035 -7015 0
-155 15 -6035 0
155 6035 0
-15 6035 0
155 -15 -7015 0
-155 7015 0
15 7015 0
5195 6175 0
5195 7155 0
-5195 -6175 -7155 0
-295 155 -6175 0
295 6175 0
-155 6175 0
295 -155 -7155 0
-295 7155 0
155 7155 0
5335 6315 0
5335 7295 0
-5335 -6315 -7295 0
-435 295 -6315 0
435 6315 0
-295 6315 0
435 -295 -7295 0
-435 7295 0
295 7295 0
5475 6455 0
5475 7435 0
-5475 -6455 -7435 0
-575 435 -6455 0
575 6455 0
-435 6455 0
575 -435 -7435 0
-575 7435 0
435 7435 0
5615 6595 0
5615 7575 0
-5615 -6595 -7575 0
-715 575 -6595 0
715 6595 0
-575 6595 0
715 -575 -7575 0
-715 7575 0
575 7575 0
5755 6735 0
5755 7715 0
-5755 -6735 -7715 0
-855 715 -6735 0
855 6735 0
-715 6735 0
855 -715 -7715 0
-855 7715 0
715 7715 0
996 0
-1836 0
-1976 2956 0
-1976 3936 0
-1976 996 0
-1976 -1136 0
1976 -2956 -3936 -996 1136 0
-16 156 -2956 0
16 2956 0
-156 2956 0
16 -156 -3936 0
-16 3936 0
156 3936 0
-2116 3096 0
-2116 4076 0
-2116 1136 0
-2116 -1276 0
2116 -3096 -4076 -1136 1276 0
-156 296 -3096 0
156 3096 0
-296 3096 0
156 -296 -4076 0
-156 4076 0
296 4076 0
-2256 3236 0
-2256 4216 0
-2256 1276 0
-2256 -1416 0
2256 -3236 -4216 -1276 1416 0
-296 436 -3236 0
296 3236 0
-436 3236 0
296 -436 -4216 0
-296 4216 0
436 4216 0
-2396 3376 0
-2396 4356 0
-2396 1416 0
-2396 -1556 0
2396 -3376 -4356 -1416 1556 0
-436 576 -3376 0
436 3376 0
-576 3376 0
436 -576 -4356 0
-436 4356 0
576 4356 0
-2536 3516 0
-2536 4496 0
-2536 1556 0
-2536 -1696 0
2536 -3516 -4496 -1556 1696 0
-576 716 -3516 0
576 3516 0
-716 3516 0
576 -716 -4496 0
-576 4496 0
716 4496 0
-2676 3656 0
-2676 4636 0
-2676 1696 0
-2676 -1836 0
2676 -3656 -4636 -1696 1836 0
-716 856 -3656 0
716 3656 0
-856 3656 0
716 -856 -4636 0
-716 4636 0
856 4636 0
5056 6036 0
5056 7016 0
-5056 -6036 -7016 0
-156 16 -6036 0
156 6036 0
-16 6036 0
156 -16 -7016 0
-156 7016 0
16 7016 0
5196 6176 0
5196 7156 0
-5196 -6176 -7156 0
-296 156 -6176 0
296 6176 0
-156 6176 0
296 -156 -7156 0
-296 7156 0
156 7156 0
5336 6316 0
5336 7296 0
-5336 -6316 -7296 0
-436 296 -6316 0
436 6316 0
-296 6316 0
436 -296 -7296 0
-436 7296 0
296 7296 0
5476 6456 0
5476 7436 0
-5476 -6456 -7436 0
-576 436 -6456 0
576 6456 0
-436 6456 0
576 -436 -7436 0
-576 7436 0
436 7436 0
5616 6596 0
5616 7576 0
-5616 -6596 -7576 0
-716 576 -6596 0
716 6596 0
-576 6596 0
716 -576 -7576 0
-716 7576 0
576 7576 0
5756 6736 0
5756 7716 0
-5756 -6736 -7716 0
-856 716 -6736 0
856 6736 0
-716 6736 0
856 -716 -7716 0
-856 7716 0
716 7716 0
997 0
-1837 0
-1977 2957 0
-1977 3937 0
-1977 997 0
-1977 -1137 0
1977 -2957 -3937 -997 1137 0
-17 157 -2957 0
17 2957 0
-157 2957 0
17 -157 -3937 0
-17 3937 0
157 3937 0
-2117 3097 0
-2117 4077 0
-2117 1137 0
-2117 -1277 0
2117 -3097 -4077 -1137 1277 0
-157 297 -3097 0
157 3097 0
-297 3097 0
157 -297 -4077 0
-157 4077 0
297 4077 0
-2257 3237 0
-2257 4217 0
-2257 1277 0
-2257 -1417 0
2257 -3237 -4217 -1277 1417 0
-297 437 -3237 0
297 3237 0
-437 3237 0
297 -437 -4217 0
-297 4217 0
437 4217 0
-2397 3377 0
-2397 4357 0
-2397 1417 0
-2397 -1557 0
2397 -3377 -4357 -1417 1557 0
-437 577 -3377 0
437 3377 0
-577 3377 0
437 -577 -4357 0
-437 4357 0
577 4357 0
-2537 3517 0
-2537 4497 0
-2537 1557 0
-2537 -1697 0
2537 -3517 -4497 -1557 1697 0
-577 717 -3517 0
577 3517 0
-717 3517 0
577 -717 -4497 0
-577 4497 0
717 4497 0
-2677 3657 0
-2677 4637 0
-2677 1697 0
-2677 -1837 0
2677 -3657 -4637 -1697 1837 0
-717 857 -3657 0
717 3657 0
-857 3657 0
717 -857 -4637 0
-717 4637 0
857 4637 0
5057 6037 0
5057 7017 0
-5057 -6037 -7017 0
-157 17 -6037 0
157 6037 0
-17 6037 0
157 -17 -7017 0
-157 7017 0
17 7017 0
5197 6177 0
5197 7157 0
-5197 -6177 -7157 0
-297 157 -6177 0
297 6177 0
-157 6177 0
297 -157 -7157 0
-297 7157 0
157 7157 0
5337 6317 0
5337 7297 0
-5337 -6317 -7297 0
-437 297 -6317 0
437 6317 0
-297 6317 0
437 -297 -7297 0
-437 7297 0
297 7297 0
5477 6457 0
5477 7437 0
-5477 -6457 -7437 0
-577 437 -6457 0
577 6457 0
-437 6457 0
577 -437 -7437 0
-577 7437 0
437 7437 0
5617 6597 0
5617 7577 0
-5617 -6597 -7577 0
-717 577 -6597 0
717 6597 0
-577 6597 0
717 -577 -7577 0
-717 7577 0
577 7577 0
5757 6737 0
5757 7717 0
-5757 -6737 -7717 0
-857 717 -6737 0
857 6737 0
-717 6737 0
857 -717 -7717 0
-857 7717 0
717 7717 0
998 0
-1838 0
-1978 2958 0
-1978 3938 0
-1978 998 0
-1978 -1138 0
1978 -2958 -3938 -998 1138 0
-18 158 -2958 0
18 2958 0
-158 2958 0
18 -158 -3938 0
-18 3938 0
158 3938 0
-2118 3098 0
-2118 4078 0
-2118 1138 0
-2118 -1278 0
2118 -3098 -4078 -1138 1278 0
-158 298 -3098 0
158 3098 0
-298 3098 0
158 -298 -4078 0
-158 4078 0
298 4078 0
-2258 3238 0
-2258 4218 0
-2258 1278 0
-2258 -1418 0
2258 -3238 -4218 -1278 1418 0
-298 438 -3238 0
298 3238 0
-438 3238 0
298 -438 -4218 0
-298 4218 0
438 4218 0
-2398 3378 0
-2398 4358 0
-2398 1418 0
-2398 -1558 0
2398 -3378 -4358 -1418 1558 0
-438 578 -3378 0
438 3378 0
-578 3378 0
438 -578 -4358 0
-438 4358 0
578 4358 0
-2538 3518 0
-2538 4498 0
-2538 1558 0
-2538 -1698 0
2538 -3518 -4498 -1558 1698 0
-578 718 -3518 0
578 3518 0
-718 3518 0
578 -718 -4498 0
-578 4498 0
718 4498 0
-2678 3658 0
-2678 4638 0
-2678 1698 0
-2678 -1838 0
2678 -3658 -4638 -1698 1838 0
-718 858 -3658 0
718 3658 0
-858 3658 0
718 -858 -4638 0
-718 4638 0
858 4638 0
5058 6038 0
5058 7018 0
-5058 -6038 -7018 0
-158 18 -6038 0
158 6038 0
-18 6038 0
158 -18 -7018 0
-158 7018 0
18 7018 0
5198 6178 0
5198 7158 0
-5198 -6178 -7158 0
-298 158 -6178 0
298 6178 0
-158 6178 0
298 -158 -7158 0
-298 7158 0
158 7158 0
5338 6318 0
5338 7298 0
-5338 -6318 -7298 0
-438 298 -6318 0
438 6318 0
-298 6318 0
438 -298 -7298 0
-438 7298 0
298 7298 0
5478 6458 0
5478 7438 0
-5478 -6458 -7438 0
-578 438 -6458 0
578 6458 0
-438 6458 0
578 -438 -7438 0
-578 7438 0
438 7438 0
5618 6598 0
5618 7578 0
-5618 -6598 -7578 0
-718 578 -6598 0
718 6598 0
-578 6598 0
718 -578 -7578 0
-718 7578 0
578 7578 0
5758 6738 0
5758 7718 0
-5758 -6738 -7718 0
-858 718 -6738 0
858 6738 0
-718 6738 0
858 -718 -7718 0
-858 7718 0
718 7718 0
999 0
-1839 0
-1979 2959 0
-1979 3939 0
-1979 999 0
-1979 -1139 0
1979 -2959 -3939 -999 1139 0
-19 159 -2959 0
19 2959 0
-159 2959 0
19 -159 -3939 0
-19 3939 0
159 3939 0
-2119 3099 0
-2119 4079 0
-2119 1139 0
-2119 -1279 0
2119 -3099 -4079 -1139 1279 0
-159 299 -3099 0
159 3099 0
-299 3099 0
159 -299 -4079 0
-159 4079 0
299 4079 0
-2259 3239 0
-2259 4219 0
-2259 1279 0
-2259 -1419 0
2259 -3239 -4219 -1279 1419 0
-299 439 -3239 0
299 3239 0
-439 3239 0
299 -439 -4219 0
-299 4219 0
439 4219 0
-2399 3379 0
-2399 4359 0
-2399 1419 0
-2399 -1559 0
2399 -3379 -4359 -1419 1559 0
-439 579 -3379 0
439 3379 0
-579 3379 0
439 -579 -4359 0
-439 4359 0
579 4359 0
-2539 3519 0
-2539 4499 0
-2539 1559 0
-2539 -1699 0
2539 -3519 -4499 -1559 1699 0
-579 719 -3519 0
579 3519 0
-719 3519 0
579 -719 -4499 0
-579 4499 0
719 4499 0
-2679 3659 0
-2679 4639 0
-2679 1699 0
-2679 -1839 0
2679 -3659 -4639 -1699 1839 0
-719 859 -3659 0
719 3659 0
-859 3659 0
719 -859 -4639 0
-719 4639 0
859 4639 0
5059 6039 0
5059 7019 0
-5059 -6039 -7019 0
-159 19 -6039 0
159 6039 0
-19 6039 0
159 -19 -7019 0
-159 7019 0
19 7019 0
5199 6179 0
5199 7159 0
-5199 -6179 -7159 0
-299 159 -6179 0
299 6179 0
-159 6179 0
299 -159 -7159 0
-299 7159 0
159 7159 0
5339 6319 0
5339 7299 0
-5339 -6319 -7299 0
-439 299 -6319 0
439 6319 0
-299 6319 0
439 -299 -7299 0
-439 7299 0
299 7299 0
5479 6459 0
5479 7439 0
-5479 -6459 -7439 0
-579 439 -6459 0
579 6459 0
-439 6459 0
579 -439 -7439 0
-579 7439 0
439 7439 0
5619 6599 0
5619 7579 0
-5619 -6599 -7579 0
-719 579 -6599 0
719 6599 0
-579 6599 0
719 -579 -7579 0
-719 7579 0
579 7579 0
5759 6739 0
5759 7719 0
-5759 -6739 -7719 0
-859 719 -6739 0
859 6739 0
-719 6739 0
859 -719 -7719 0
-859 7719 0
719 7719 0
1000 0
-1840 0
-1980 2960 0
-1980 3940 0
-1980 1000 0
-1980 -1140 0
1980 -2960 -3940 -1000 1140 0
-20 160 -2960 0
20 2960 0
-160 2960 0
20 -160 -3940 0
-20 3940 0
160 3940 0
-2120 3100 0
-2120 4080 0
-2120 1140 0
-2120 -1280 0
2120 -3100 -4080 -1140 1280 0
-160 300 -3100 0
160 3100 0
-300 3100 0
160 -300 -4080 0
-160 4080 0
300 4080 0
-2260 3240 0
-2260 4220 0
-2260 1280 0
-2260 -1420 0
2260 -3240 -4220 -1280 1420 0
-300 440 -3240 0
300 3240 0
-440 3240 0
300 -440 -4220 0
-300 4220 0
440 4220 0
-2400 3380 0
-2400 4360 0
-2400 1420 0
-2400 -1560 0
2400 -3380 -4360 -1420 1560 0
-440 580 -3380 0
440 3380 0
-580 3380 0
440 -580 -4360 0
-440 4360 0
580 4360 0
-2540 3520 0
-2540 4500 0
-2540 1560 0
-2540 -1700 0
2540 -3520 -4500 -1560 1700 0
-580 720 -3520 0
580 3520 0
-720 3520 0
580 -720 -4500 0
-580 4500 0
720 4500 0
-2680 3660 0
-2680 4640 0
-2680 1700 0
-2680 -1840 0
2680 -3660 -4640 -1700 1840 0
-720 860 -3660 0
720 3660 0
-860 3660 0
720 -860 -4640 0
-720 4640 0
860 4640 0
5060 6040 0
5060 7020 0
-5060 -6040 -7020 0
-160 20 -6040 0
160 6040 0
-20 6040 0
160 -20 -7020 0
-160 7020 0
20 7020 0
5200 6180 0
5200 7160 0
-5200 -6180 -7160 0
-300 160 -6180 0
300 6180 0
-160 6180 0
300 -160 -7160 0
-300 7160 0
160 7160 0
5340 6320 0
5340 7300 0
-5340 -6320 -7300 0
-440 300 -6320 0
440 6320 0
-300 6320 0
440 -300 -7300 0
-440 7300 0
300 7300 0
5480 6460 0
5480 7440 0
-5480 -6460 -7440 0
-580 440 -6460 0
580 6460 0
-440 6460 0
580 -440 -7440 0
-580 7440 0
440 7440 0
5620 6600 0
5620 7580 0
-5620 -6600 -7580 0
-720 580 -6600 0
720 6600 0
-580 6600 0
720 -580 -7580 0
-720 7580 0
580 7580 0
5760 6740 0
5760 7720 0
-5760 -6740 -7720 0
-860 720 -6740 0
860 6740 0
-720 6740 0
860 -720 -7720 0
-860 7720 0
720 7720 0
1001 0
-1841 0
-1981 2961 0
-1981 3941 0
-1981 1001 0
-1981 -1141 0
1981 -2961 -3941 -1001 1141 0
-21 161 -2961 0
21 2961 0
-161 2961 0
21 -161 -3941 0
-21 3941 0
161 3941 0
-2121 3101 0
-2121 4081 0
-2121 1141 0
-2121 -1281 0
2121 -3101 -4081 -1141 1281 0
-161 301 -3101 0
161 3101 0
-301 3101 0
161 -301 -4081 0
-161 4081 0
301 4081 0
-2261 3241 0
-2261 4221 0
-2261 1281 0
-2261 -1421 0
2261 -3241 -4221 -1281 1421 0
-301 441 -3241 0
301 3241 0
-441 3241 0
301 -441 -4221 0
-301 4221 0
441 4221 0
-2401 3381 0
-2401 4361 0
-2401 1421 0
-2401 -1561 0
2401 -3381 -4361 -1421 1561 0
-441 581 -3381 0
441 3381 0
-581 3381 0
441 -581 -4361 0
-441 4361 0
581 4361 0
-2541 3521 0
-2541 4501 0
-2541 1561 0
-2541 -1701 0
2541 -3521 -4501 -1561 1701 0
-581 721 -3521 0
581 3521 0
-721 3521 0
581 -721 -4501 0
-581 4501 0
721 4501 0
-2681 3661 0
-2681 4641 0
-2681 1701 0
-2681 -1841 0
2681 -3661 -4641 -1701 1841 0
-721 861 -3661 0
721 3661 0
-861 3661 0
721 -861 -4641 0
-721 4641 0
861 4641 0
5061 6041 0
5061 7021 0
-5061 -6041 -7021 0
-161 21 -6041 0
161 6041 0
-21 6041 0
161 -21 -7021 0
-161 7021 0
21 7021 0
5201 6181 0
5201 7161 0
-5201 -6181 -7161 0
-301 161 -6181 0
301 6181 0
-161 6181 0
301 -161 -7161 0
-301 7161 0
161 7161 0
5341 6321 0
5341 7301 0
-5341 -6321 -7301 0
-441 301 -6321 0
441 6321 0
-301 6321 0
441 -301 -7301 0
-441 7301 0
301 7301 0
5481 6461 0
5481 7441 0
-5481 -6461 -7441 0
-581 441 -6461 0
581 6461 0
-441 6461 0
581 -441 -7441 0
-581 7441 0
441 7441 0
5621 6601 0
5621 7581 0
-5621 -6601 -7581 0
-721 581 -6601 0
721 6601 0
-581 6601 0
721 -581 -7581 0
-721 7581 0
581 7581 0
5761 6741 0
5761 7721 0
-5761 -6741 -7721 0
-861 721 -6741 0
861 6741 0
-721 6741 0
861 -721 -7721 0
-861 7721 0
721 7721 0
1002 0
-1842 0
-1982 2962 0
-1982 3942 0
-1982 1002 0
-1982 -1142 0
1982 -2962 -3942 -1002 1142 0
-22 162 -2962 0
22 2962 0
-162 2962 0
22 -162 -3942 0
-22 3942 0
162 3942 0
-2122 3102 0
-2122 4082 0
-2122 1142 0
-2122 -1282 0
2122 -3102 -4082 -1142 1282 0
-162 302 -3102 0
162 3102 0
-302 3102 0
162 -302 -4082 0
-162 4082 0
302 4082 0
-2262 3242 0
-2262 4222 0
-2262 1282 0
-2262 -1422 0
2262 -3242 -4222 -1282 1422 0
-302 442 -3242 0
302 3242 0
-442 3242 0
302 -442 -4222 0
-302 4222 0
442 4222 0
-2402 3382 0
-2402 4362 0
-2402 1422 0
-2402 -1562 0
2402 -3382 -4362 -1422 1562 0
-442 582 -3382 0
442 3382 0
-582 3382 0
442 -582 -4362 0
-442 4362 0
582 4362 0
-2542 3522 0
-2542 4502 0
-2542 1562 0
-2542 -1702 0
2542 -3522 -4502 -1562 1702 0
-582 722 -3522 0
582 3522 0
-722 3522 0
582 -722 -4502 0
-582 4502 0
722 4502 0
-2682 3662 0
-2682 4642 0
-2682 1702 0
-2682 -1842 0
2682 -3662 -4642 -1702 1842 0
-722 862 -3662 0
722 3662 0
-862 3662 0
722 -862 -4642 0
-722 4642 0
862 4642 0
5062 6042 0
5062 7022 0
-5062 -6042 -7022 0
-162 22 -6042 0
162 6042 0
-22 6042 0
162 -22 -7022 0
-162 7022 0
22 7022 0
5202 6182 0
5202 7162 0
-5202 -6182 -7162 0
-302 162 -6182 0
302 6182 0
-162 6182 0
302 -162 -7162 0
-302 7162 0
162 7162 0
5342 6322 0
5342 7302 0
-5342 -6322 -7302 0
-442 302 -6322 0
442 6322 0
-302 6322 0
442 -302 -7302 0
-442 7302 0
302 7302 0
5482 6462 0
5482 7442 0
-5482 -6462 -7442 0
-582 442 -6462 0
582 6462 0
-442 6462 0
582 -442 -7442 0
-582 7442 0
442 7442 0
5622 6602 0
5622 7582 0
-5622 -6602 -7582 0
-722 582 -6602 0
722 6602 0
-582 6602 0
722 -582 -7582 0
-722 7582 0
582 7582 0
5762 6742 0
5762 7722 0
-5762 -6742 -7722 0
-862 722 -6742 0
862 6742 0
-722 6742 0
862 -722 -7722 0
-862 7722 0
722 7722 0
1003 0
-1843 0
-1983 2963 0
-1983 3943 0
-1983 1003 0
-1983 -1143 0
1983 -2963 -3943 -1003 1143 0
-23 163 -2963 0
23 2963 0
-163 2963 0
23 -163 -3943 0
-23 3943 0
163 3943 0
-2123 3103 0
-2123 4083 0
-2123 1143 0
-2123 -1283 0
2123 -3103 -4083 -1143 1283 0
-163 303 -3103 0
163 3103 0
-303 3103 0
163 -303 -4083 0
-163 4083 0
303 4083 0
-2263 3243 0
-2263 4223 0
-2263 1283 0
-2263 -1423 0
2263 -3243 -4223 -1283 1423 0
-303 443 -3243 0
303 3243 0
-443 3243 0
303 -443 -4223 0
-303 4223 0
443 4223 0
-2403 3383 0
-2403 4363 0
-2403 1423 0
-2403 -1563 0
2403 -3383 -4363 -1423 1563 0
-443 583 -3383 0
443 3383 0
-583 3383 0
443 -583 -4363 0
-443 4363 0
583 4363 0
-2543 3523 0
-2543 4503 0
-2543 1563 0
-2543 -1703 0
2543 -3523 -4503 -1563 1703 0
-583 723 -3523 0
583 3523 0
-723 3523 0
583 -723 -4503 0
-583 4503 0
723 4503 0
-2683 3663 0
-2683 4643 0
-2683 1703 0
-2683 -1843 0
2683 -3663 -4643 -1703 1843 0
-723 863 -3663 0
723 3663 0
-863 3663 0
723 -863 -4643 0
-723 4643 0
863 4643 0
5063 6043 0
5063 7023 0
-5063 -6043 -7023 0
-163 23 -6043 0
163 6043 0
-23 6043 0
163 -23 -7023 0
-163 7023 0
23 7023 0
5203 6183 0
5203 7163 0
-5203 -6183 -7163 0
-303 163 -6183 0
303 6183 0
-163 6183 0
303 -163 -7163 0
-303 7163 0
163 7163 0
5343 6323 0
5343 7303 0
-5343 -6323 -7303 0
-443 303 -6323 0
443 6323 0
-303 6323 0
443 -303 -7303 0
-443 7303 0
303 7303 0
5483 6463 0
5483 7443 0
-5483 -6463 -7443 0
-583 443 -6463 0
583 6463 0
-443 6463 0
583 -443 -7443 0
-583 7443 0
443 7443 0
5623 6603 0
5623 7583 0
-5623 -6603 -7583 0
-723 583 -6603 0
723 6603 0
-583 6603 0
723 -583 -7583 0
-723 7583 0
583 7583 0
5763 6743 0
5763 7723 0
-5763 -6743 -7723 0
-863 723 -6743 0
863 6743 0
-723 6743 0
863 -723 -7723 0
-863 7723 0
723 7723 0
1004 0
-1844 0
-1984 2964 0
-1984 3944 0
-1984 1004 0
-1984 -1144 0
1984 -2964 -3944 -1004 1144 0
-24 164 -2964 0
24 2964 0
-164 2964 0
24 -164 -3944 0
-24 3944 0
164 3944 0
-2124 3104 0
-2124 4084 0
-2124 1144 0
-2124 -1284 0
2124 -3104 -4084 -1144 1284 0
-164 304 -3104 0
164 3104 0
-304 3104 0
164 -304 -4084 0
-164 4084 0
304 4084 0
-2264 3244 0
-2264 4224 0
-2264 1284 0
-2264 -1424 0
2264 -3244 -4224 -1284 1424 0
-304 444 -3244 0
304 3244 0
-444 3244 0
304 -444 -4224 0
-304 4224 0
444 4224 0
-2404 3384 0
-2404 4364 0
-2404 1424 0
-2404 -1564 0
2404 -3384 -4364 -1424 1564 0
-444 584 -3384 0
444 3384 0
-584 3384 0
444 -584 -4364 0
-444 4364 0
584 4364 0
-2544 3524 0
-2544 4504 0
-2544 1564 0
-2544 -1704 0
2544 -3524 -4504 -1564 1704 0
-584 724 -3524 0
584 3524 0
-724 3524 0
584 -724 -4504 0
-584 4504 0
724 4504 0
-2684 3664 0
-2684 4644 0
-2684 1704 0
-2684 -1844 0
2684 -3664 -4644 -1704 1844 0
-724 864 -3664 0
724 3664 0
-864 3664 0
724 -864 -4644 0
-724 4644 0
864 4644 0
5064 6044 0
5064 7024 0
-5064 -6044 -7024 0
-164 24 -6044 0
164 6044 0
-24 6044 0
164 -24 -7024 0
-164 7024 0
24 7024 0
5204 6184 0
5204 7164 0
-5204 -6184 -7164 0
-304 164 -6184 0
304 6184 0
-164 6184 0
304 -164 -7164 0
-304 7164 0
164 7164 0
5344 6324 0
5344 7304 0
-5344 -6324 -7304 0
-444 304 -6324 0
444 6324 0
-304 6324 0
444 -304 -7304 0
-444 7304 0
304 7304 0
5484 6464 0
5484 7444 0
-5484 -6464 -7444 0
-584 444 -6464 0
584 6464 0
-444 6464 0
584 -444 -7444 0
-584 7444 0
444 7444 0
5624 6604 0
5624 7584 0
-5624 -6604 -7584 0
-724 584 -6604 0
724 6604 0
-584 6604 0
724 -584 -7584 0
-724 7584 0
584 7584 0
5764 6744 0
5764 7724 0
-5764 -6744 -7724 0
-864 724 -6744 0
864 6744 0
-724 6744 0
864 -724 -7724 0
-864 7724 0
724 7724 0
1005 0
-1845 0
-1985 2965 0
-1985 3945 0
-1985 1005 0
-1985 -1145 0
1985 -2965 -3945 -1005 1145 0
-25 165 -2965 0
25 2965 0
-165 2965 0
25 -165 -3945 0
-25 3945 0
165 3945 0
-2125 3105 0
-2125 4085 0
-2125 1145 0
-2125 -1285 0
2125 -3105 -4085 -1145 1285 0
-165 305 -3105 0
165 3105 0
-305 3105 0
165 -305 -4085 0
-165 4085 0
305 4085 0
-2265 3245 0
-2265 4225 0
-2265 1285 0
-2265 -1425 0
2265 -3245 -4225 -1285 1425 0
-305 445 -3245 0
305 3245 0
-445 3245 0
305 -445 -4225 0
-305 4225 0
445 4225 0
-2405 3385 0
-2405 4365 0
-2405 1425 0
-2405 -1565 0
2405 -3385 -4365 -1425 1565 0
-445 585 -3385 0
445 3385 0
-585 3385 0
445 -585 -4365 0
-445 4365 0
585 4365 0
-2545 3525 0
-2545 4505 0
-2545 1565 0
-2545 -1705 0
2545 -3525 -4505 -1565 1705 0
-585 725 -3525 0
585 3525 0
-725 3525 0
585 -725 -4505 0
-585 4505 0
725 4505 0
-2685 3665 0
-2685 4645 0
-2685 1705 0
-2685 -1845 0
2685 -3665 -4645 -1705 1845 0
-725 865 -3665 0
725 3665 0
-865 3665 0
725 -865 -4645 0
-725 4645 0
865 4645 0
5065 6045 0
5065 7025 0
-5065 -6045 -7025 0
-165 25 -6045 0
165 6045 0
-25 6045 0
165 -25 -7025 0
-165 7025 0
25 7025 0
5205 6185 0
5205 7165 0
-5205 -6185 -7165 0
-305 165 -6185 0
305 6185 0
-165 6185 0
305 -165 -7165 0
-305 7165 0
165 7165 0
5345 6325 0
5345 7305 0
-5345 -6325 -7305 0
-445 305 -6325 0
445 6325 0
-305 6325 0
445 -305 -7305 0
-445 7305 0
305 7305 0
5485 6465 0
5485 7445 0
-5485 -6465 -7445 0
-585 445 -6465 0
585 6465 0
-445 6465 0
585 -445 -7445 0
-585 7445 0
445 7445 0
5625 6605 0
5625 7585 0
-5625 -6605 -7585 0
-725 585 -6605 0
725 6605 0
-585 6605 0
725 -585 -7585 0
-725 7585 0
585 7585 0
5765 6745 0
5765 7725 0
-5765 -6745 -7725 0
-865 725 -6745 0
865 6745 0
-725 6745 0
865 -725 -7725 0
-865 7725 0
725 7725 0
1006 0
-1846 0
-1986 2966 0
-1986 3946 0
-1986 1006 0
-1986 -1146 0
1986 -2966 -3946 -1006 1146 0
-26 166 -2966 0
26 2966 0
-166 2966 0
26 -166 -3946 0
-26 3946 0
166 3946 0
-2126 3106 0
-2126 4086 0
-2126 1146 0
-2126 -1286 0
2126 -3106 -4086 -1146 1286 0
-166 306 -3106 0
166 3106 0
-306 3106 0
166 -306 -4086 0
-166 4086 0
306 4086 0
-2266 3246 0
-2266 4226 0
-2266 1286 0
-2266 -1426 0
2266 -3246 -4226 -1286 1426 0
-306 446 -3246 0
306 3246 0
-446 3246 0
306 -446 -4226 0
-306 4226 0
446 4226 0
-2406 3386 0
-2406 4366 0
-2406 1426 0
-2406 -1566 0
2406 -3386 -4366 -1426 1566 0
-446 586 -3386 0
446 3386 0
-586 3386 0
446 -586 -4366 0
-446 4366 0
586 4366 0
-2546 3526 0
-2546 4506 0
-2546 1566 0
-2546 -1706 0
2546 -3526 -4506 -1566 1706 0
-586 726 -3526 0
586 3526 0
-726 3526 0
586 -726 -4506 0
-586 4506 0
726 4506 0
-2686 3666 0
-2686 4646 0
-2686 1706 0
-2686 -1846 0
2686 -3666 -4646 -1706 1846 0
-726 866 -3666 0
726 3666 0
-866 3666 0
726 -866 -4646 0
-726 4646 0
866 4646 0
5066 6046 0
5066 7026 0
-5066 -6046 -7026 0
-166 26 -6046 0
166 6046 0
-26 6046 0
166 -26 -7026 0
-166 7026 0
26 7026 0
5206 6186 0
5206 7166 0
-5206 -6186 -7166 0
-306 166 -6186 0
306 6186 0
-166 6186 0
306 -166 -7166 0
-306 7166 0
166 7166 0
5346 6326 0
5346 7306 0
-5346 -6326 -7306 0
-446 306 -6326 0
446 6326 0
-306 6326 0
446 -306 -7306 0
-446 7306 0
306 7306 0
5486 6466 0
5486 7446 0
-5486 -6466 -7446 0
-586 446 -6466 0
586 6466 0
-446 6466 0
586 -446 -7446 0
-586 7446 0
446 7446 0
5626 6606 0
5626 7586 0
-5626 -6606 -7586 0
-726 586 -6606 0
726 6606 0
-586 6606 0
726 -586 -7586 0
-726 7586 0
586 7586 0
5766 6746 0
5766 7726 0
-5766 -6746 -7726 0
-866 726 -6746 0
866 6746 0
-726 6746 0
866 -726 -7726 0
-866 7726 0
726 7726 0
1007 0
-1847 0
-1987 2967 0
-1987 3947 0
-1987 1007 0
-1987 -1147 0
1987 -2967 -3947 -1007 1147 0
-27 167 -2967 0
27 2967 0
-167 2967 0
27 -167 -3947 0
-27 3947 0
167 3947 0
-2127 3107 0
-2127 4087 0
-2127 1147 0
-2127 -1287 0
2127 -3107 -4087 -1147 1287 0
-167 307 -3107 0
167 3107 0
-307 3107 0
167 -307 -4087 0
-167 4087 0
307 4087 0
-2267 3247 0
-2267 4227 0
-2267 1287 0
-2267 -1427 0
2267 -3247 -4227 -1287 1427 0
-307 447 -3247 0
307 3247 0
-447 3247 0
307 -447 -4227 0
-307 4227 0
447 4227 0
-2407 3387 0
-2407 4367 0
-2407 1427 0
-2407 -1567 0
2407 -3387 -4367 -1427 1567 0
-447 587 -3387 0
447 3387 0
-587 3387 0
447 -587 -4367 0
-447 4367 0
587 4367 0
-2547 3527 0
-2547 4507 0
-2547 1567 0
-2547 -1707 0
2547 -3527 -4507 -1567 1707 0
-587 727 -3527 0
587 3527 0
-727 3527 0
587 -727 -4507 0
-587 4507 0
727 4507 0
-2687 3667 0
-2687 4647 0
-2687 1707 0
-2687 -1847 0
2687 -3667 -4647 -1707 1847 0
-727 867 -3667 0
727 3667 0
-867 3667 0
727 -867 -4647 0
-727 4647 0
867 4647 0
5067 6047 0
5067 7027 0
-5067 -6047 -7027 0
-167 27 -6047 0
167 6047 0
-27 6047 0
167 -27 -7027 0
-167 7027 0
27 7027 0
5207 6187 0
5207 7167 0
-5207 -6187 -7167 0
-307 167 -6187 0
307 6187 0
-167 6187 0
307 -167 -7167 0
-307 7167 0
167 7167 0
5347 6327 0
5347 7307 0
-5347 -6327 -7307 0
-447 307 -6327 0
447 6327 0
-307 6327 0
447 -307 -7307 0
-447 7307 0
307 7307 0
5487 6467 0
5487 7447 0
-5487 -6467 -7447 0
-587 447 -6467 0
587 6467 0
-447 6467 0
587 -447 -7447 0
-587 7447 0
447 7447 0
5627 6607 0
5627 7587 0
-5627 -6607 -7587 0
-727 587 -6607 0
727 6607 0
-587 6607 0
727 -587 -7587 0
-727 7587 0
587 7587 0
5767 6747 0
5767 7727 0
-5767 -6747 -7727 0
-867 727 -6747 0
867 6747 0
-727 6747 0
867 -727 -7727 0
-867 7727 0
727 7727 0
1008 0
-1848 0
-1988 2968 0
-1988 3948 0
-1988 1008 0
-1988 -1148 0
1988 -2968 -3948 -1008 1148 0
-28 168 -2968 0
28 2968 0
-168 2968 0
28 -168 -3948 0
-28 3948 0
168 3948 0
-2128 3108 0
-2128 4088 0
-2128 1148 0
-2128 -1288 0
2128 -3108 -4088 -1148 1288 0
-168 308 -3108 0
168 3108 0
-308 3108 0
168 -308 -4088 0
-168 4088 0
308 4088 0
-2268 3248 0
-2268 4228 0
-2268 1288 0
-2268 -1428 0
2268 -3248 -4228 -1288 1428 0
-308 448 -3248 0
308 3248 0
-448 3248 0
308 -448 -4228 0
-308 4228 0
448 4228 0
-2408 3388 0
-2408 4368 0
-2408 1428 0
-2408 -1568 0
2408 -3388 -4368 -1428 1568 0
-448 588 -3388 0
448 3388 0
-588 3388 0
448 -588 -4368 0
-448 4368 0
588 4368 0
-2548 3528 0
-2548 4508 0
-2548 1568 0
-2548 -1708 0
2548 -3528 -4508 -1568 1708 0
-588 728 -3528 0
588 3528 0
-728 3528 0
588 -728 -4508 0
-588 4508 0
728 4508 0
-2688 3668 0
-2688 4648 0
-2688 1708 0
-2688 -1848 0
2688 -3668 -4648 -1708 1848 0
-728 868 -3668 0
728 3668 0
-868 3668 0
728 -868 -4648 0
-728 4648 0
868 4648 0
5068 6048 0
5068 7028 0
-5068 -6048 -7028 0
-168 28 -6048 0
168 6048 0
-28 6048 0
168 -28 -7028 0
-168 7028 0
28 7028 0
5208 6188 0
5208 7168 0
-5208 -6188 -7168 0
-308 168 -6188 0
308 6188 0
-168 6188 0
308 -168 -7168 0
-308 7168 0
168 7168 0
5348 6328 0
5348 7308 0
-5348 -6328 -7308 0
-448 308 -6328 0
448 6328 0
-308 6328 0
448 -308 -7308 0
-448 7308 0
308 7308 0
5488 6468 0
5488 7448 0
-5488 -6468 -7448 0
-588 448 -6468 0
588 6468 0
-448 6468 0
588 -448 -7448 0
-588 7448 0
448 7448 0
5628 6608 0
5628 7588 0
-5628 -6608 -7588 0
-728 588 -6608 0
728 6608 0
-588 6608 0
728 -588 -7588 0
-728 7588 0
588 7588 0
5768 6748 0
5768 7728 0
-5768 -6748 -7728 0
-868 728 -6748 0
868 6748 0
-728 6748 0
868 -728 -7728 0
-868 7728 0
728 7728 0
1009 0
-1849 0
-1989 2969 0
-1989 3949 0
-1989 1009 0
-1989 -1149 0
1989 -2969 -3949 -1009 1149 0
-29 169 -2969 0
29 2969 0
-169 2969 0
29 -169 -3949 0
-29 3949 0
169 3949 0
-2129 3109 0
-2129 4089 0
-2129 1149 0
-2129 -1289 0
2129 -3109 -4089 -1149 1289 0
-169 309 -3109 0
169 3109 0
-309 3109 0
169 -309 -4089 0
-169 4089 0
309 4089 0
-2269 3249 0
-2269 4229 0
-2269 1289 0
-2269 -1429 0
2269 -3249 -4229 -1289 1429 0
-309 449 -3249 0
309 3249 0
-449 3249 0
309 -449 -4229 0
-309 4229 0
449 4229 0
-2409 3389 0
-2409 4369 0
-2409 1429 0
-2409 -1569 0
2409 -3389 -4369 -1429 1569 0
-449 589 -3389 0
449 3389 0
-589 3389 0
449 -589 -4369 0
-449 4369 0
589 4369 0
-2549 3529 0
-2549 4509 0
-2549 1569 0
-2549 -1709 0
2549 -3529 -4509 -1569 1709 0
-589 729 -3529 0
589 3529 0
-729 3529 0
589 -729 -4509 0
-589 4509 0
729 4509 0
-2689 3669 0
-2689 4649 0
-2689 1709 0
-2689 -1849 0
2689 -3669 -4649 -1709 1849 0
-729 869 -3669 0
729 3669 0
-869 3669 0
729 -869 -4649 0
-729 4649 0
869 4649 0
5069 6049 0
5069 7029 0
-5069 -6049 -7029 0
-169 29 -6049 0
169 6049 0
-29 6049 0
169 -29 -7029 0
-169 7029 0
29 7029 0
5209 6189 0
5209 7169 0
-5209 -6189 -7169 0
-309 169 -6189 0
309 6189 0
-169 6189 0
309 -169 -7169 0
-309 7169 0
169 7169 0
5349 6329 0
5349 7309 0
-5349 -6329 -7309 0
-449 309 -6329 0
449 6329 0
-309 6329 0
449 -309 -7309 0
-449 7309 0
309 7309 0
5489 6469 0
5489 7449 0
-5489 -6469 -7449 0
-589 449 -6469 0
589 6469 0
-449 6469 0
589 -449 -7449 0
-589 7449 0
449 7449 0
5629 6609 0
5629 7589 0
-5629 -6609 -7589 0
-729 589 -6609 0
729 6609 0
-589 6609 0
729 -589 -7589 0
-729 7589 0
589 7589 0
5769 6749 0
5769 7729 0
-5769 -6749 -7729 0
-869 729 -6749 0
869 6749 0
-729 6749 0
869 -729 -7729 0
-869 7729 0
729 7729 0
1010 0
-1850 0
-1990 2970 0
-1990 3950 0
-1990 1010 0
-1990 -1150 0
1990 -2970 -3950 -1010 1150 0
-30 170 -2970 0
30 2970 0
-170 2970 0
30 -170 -3950 0
-30 3950 0
170 3950 0
-2130 3110 0
-2130 4090 0
-2130 1150 0
-2130 -1290 0
2130 -3110 -4090 -1150 1290 0
-170 310 -3110 0
170 3110 0
-310 3110 0
170 -310 -4090 0
-170 4090 0
310 4090 0
-2270 3250 0
-2270 4230 0
-2270 1290 0
-2270 -1430 0
2270 -3250 -4230 -1290 1430 0
-310 450 -3250 0
310 3250 0
-450 3250 0
310 -450 -4230 0
-310 4230 0
450 4230 0
-2410 3390 0
-2410 4370 0
-2410 1430 0
-2410 -1570 0
2410 -3390 -4370 -1430 1570 0
-450 590 -3390 0
450 3390 0
-590 3390 0
450 -590 -4370 0
-450 4370 0
590 4370 0
-2550 3530 0
-2550 4510 0
-2550 1570 0
-2550 -1710 0
2550 -3530 -4510 -1570 1710 0
-590 730 -3530 0
590 3530 0
-730 3530 0
590 -730 -4510 0
-590 4510 0
730 4510 0
-2690 3670 0
-2690 4650 0
-2690 1710 0
-2690 -1850 0
2690 -3670 -4650 -1710 1850 0
-730 870 -3670 0
730 3670 0
-870 3670 0
730 -870 -4650 0
-730 4650 0
870 4650 0
5070 6050 0
5070 7030 0
-5070 -6050 -7030 0
-170 30 -6050 0
170 6050 0
-30 6050 0
170 -30 -7030 0
-170 7030 0
30 7030 0
5210 6190 0
5210 7170 0
-5210 -6190 -7170 0
-310 170 -6190 0
310 6190 0
-170 6190 0
310 -170 -7170 0
-310 7170 0
170 7170 0
5350 6330 0
5350 7310 0
-5350 -6330 -7310 0
-450 310 -6330 0
450 6330 0
-310 6330 0
450 -310 -7310 0
-450 7310 0
310 7310 0
5490 6470 0
5490 7450 0
-5490 -6470 -7450 0
-590 450 -6470 0
590 6470 0
-450 6470 0
590 -450 -7450 0
-590 7450 0
450 7450 0
5630 6610 0
5630 7590 0
-5630 -6610 -7590 0
-730 590 -6610 0
730 6610 0
-590 6610 0
730 -590 -7590 0
-730 7590 0
590 7590 0
5770 6750 0
5770 7730 0
-5770 -6750 -7730 0
-870 730 -6750 0
870 6750 0
-730 6750 0
870 -730 -7730 0
-870 7730 0
730 7730 0
1011 0
-1851 0
-1991 2971 0
-1991 3951 0
-1991 1011 0
-1991 -1151 0
1991 -2971 -3951 -1011 1151 0
-31 171 -2971 0
31 2971 0
-171 2971 0
31 -171 -3951 0
-31 3951 0
171 3951 0
-2131 3111 0
-2131 4091 0
-2131 1151 0
-2131 -1291 0
2131 -3111 -4091 -1151 1291 0
-171 311 -3111 0
171 3111 0
-311 3111 0
171 -311 -4091 0
-171 4091 0
311 4091 0
-2271 3251 0
-2271 4231 0
-2271 1291 0
-2271 -1431 0
2271 -3251 -4231 -1291 1431 0
-311 451 -3251 0
311 3251 0
-451 3251 0
311 -451 -4231 0
-311 4231 0
451 4231 0
-2411 3391 0
-2411 4371 0
-2411 1431 0
-2411 -1571 0
2411 -3391 -4371 -1431 1571 0
-451 591 -3391 0
451 3391 0
-591 3391 0
451 -591 -4371 0
-451 4371 0
591 4371 0
-2551 3531 0
-2551 4511 0
-2551 1571 0
-2551 -1711 0
2551 -3531 -4511 -1571 1711 0
-591 731 -3531 0
591 3531 0
-731 3531 0
591 -731 -4511 0
-591 4511 0
731 4511 0
-2691 3671 0
-2691 4651 0
-2691 1711 0
-2691 -1851 0
2691 -3671 -4651 -1711 1851 0
-731 871 -3671 0
731 3671 0
-871 3671 0
731 -871 -4651 0
-731 4651 0
871 4651 0
5071 6051 0
5071 7031 0
-5071 -6051 -7031 0
-171 31 -6051 0
171 6051 0
-31 6051 0
171 -31 -7031 0
-171 7031 0
31 7031 0
5211 6191 0
5211 7171 0
-5211 -6191 -7171 0
-311 171 -6191 0
311 6191 0
-171 6191 0
311 -171 -7171 0
-311 7171 0
171 7171 0
5351 6331 0
5351 7311 0
-5351 -6331 -7311 0
-451 311 -6331 0
451 6331 0
-311 6331 0
451 -311 -7311 0
-451 7311 0
311 7311 0
5491 6471 0
5491 7451 0
-5491 -6471 -7451 0
-591 451 -6471 0
591 6471 0
-451 6471 0
591 -451 -7451 0
-591 7451 0
451 7451 0
5631 6611 0
5631 7591 0
-5631 -6611 -7591 0
-731 591 -6611 0
731 6611 0
-591 6611 0
731 -591 -7591 0
-731 7591 0
591 7591 0
5771 6751 0
5771 7731 0
-5771 -6751 -7731 0
-871 731 -6751 0
871 6751 0
-731 6751 0
871 -731 -7731 0
-871 7731 0
731 7731 0
1012 0
-1852 0
-1992 2972 0
-1992 3952 0
-1992 1012 0
-1992 -1152 0
1992 -2972 -3952 -1012 1152 0
-32 172 -2972 0
32 2972 0
-172 2972 0
32 -172 -3952 0
-32 3952 0
172 3952 0
-2132 3112 0
-2132 4092 0
-2132 1152 0
-2132 -1292 0
2132 -3112 -4092 -1152 1292 0
-172 312 -3112 0
172 3112 0
-312 3112 0
172 -312 -4092 0
-172 4092 0
312 4092 0
-2272 3252 0
-2272 4232 0
-2272 1292 0
-2272 -1432 0
2272 -3252 -4232 -1292 1432 0
-312 452 -3252 0
312 3252 0
-452 3252 0
312 -452 -4232 0
-312 4232 0
452 4232 0
-2412 3392 0
-2412 4372 0
-2412 1432 0
-2412 -1572 0
2412 -3392 -4372 -1432 1572 0
-452 592 -3392 0
452 3392 0
-592 3392 0
452 -592 -4372 0
-452 4372 0
592 4372 0
-2552 3532 0
-2552 4512 0
-2552 1572 0
-2552 -1712 0
2552 -3532 -4512 -1572 1712 0
-592 732 -3532 0
592 3532 0
-732 3532 0
592 -732 -4512 0
-592 4512 0
732 4512 0
-2692 3672 0
-2692 4652 0
-2692 1712 0
-2692 -1852 0
2692 -3672 -4652 -1712 1852 0
-732 872 -3672 0
732 3672 0
-872 3672 0
732 -872 -4652 0
-732 4652 0
872 4652 0
5072 6052 0
5072 7032 0
-5072 -6052 -7032 0
-172 32 -6052 0
172 6052 0
-32 6052 0
172 -32 -7032 0
-172 7032 0
32 7032 0
5212 6192 0
5212 7172 0
-5212 -6192 -7172 0
-312 172 -6192 0
312 6192 0
-172 6192 0
312 -172 -7172 0
-312 7172 0
172 7172 0
5352 6332 0
5352 7312 0
-5352 -6332 -7312 0
-452 312 -6332 0
452 6332 0
-312 6332 0
452 -312 -7312 0
-452 7312 0
312 7312 0
5492 6472 0
5492 7452 0
-5492 -6472 -7452 0
-592 452 -6472 0
592 6472 0
-452 6472 0
592 -452 -7452 0
-592 7452 0
452 7452 0
5632 6612 0
5632 7592 0
-5632 -6612 -7592 0
-732 592 -6612 0
732 6612 0
-592 6612 0
732 -592 -7592 0
-732 7592 0
592 7592 0
5772 6752 0
5772 7732 0
-5772 -6752 -7732 0
-872 732 -6752 0
872 6752 0
-732 6752 0
872 -732 -7732 0
-872 7732 0
732 7732 0
1013 0
-1853 0
-1993 2973 0
-1993 3953 0
-1993 1013 0
-1993 -1153 0
1993 -2973 -3953 -1013 1153 0
-33 173 -2973 0
33 2973 0
-173 2973 0
33 -173 -3953 0
-33 3953 0
173 3953 0
-2133 3113 0
-2133 4093 0
-2133 1153 0
-2133 -1293 0
2133 -3113 -4093 -1153 1293 0
-173 313 -3113 0
173 3113 0
-313 3113 0
173 -313 -4093 0
-173 4093 0
313 4093 0
-2273 3253 0
-2273 4233 0
-2273 1293 0
-2273 -1433 0
2273 -3253 -4233 -1293 1433 0
-313 453 -3253 0
313 3253 0
-453 3253 0
313 -453 -4233 0
-313 4233 0
453 4233 0
-2413 3393 0
-2413 4373 0
-2413 1433 0
-2413 -1573 0
2413 -3393 -4373 -1433 1573 0
-453 593 -3393 0
453 3393 0
-593 3393 0
453 -593 -4373 0
-453 4373 0
593 4373 0
-2553 3533 0
-2553 4513 0
-2553 1573 0
-2553 -1713 0
2553 -3533 -4513 -1573 1713 0
-593 733 -3533 0
593 3533 0
-733 3533 0
593 -733 -4513 0
-593 4513 0
733 4513 0
-2693 3673 0
-2693 4653 0
-2693 1713 0
-2693 -1853 0
2693 -3673 -4653 -1713 1853 0
-733 873 -3673 0
733 3673 0
-873 3673 0
733 -873 -4653 0
-733 4653 0
873 4653 0
5073 6053 0
5073 7033 0
-5073 -6053 -7033 0
-173 33 -6053 0
173 6053 0
-33 6053 0
173 -33 -7033 0
-173 7033 0
33 7033 0
5213 6193 0
5213 7173 0
-5213 -6193 -7173 0
-313 173 -6193 0
313 6193 0
-173 6193 0
313 -173 -7173 0
-313 7173 0
173 7173 0
5353 6333 0
5353 7313 0
-5353 -6333 -7313 0
-453 313 -6333 0
453 6333 0
-313 6333 0
453 -313 -7313 0
-453 7313 0
313 7313 0
5493 6473 0
5493 7453 0
-5493 -6473 -7453 0
-593 453 -6473 0
593 6473 0
-453 6473 0
593 -453 -7453 0
-593 7453 0
453 7453 0
5633 6613 0
5633 7593 0
-5633 -6613 -7593 0
-733 593 -6613 0
733 6613 0
-593 6613 0
733 -593 -7593 0
-733 7593 0
593 7593 0
5773 6753 0
5773 7733 0
-5773 -6753 -7733 0
-873 733 -6753 0
873 6753 0
-733 6753 0
873 -733 -7733 0
-873 7733 0
733 7733 0
1014 0
-1854 0
-1994 2974 0
-1994 3954 0
-1994 1014 0
-1994 -1154 0
1994 -2974 -3954 -1014 1154 0
-34 174 -2974 0
34 2974 0
-174 2974 0
34 -174 -3954 0
-34 3954 0
174 3954 0
-2134 3114 0
-2134 4094 0
-2134 1154 0
-2134 -1294 0
2134 -3114 -4094 -1154 1294 0
-174 314 -3114 0
174 3114 0
-314 3114 0
174 -314 -4094 0
-174 4094 0
314 4094 0
-2274 3254 0
-2274 4234 0
-2274 1294 0
-2274 -1434 0
2274 -3254 -4234 -1294 1434 0
-314 454 -3254 0
314 3254 0
-454 3254 0
314 -454 -4234 0
-314 4234 0
454 4234 0
-2414 3394 0
-2414 4374 0
-2414 1434 0
-2414 -1574 0
2414 -3394 -4374 -1434 1574 0
-454 594 -3394 0
454 3394 0
-594 3394 0
454 -594 -4374 0
-454 4374 0
594 4374 0
-2554 3534 0
-2554 4514 0
-2554 1574 0
-2554 -1714 0
2554 -3534 -4514 -1574 1714 0
-594 734 -3534 0
594 3534 0
-734 3534 0
594 -734 -4514 0
-594 4514 0
734 4514 0
-2694 3674 0
-2694 4654 0
-2694 1714 0
-2694 -1854 0
2694 -3674 -4654 -1714 1854 0
-734 874 -3674 0
734 3674 0
-874 3674 0
734 -874 -4654 0
-734 4654 0
874 4654 0
5074 6054 0
5074 7034 0
-5074 -6054 -7034 0
-174 34 -6054 0
174 6054 0
-34 6054 0
174 -34 -7034 0
-174 7034 0
34 7034 0
5214 6194 0
5214 7174 0
-5214 -6194 -7174 0
-314 174 -6194 0
314 6194 0
-174 6194 0
314 -174 -7174 0
-314 7174 0
174 7174 0
5354 6334 0
5354 7314 0
-5354 -6334 -7314 0
-454 314 -6334 0
454 6334 0
-314 6334 0
454 -314 -7314 0
-454 7314 0
314 7314 0
5494 6474 0
5494 7454 0
-5494 -6474 -7454 0
-594 454 -6474 0
594 6474 0
-454 6474 0
594 -454 -7454 0
-594 7454 0
454 7454 0
5634 6614 0
5634 7594 0
-5634 -6614 -7594 0
-734 594 -6614 0
734 6614 0
-594 6614 0
734 -594 -7594 0
-734 7594 0
594 7594 0
5774 6754 0
5774 7734 0
-5774 -6754 -7734 0
-874 734 -6754 0
874 6754 0
-734 6754 0
874 -734 -7734 0
-874 7734 0
734 7734 0
1015 0
-1855 0
-1995 2975 0
-1995 3955 0
-1995 1015 0
-1995 -1155 0
1995 -2975 -3955 -1015 1155 0
-35 175 -2975 0
35 2975 0
-175 2975 0
35 -175 -3955 0
-35 3955 0
175 3955 0
-2135 3115 0
-2135 4095 0
-2135 1155 0
-2135 -1295 0
2135 -3115 -4095 -1155 1295 0
-175 315 -3115 0
175 3115 0
-315 3115 0
175 -315 -4095 0
-175 4095 0
315 4095 0
-2275 3255 0
-2275 4235 0
-2275 1295 0
-2275 -1435 0
2275 -3255 -4235 -1295 1435 0
-315 455 -3255 0
315 3255 0
-455 3255 0
315 -455 -4235 0
-315 4235 0
455 4235 0
-2415 3395 0
-2415 4375 0
-2415 1435 0
-2415 -1575 0
2415 -3395 -4375 -1435 1575 0
-455 595 -3395 0
455 3395 0
-595 3395 0
455 -595 -4375 0
-455 4375 0
595 4375 0
-2555 3535 0
-2555 4515 0
-2555 1575 0
-2555 -1715 0
2555 -3535 -4515 -1575 1715 0
-595 735 -3535 0
595 3535 0
-735 3535 0
595 -735 -4515 0
-595 4515 0
735 4515 0
-2695 3675 0
-2695 4655 0
-2695 1715 0
-2695 -1855 0
2695 -3675 -4655 -1715 1855 0
-735 875 -3675 0
735 3675 0
-875 3675 0
735 -875 -4655 0
-735 4655 0
875 4655 0
5075 6055 0
5075 7035 0
-5075 -6055 -7035 0
-175 35 -6055 0
175 6055 0
-35 6055 0
175 -35 -7035 0
-175 7035 0
35 7035 0
5215 6195 0
5215 7175 0
-5215 -6195 -7175 0
-315 175 -6195 0
315 6195 0
-175 6195 0
315 -175 -7175 0
-315 7175 0
175 7175 0
5355 6335 0
5355 7315 0
-5355 -6335 -7315 0
-455 315 -6335 0
455 6335 0
-315 6335 0
455 -315 -7315 0
-455 7315 0
315 7315 0
5495 6475 0
5495 7455 0
-5495 -6475 -7455 0
-595 455 -6475 0
595 6475 0
-455 6475 0
595 -455 -7455 0
-595 7455 0
455 7455 0
5635 6615 0
5635 7595 0
-5635 -6615 -7595 0
-735 595 -6615 0
735 6615 0
-595 6615 0
735 -595 -7595 0
-735 7595 0
595 7595 0
5775 6755 0
5775 7735 0
-5775 -6755 -7735 0
-875 735 -6755 0
875 6755 0
-735 6755 0
875 -735 -7735 0
-875 7735 0
735 7735 0
1016 0
-1856 0
-1996 2976 0
-1996 3956 0
-1996 1016 0
-1996 -1156 0
1996 -2976 -3956 -1016 1156 0
-36 176 -2976 0
36 2976 0
-176 2976 0
36 -176 -3956 0
-36 3956 0
176 3956 0
-2136 3116 0
-2136 4096 0
-2136 1156 0
-2136 -1296 0
2136 -3116 -4096 -1156 1296 0
-176 316 -3116 0
176 3116 0
-316 3116 0
176 -316 -4096 0
-176 4096 0
316 4096 0
-2276 3256 0
-2276 4236 0
-2276 1296 0
-2276 -1436 0
2276 -3256 -4236 -1296 1436 0
-316 456 -3256 0
316 3256 0
-456 3256 0
316 -456 -4236 0
-316 4236 0
456 4236 0
-2416 3396 0
-2416 4376 0
-2416 1436 0
-2416 -1576 0
2416 -3396 -4376 -1436 1576 0
-456 596 -3396 0
456 3396 0
-596 3396 0
456 -596 -4376 0
-456 4376 0
596 4376 0
-2556 3536 0
-2556 4516 0
-2556 1576 0
-2556 -1716 0
2556 -3536 -4516 -1576 1716 0
-596 736 -3536 0
596 3536 0
-736 3536 0
596 -736 -4516 0
-596 4516 0
736 4516 0
-2696 3676 0
-2696 4656 0
-2696 1716 0
-2696 -1856 0
2696 -3676 -4656 -1716 1856 0
-736 876 -3676 0
736 3676 0
-876 3676 0
736 -876 -4656 0
-736 4656 0
876 4656 0
5076 6056 0
5076 7036 0
-5076 -6056 -7036 0
-176 36 -6056 0
176 6056 0
-36 6056 0
176 -36 -7036 0
-176 7036 0
36 7036 0
5216 6196 0
5216 7176 0
-5216 -6196 -7176 0
-316 176 -6196 0
316 6196 0
-176 6196 0
316 -176 -7176 0
-316 7176 0
176 7176 0
5356 6336 0
5356 7316 0
-5356 -6336 -7316 0
-456 316 -6336 0
456 6336 0
-316 6336 0
456 -316 -7316 0
-456 7316 0
316 7316 0
5496 6476 0
5496 7456 0
-5496 -6476 -7456 0
-596 456 -6476 0
596 6476 0
-456 6476 0
596 -456 -7456 0
-596 7456 0
456 7456 0
5636 6616 0
5636 7596 0
-5636 -6616 -7596 0
-736 596 -6616 0
736 6616 0
-596 6616 0
736 -596 -7596 0
-736 7596 0
596 7596 0
5776 6756 0
5776 7736 0
-5776 -6756 -7736 0
-876 736 -6756 0
876 6756 0
-736 6756 0
876 -736 -7736 0
-876 7736 0
736 7736 0
1017 0
-1857 0
-1997 2977 0
-1997 3957 0
-1997 1017 0
-1997 -1157 0
1997 -2977 -3957 -1017 1157 0
-37 177 -2977 0
37 2977 0
-177 2977 0
37 -177 -3957 0
-37 3957 0
177 3957 0
-2137 3117 0
-2137 4097 0
-2137 1157 0
-2137 -1297 0
2137 -3117 -4097 -1157 1297 0
-177 317 -3117 0
177 3117 0
-317 3117 0
177 -317 -4097 0
-177 4097 0
317 4097 0
-2277 3257 0
-2277 4237 0
-2277 1297 0
-2277 -1437 0
2277 -3257 -4237 -1297 1437 0
-317 457 -3257 0
317 3257 0
-457 3257 0
317 -457 -4237 0
-317 4237 0
457 4237 0
-2417 3397 0
-2417 4377 0
-2417 1437 0
-2417 -1577 0
2417 -3397 -4377 -1437 1577 0
-457 597 -3397 0
457 3397 0
-597 3397 0
457 -597 -4377 0
-457 4377 0
597 4377 0
-2557 3537 0
-2557 4517 0
-2557 1577 0
-2557 -1717 0
2557 -3537 -4517 -1577 1717 0
-597 737 -3537 0
597 3537 0
-737 3537 0
597 -737 -4517 0
-597 4517 0
737 4517 0
-2697 3677 0
-2697 4657 0
-2697 1717 0
-2697 -1857 0
2697 -3677 -4657 -1717 1857 0
-737 877 -3677 0
737 3677 0
-877 3677 0
737 -877 -4657 0
-737 4657 0
877 4657 0
5077 6057 0
5077 7037 0
-5077 -6057 -7037 0
-177 37 -6057 0
177 6057 0
-37 6057 0
177 -37 -7037 0
-177 7037 0
37 7037 0
5217 6197 0
5217 7177 0
-5217 -6197 -7177 0
-317 177 -6197 0
317 6197 0
-177 6197 0
317 -177 -7177 0
-317 7177 0
177 7177 0
5357 6337 0
5357 7317 0
-5357 -6337 -7317 0
-457 317 -6337 0
457 6337 0
-317 6337 0
457 -317 -7317 0
-457 7317 0
317 7317 0
5497 6477 0
5497 7457 0
-5497 -6477 -7457 0
-597 457 -6477 0
597 6477 0
-457 6477 0
597 -457 -7457 0
-597 7457 0
457 7457 0
5637 6617 0
5637 7597 0
-5637 -6617 -7597 0
-737 597 -6617 0
737 6617 0
-597 6617 0
737 -597 -7597 0
-737 7597 0
597 7597 0
5777 6757 0
5777 7737 0
-5777 -6757 -7737 0
-877 737 -6757 0
877 6757 0
-737 6757 0
877 -737 -7737 0
-877 7737 0
737 7737 0
1018 0
-1858 0
-1998 2978 0
-1998 3958 0
-1998 1018 0
-1998 -1158 0
1998 -2978 -3958 -1018 1158 0
-38 178 -2978 0
38 2978 0
-178 2978 0
38 -178 -3958 0
-38 3958 0
178 3958 0
-2138 3118 0
-2138 4098 0
-2138 1158 0
-2138 -1298 0
2138 -3118 -4098 -1158 1298 0
-178 318 -3118 0
178 3118 0
-318 3118 0
178 -318 -4098 0
-178 4098 0
318 4098 0
-2278 3258 0
-2278 4238 0
-2278 1298 0
-2278 -1438 0
2278 -3258 -4238 -1298 1438 0
-318 458 -3258 0
318 3258 0
-458 3258 0
318 -458 -4238 0
-318 4238 0
458 4238 0
-2418 3398 0
-2418 4378 0
-2418 1438 0
-2418 -1578 0
2418 -3398 -4378 -1438 1578 0
-458 598 -3398 0
458 3398 0
-598 3398 0
458 -598 -4378 0
-458 4378 0
598 4378 0
-2558 3538 0
-2558 4518 0
-2558 1578 0
-2558 -1718 0
2558 -3538 -4518 -1578 1718 0
-598 738 -3538 0
598 3538 0
-738 3538 0
598 -738 -4518 0
-598 4518 0
738 4518 0
-2698 3678 0
-2698 4658 0
-2698 1718 0
-2698 -1858 0
2698 -3678 -4658 -1718 1858 0
-738 878 -3678 0
738 3678 0
-878 3678 0
738 -878 -4658 0
-738 4658 0
878 4658 0
5078 6058 0
5078 7038 0
-5078 -6058 -7038 0
-178 38 -6058 0
178 6058 0
-38 6058 0
178 -38 -7038 0
-178 7038 0
38 7038 0
5218 6198 0
5218 7178 0
-5218 -6198 -7178 0
-318 178 -6198 0
318 6198 0
-178 6198 0
318 -178 -7178 0
-318 7178 0
178 7178 0
5358 6338 0
5358 7318 0
-5358 -6338 -7318 0
-458 318 -6338 0
458 6338 0
-318 6338 0
458 -318 -7318 0
-458 7318 0
318 7318 0
5498 6478 0
5498 7458 0
-5498 -6478 -7458 0
-598 458 -6478 0
598 6478 0
-458 6478 0
598 -458 -7458 0
-598 7458 0
458 7458 0
5638 6618 0
5638 7598 0
-5638 -6618 -7598 0
-738 598 -6618 0
738 6618 0
-598 6618 0
738 -598 -7598 0
-738 7598 0
598 7598 0
5778 6758 0
5778 7738 0
-5778 -6758 -7738 0
-878 738 -6758 0
878 6758 0
-738 6758 0
878 -738 -7738 0
-878 7738 0
738 7738 0
1019 0
-1859 0
-1999 2979 0
-1999 3959 0
-1999 1019 0
-1999 -1159 0
1999 -2979 -3959 -1019 1159 0
-39 179 -2979 0
39 2979 0
-179 2979 0
39 -179 -3959 0
-39 3959 0
179 3959 0
-2139 3119 0
-2139 4099 0
-2139 1159 0
-2139 -1299 0
2139 -3119 -4099 -1159 1299 0
-179 319 -3119 0
179 3119 0
-319 3119 0
179 -319 -4099 0
-179 4099 0
319 4099 0
-2279 3259 0
-2279 4239 0
-2279 1299 0
-2279 -1439 0
2279 -3259 -4239 -1299 1439 0
-319 459 -3259 0
319 3259 0
-459 3259 0
319 -459 -4239 0
-319 4239 0
459 4239 0
-2419 3399 0
-2419 4379 0
-2419 1439 0
-2419 -1579 0
2419 -3399 -4379 -1439 1579 0
-459 599 -3399 0
459 3399 0
-599 3399 0
459 -599 -4379 0
-459 4379 0
599 4379 0
-2559 3539 0
-2559 4519 0
-2559 1579 0
-2559 -1719 0
2559 -3539 -4519 -1579 1719 0
-599 739 -3539 0
599 3539 0
-739 3539 0
599 -739 -4519 0
-599 4519 0
739 4519 0
-2699 3679 0
-2699 4659 0
-2699 1719 0
-2699 -1859 0
2699 -3679 -4659 -1719 1859 0
-739 879 -3679 0
739 3679 0
-879 3679 0
739 -879 -4659 0
-739 4659 0
879 4659 0
5079 6059 0
5079 7039 0
-5079 -6059 -7039 0
-179 39 -6059 0
179 6059 0
-39 6059 0
179 -39 -7039 0
-179 7039 0
39 7039 0
5219 6199 0
5219 7179 0
-5219 -6199 -7179 0
-319 179 -6199 0
319 6199 0
-179 6199 0
319 -179 -7179 0
-319 7179 0
179 7179 0
5359 6339 0
5359 7319 0
-5359 -6339 -7319 0
-459 319 -6339 0
459 6339 0
-319 6339 0
459 -319 -7319 0
-459 7319 0
319 7319 0
5499 6479 0
5499 7459 0
-5499 -6479 -7459 0
-599 459 -6479 0
599 6479 0
-459 6479 0
599 -459 -7459 0
-599 7459 0
459 7459 0
5639 6619 0
5639 7599 0
-5639 -6619 -7599 0
-739 599 -6619 0
739 6619 0
-599 6619 0
739 -599 -7599 0
-739 7599 0
599 7599 0
5779 6759 0
5779 7739 0
-5779 -6759 -7739 0
-879 739 -6759 0
879 6759 0
-739 6759 0
879 -739 -7739 0
-879 7739 0
739 7739 0
1020 0
-1860 0
-2000 2980 0
-2000 3960 0
-2000 1020 0
-2000 -1160 0
2000 -2980 -3960 -1020 1160 0
-40 180 -2980 0
40 2980 0
-180 2980 0
40 -180 -3960 0
-40 3960 0
180 3960 0
-2140 3120 0
-2140 4100 0
-2140 1160 0
-2140 -1300 0
2140 -3120 -4100 -1160 1300 0
-180 320 -3120 0
180 3120 0
-320 3120 0
180 -320 -4100 0
-180 4100 0
320 4100 0
-2280 3260 0
-2280 4240 0
-2280 1300 0
-2280 -1440 0
2280 -3260 -4240 -1300 1440 0
-320 460 -3260 0
320 3260 0
-460 3260 0
320 -460 -4240 0
-320 4240 0
460 4240 0
-2420 3400 0
-2420 4380 0
-2420 1440 0
-2420 -1580 0
2420 -3400 -4380 -1440 1580 0
-460 600 -3400 0
460 3400 0
-600 3400 0
460 -600 -4380 0
-460 4380 0
600 4380 0
-2560 3540 0
-2560 4520 0
-2560 1580 0
-2560 -1720 0
2560 -3540 -4520 -1580 1720 0
-600 740 -3540 0
600 3540 0
-740 3540 0
600 -740 -4520 0
-600 4520 0
740 4520 0
-2700 3680 0
-2700 4660 0
-2700 1720 0
-2700 -1860 0
2700 -3680 -4660 -1720 1860 0
-740 880 -3680 0
740 3680 0
-880 3680 0
740 -880 -4660 0
-740 4660 0
880 4660 0
5080 6060 0
5080 7040 0
-5080 -6060 -7040 0
-180 40 -6060 0
180 6060 0
-40 6060 0
180 -40 -7040 0
-180 7040 0
40 7040 0
5220 6200 0
5220 7180 0
-5220 -6200 -7180 0
-320 180 -6200 0
320 6200 0
-180 6200 0
320 -180 -7180 0
-320 7180 0
180 7180 0
5360 6340 0
5360 7320 0
-5360 -6340 -7320 0
-460 320 -6340 0
460 6340 0
-320 6340 0
460 -320 -7320 0
-460 7320 0
320 7320 0
5500 6480 0
5500 7460 0
-5500 -6480 -7460 0
-600 460 -6480 0
600 6480 0
-460 6480 0
600 -460 -7460 0
-600 7460 0
460 7460 0
5640 6620 0
5640 7600 0
-5640 -6620 -7600 0
-740 600 -6620 0
740 6620 0
-600 6620 0
740 -600 -7600 0
-740 7600 0
600 7600 0
5780 6760 0
5780 7740 0
-5780 -6760 -7740 0
-880 740 -6760 0
880 6760 0
-740 6760 0
880 -740 -7740 0
-880 7740 0
740 7740 0
1021 0
-1861 0
-2001 2981 0
-2001 3961 0
-2001 1021 0
-2001 -1161 0
2001 -2981 -3961 -1021 1161 0
-41 181 -2981 0
41 2981 0
-181 2981 0
41 -181 -3961 0
-41 3961 0
181 3961 0
-2141 3121 0
-2141 4101 0
-2141 1161 0
-2141 -1301 0
2141 -3121 -4101 -1161 1301 0
-181 321 -3121 0
181 3121 0
-321 3121 0
181 -321 -4101 0
-181 4101 0
321 4101 0
-2281 3261 0
-2281 4241 0
-2281 1301 0
-2281 -1441 0
2281 -3261 -4241 -1301 1441 0
-321 461 -3261 0
321 3261 0
-461 3261 0
321 -461 -4241 0
-321 4241 0
461 4241 0
-2421 3401 0
-2421 4381 0
-2421 1441 0
-2421 -1581 0
2421 -3401 -4381 -1441 1581 0
-461 601 -3401 0
461 3401 0
-601 3401 0
461 -601 -4381 0
-461 4381 0
601 4381 0
-2561 3541 0
-2561 4521 0
-2561 1581 0
-2561 -1721 0
2561 -3541 -4521 -1581 1721 0
-601 741 -3541 0
601 3541 0
-741 3541 0
601 -741 -4521 0
-601 4521 0
741 4521 0
-2701 3681 0
-2701 4661 0
-2701 1721 0
-2701 -1861 0
2701 -3681 -4661 -1721 1861 0
-741 881 -3681 0
741 3681 0
-881 3681 0
741 -881 -4661 0
-741 4661 0
881 4661 0
5081 6061 0
5081 7041 0
-5081 -6061 -7041 0
-181 41 -6061 0
181 6061 0
-41 6061 0
181 -41 -7041 0
-181 7041 0
41 7041 0
5221 6201 0
5221 7181 0
-5221 -6201 -7181 0
-321 181 -6201 0
321 6201 0
-181 6201 0
321 -181 -7181 0
-321 7181 0
181 7181 0
5361 6341 0
5361 7321 0
-5361 -6341 -7321 0
-461 321 -6341 0
461 6341 0
-321 6341 0
461 -321 -7321 0
-461 7321 0
321 7321 0
5501 6481 0
5501 7461 0
-5501 -6481 -7461 0
-601 461 -6481 0
601 6481 0
-461 6481 0
601 -461 -7461 0
-601 7461 0
461 7461 0
5641 6621 0
5641 7601 0
-5641 -6621 -7601 0
-741 601 -6621 0
741 6621 0
-601 6621 0
741 -601 -7601 0
-741 7601 0
601 7601 0
5781 6761 0
5781 7741 0
-5781 -6761 -7741 0
-881 741 -6761 0
881 6761 0
-741 6761 0
881 -741 -7741 0
-881 7741 0
741 7741 0
1022 0
-1862 0
-2002 2982 0
-2002 3962 0
-2002 1022 0
-2002 -1162 0
2002 -2982 -3962 -1022 1162 0
-42 182 -2982 0
42 2982 0
-182 2982 0
42 -182 -3962 0
-42 3962 0
182 3962 0
-2142 3122 0
-2142 4102 0
-2142 1162 0
-2142 -1302 0
2142 -3122 -4102 -1162 1302 0
-182 322 -3122 0
182 3122 0
-322 3122 0
182 -322 -4102 0
-182 4102 0
322 4102 0
-2282 3262 0
-2282 4242 0
-2282 1302 0
-2282 -1442 0
2282 -3262 -4242 -1302 1442 0
-322 462 -3262 0
322 3262 0
-462 3262 0
322 -462 -4242 0
-322 4242 0
462 4242 0
-2422 3402 0
-2422 4382 0
-2422 1442 0
-2422 -1582 0
2422 -3402 -4382 -1442 1582 0
-462 602 -3402 0
462 3402 0
-602 3402 0
462 -602 -4382 0
-462 4382 0
602 4382 0
-2562 3542 0
-2562 4522 0
-2562 1582 0
-2562 -1722 0
2562 -3542 -4522 -1582 1722 0
-602 742 -3542 0
602 3542 0
-742 3542 0
602 -742 -4522 0
-602 4522 0
742 4522 0
-2702 3682 0
-2702 4662 0
-2702 1722 0
-2702 -1862 0
2702 -3682 -4662 -1722 1862 0
-742 882 -3682 0
742 3682 0
-882 3682 0
742 -882 -4662 0
-742 4662 0
882 4662 0
5082 6062 0
5082 7042 0
-5082 -6062 -7042 0
-182 42 -6062 0
182 6062 0
-42 6062 0
182 -42 -7042 0
-182 7042 0
42 7042 0
5222 6202 0
5222 7182 0
-5222 -6202 -7182 0
-322 182 -6202 0
322 6202 0
-182 6202 0
322 -182 -7182 0
-322 7182 0
182 7182 0
5362 6342 0
5362 7322 0
-5362 -6342 -7322 0
-462 322 -6342 0
462 6342 0
-322 6342 0
462 -322 -7322 0
-462 7322 0
322 7322 0
5502 6482 0
5502 7462 0
-5502 -6482 -7462 0
-602 462 -6482 0
602 6482 0
-462 6482 0
602 -462 -7462 0
-602 7462 0
462 7462 0
5642 6622 0
5642 7602 0
-5642 -6622 -7602 0
-742 602 -6622 0
742 6622 0
-602 6622 0
742 -602 -7602 0
-742 7602 0
602 7602 0
5782 6762 0
5782 7742 0
-5782 -6762 -7742 0
-882 742 -6762 0
882 6762 0
-742 6762 0
882 -742 -7742 0
-882 7742 0
742 7742 0
1023 0
-1863 0
-2003 2983 0
-2003 3963 0
-2003 1023 0
-2003 -1163 0
2003 -2983 -3963 -1023 1163 0
-43 183 -2983 0
43 2983 0
-183 2983 0
43 -183 -3963 0
-43 3963 0
183 3963 0
-2143 3123 0
-2143 4103 0
-2143 1163 0
-2143 -1303 0
2143 -3123 -4103 -1163 1303 0
-183 323 -3123 0
183 3123 0
-323 3123 0
183 -323 -4103 0
-183 4103 0
323 4103 0
-2283 3263 0
-2283 4243 0
-2283 1303 0
-2283 -1443 0
2283 -3263 -4243 -1303 1443 0
-323 463 -3263 0
323 3263 0
-463 3263 0
323 -463 -4243 0
-323 4243 0
463 4243 0
-2423 3403 0
-2423 4383 0
-2423 1443 0
-2423 -1583 0
2423 -3403 -4383 -1443 1583 0
-463 603 -3403 0
463 3403 0
-603 3403 0
463 -603 -4383 0
-463 4383 0
603 4383 0
-2563 3543 0
-2563 4523 0
-2563 1583 0
-2563 -1723 0
2563 -3543 -4523 -1583 1723 0
-603 743 -3543 0
603 3543 0
-743 3543 0
603 -743 -4523 0
-603 4523 0
743 4523 0
-2703 3683 0
-2703 4663 0
-2703 1723 0
-2703 -1863 0
2703 -3683 -4663 -1723 1863 0
-743 883 -3683 0
743 3683 0
-883 3683 0
743 -883 -4663 0
-743 4663 0
883 4663 0
5083 6063 0
5083 7043 0
-5083 -6063 -7043 0
-183 43 -6063 0
183 6063 0
-43 6063 0
183 -43 -7043 0
-183 7043 0
43 7043 0
5223 6203 0
5223 7183 0
-5223 -6203 -7183 0
-323 183 -6203 0
323 6203 0
-183 6203 0
323 -183 -7183 0
-323 7183 0
183 7183 0
5363 6343 0
5363 7323 0
-5363 -6343 -7323 0
-463 323 -6343 0
463 6343 0
-323 6343 0
463 -323 -7323 0
-463 7323 0
323 7323 0
5503 6483 0
5503 7463 0
-5503 -6483 -7463 0
-603 463 -6483 0
603 6483 0
-463 6483 0
603 -463 -7463 0
-603 7463 0
463 7463 0
5643 6623 0
5643 7603 0
-5643 -6623 -7603 0
-743 603 -6623 0
743 6623 0
-603 6623 0
743 -603 -7603 0
-743 7603 0
603 7603 0
5783 6763 0
5783 7743 0
-5783 -6763 -7743 0
-883 743 -6763 0
883 6763 0
-743 6763 0
883 -743 -7743 0
-883 7743 0
743 7743 0
1024 0
-1864 0
-2004 2984 0
-2004 3964 0
-2004 1024 0
-2004 -1164 0
2004 -2984 -3964 -1024 1164 0
-44 184 -2984 0
44 2984 0
-184 2984 0
44 -184 -3964 0
-44 3964 0
184 3964 0
-2144 3124 0
-2144 4104 0
-2144 1164 0
-2144 -1304 0
2144 -3124 -4104 -1164 1304 0
-184 324 -3124 0
184 3124 0
-324 3124 0
184 -324 -4104 0
-184 4104 0
324 4104 0
-2284 3264 0
-2284 4244 0
-2284 1304 0
-2284 -1444 0
2284 -3264 -4244 -1304 1444 0
-324 464 -3264 0
324 3264 0
-464 3264 0
324 -464 -4244 0
-324 4244 0
464 4244 0
-2424 3404 0
-2424 4384 0
-2424 1444 0
-2424 -1584 0
2424 -3404 -4384 -1444 1584 0
-464 604 -3404 0
464 3404 0
-604 3404 0
464 -604 -4384 0
-464 4384 0
604 4384 0
-2564 3544 0
-2564 4524 0
-2564 1584 0
-2564 -1724 0
2564 -3544 -4524 -1584 1724 0
-604 744 -3544 0
604 3544 0
-744 3544 0
604 -744 -4524 0
-604 4524 0
744 4524 0
-2704 3684 0
-2704 4664 0
-2704 1724 0
-2704 -1864 0
2704 -3684 -4664 -1724 1864 0
-744 884 -3684 0
744 3684 0
-884 3684 0
744 -884 -4664 0
-744 4664 0
884 4664 0
5084 6064 0
5084 7044 0
-5084 -6064 -7044 0
-184 44 -6064 0
184 6064 0
-44 6064 0
184 -44 -7044 0
-184 7044 0
44 7044 0
5224 6204 0
5224 7184 0
-5224 -6204 -7184 0
-324 184 -6204 0
324 6204 0
-184 6204 0
324 -184 -7184 0
-324 7184 0
184 7184 0
5364 6344 0
5364 7324 0
-5364 -6344 -7324 0
-464 324 -6344 0
464 6344 0
-324 6344 0
464 -324 -7324 0
-464 7324 0
324 7324 0
5504 6484 0
5504 7464 0
-5504 -6484 -7464 0
-604 464 -6484 0
604 6484 0
-464 6484 0
604 -464 -7464 0
-604 7464 0
464 7464 0
5644 6624 0
5644 7604 0
-5644 -6624 -7604 0
-744 604 -6624 0
744 6624 0
-604 6624 0
744 -604 -7604 0
-744 7604 0
604 7604 0
5784 6764 0
5784 7744 0
-5784 -6764 -7744 0
-884 744 -6764 0
884 6764 0
-744 6764 0
884 -744 -7744 0
-884 7744 0
744 7744 0
1025 0
-1865 0
-2005 2985 0
-2005 3965 0
-2005 1025 0
-2005 -1165 0
2005 -2985 -3965 -1025 1165 0
-45 185 -2985 0
45 2985 0
-185 2985 0
45 -185 -3965 0
-45 3965 0
185 3965 0
-2145 3125 0
-2145 4105 0
-2145 1165 0
-2145 -1305 0
2145 -3125 -4105 -1165 1305 0
-185 325 -3125 0
185 3125 0
-325 3125 0
185 -325 -4105 0
-185 4105 0
325 4105 0
-2285 3265 0
-2285 4245 0
-2285 1305 0
-2285 -1445 0
2285 -3265 -4245 -1305 1445 0
-325 465 -3265 0
325 3265 0
-465 3265 0
325 -465 -4245 0
-325 4245 0
465 4245 0
-2425 3405 0
-2425 4385 0
-2425 1445 0
-2425 -1585 0
2425 -3405 -4385 -1445 1585 0
-465 605 -3405 0
465 3405 0
-605 3405 0
465 -605 -4385 0
-465 4385 0
605 4385 0
-2565 3545 0
-2565 4525 0
-2565 1585 0
-2565 -1725 0
2565 -3545 -4525 -1585 1725 0
-605 745 -3545 0
605 3545 0
-745 3545 0
605 -745 -4525 0
-605 4525 0
745 4525 0
-2705 3685 0
-2705 4665 0
-2705 1725 0
-2705 -1865 0
2705 -3685 -4665 -1725 1865 0
-745 885 -3685 0
745 3685 0
-885 3685 0
745 -885 -4665 0
-745 4665 0
885 4665 0
5085 6065 0
5085 7045 0
-5085 -6065 -7045 0
-185 45 -6065 0
185 6065 0
-45 6065 0
185 -45 -7045 0
-185 7045 0
45 7045 0
5225 6205 0
5225 7185 0
-5225 -6205 -7185 0
-325 185 -6205 0
325 6205 0
-185 6205 0
325 -185 -7185 0
-325 7185 0
185 7185 0
5365 6345 0
5365 7325 0
-5365 -6345 -7325 0
-465 325 -6345 0
465 6345 0
-325 6345 0
465 -325 -7325 0
-465 7325 0
325 7325 0
5505 6485 0
5505 7465 0
-5505 -6485 -7465 0
-605 465 -6485 0
605 6485 0
-465 6485 0
605 -465 -7465 0
-605 7465 0
465 7465 0
5645 6625 0
5645 7605 0
-5645 -6625 -7605 0
-745 605 -6625 0
745 6625 0
-605 6625 0
745 -605 -7605 0
-745 7605 0
605 7605 0
5785 6765 0
5785 7745 0
-5785 -6765 -7745 0
-885 745 -6765 0
885 6765 0
-745 6765 0
885 -745 -7745 0
-885 7745 0
745 7745 0
1026 0
-1866 0
-2006 2986 0
-2006 3966 0
-2006 1026 0
-2006 -1166 0
2006 -2986 -3966 -1026 1166 0
-46 186 -2986 0
46 2986 0
-186 2986 0
46 -186 -3966 0
-46 3966 0
186 3966 0
-2146 3126 0
-2146 4106 0
-2146 1166 0
-2146 -1306 0
2146 -3126 -4106 -1166 1306 0
-186 326 -3126 0
186 3126 0
-326 3126 0
186 -326 -4106 0
-186 4106 0
326 4106 0
-2286 3266 0
-2286 4246 0
-2286 1306 0
-2286 -1446 0
2286 -3266 -4246 -1306 1446 0
-326 466 -3266 0
326 3266 0
-466 3266 0
326 -466 -4246 0
-326 4246 0
466 4246 0
-2426 3406 0
-2426 4386 0
-2426 1446 0
-2426 -1586 0
2426 -3406 -4386 -1446 1586 0
-466 606 -3406 0
466 3406 0
-606 3406 0
466 -606 -4386 0
-466 4386 0
606 4386 0
-2566 3546 0
-2566 4526 0
-2566 1586 0
-2566 -1726 0
2566 -3546 -4526 -1586 1726 0
-606 746 -3546 0
606 3546 0
-746 3546 0
606 -746 -4526 0
-606 4526 0
746 4526 0
-2706 3686 0
-2706 4666 0
-2706 1726 0
-2706 -1866 0
2706 -3686 -4666 -1726 1866 0
-746 886 -3686 0
746 3686 0
-886 3686 0
746 -886 -4666 0
-746 4666 0
886 4666 0
5086 6066 0
5086 7046 0
-5086 -6066 -7046 0
-186 46 -6066 0
186 6066 0
-46 6066 0
186 -46 -7046 0
-186 7046 0
46 7046 0
5226 6206 0
5226 7186 0
-5226 -6206 -7186 0
-326 186 -6206 0
326 6206 0
-186 6206 0
326 -186 -7186 0
-326 7186 0
186 7186 0
5366 6346 0
5366 7326 0
-5366 -6346 -7326 0
-466 326 -6346 0
466 6346 0
-326 6346 0
466 -326 -7326 0
-466 7326 0
326 7326 0
5506 6486 0
5506 7466 0
-5506 -6486 -7466 0
-606 466 -6486 0
606 6486 0
-466 6486 0
606 -466 -7466 0
-606 7466 0
466 7466 0
5646 6626 0
5646 7606 0
-5646 -6626 -7606 0
-746 606 -6626 0
746 6626 0
-606 6626 0
746 -606 -7606 0
-746 7606 0
606 7606 0
5786 6766 0
5786 7746 0
-5786 -6766 -7746 0
-886 746 -6766 0
886 6766 0
-746 6766 0
886 -746 -7746 0
-886 7746 0
746 7746 0
1027 0
-1867 0
-2007 2987 0
-2007 3967 0
-2007 1027 0
-2007 -1167 0
2007 -2987 -3967 -1027 1167 0
-47 187 -2987 0
47 2987 0
-187 2987 0
47 -187 -3967 0
-47 3967 0
187 3967 0
-2147 3127 0
-2147 4107 0
-2147 1167 0
-2147 -1307 0
2147 -3127 -4107 -1167 1307 0
-187 327 -3127 0
187 3127 0
-327 3127 0
187 -327 -4107 0
-187 4107 0
327 4107 0
-2287 3267 0
-2287 4247 0
-2287 1307 0
-2287 -1447 0
2287 -3267 -4247 -1307 1447 0
-327 467 -3267 0
327 3267 0
-467 3267 0
327 -467 -4247 0
-327 4247 0
467 4247 0
-2427 3407 0
-2427 4387 0
-2427 1447 0
-2427 -1587 0
2427 -3407 -4387 -1447 1587 0
-467 607 -3407 0
467 3407 0
-607 3407 0
467 -607 -4387 0
-467 4387 0
607 4387 0
-2567 3547 0
-2567 4527 0
-2567 1587 0
-2567 -1727 0
2567 -3547 -4527 -1587 1727 0
-607 747 -3547 0
607 3547 0
-747 3547 0
607 -747 -4527 0
-607 4527 0
747 4527 0
-2707 3687 0
-2707 4667 0
-2707 1727 0
-2707 -1867 0
2707 -3687 -4667 -1727 1867 0
-747 887 -3687 0
747 3687 0
-887 3687 0
747 -887 -4667 0
-747 4667 0
887 4667 0
5087 6067 0
5087 7047 0
-5087 -6067 -7047 0
-187 47 -6067 0
187 6067 0
-47 6067 0
187 -47 -7047 0
-187 7047 0
47 7047 0
5227 6207 0
5227 7187 0
-5227 -6207 -7187 0
-327 187 -6207 0
327 6207 0
-187 6207 0
327 -187 -7187 0
-327 7187 0
187 7187 0
5367 6347 0
5367 7327 0
-5367 -6347 -7327 0
-467 327 -6347 0
467 6347 0
-327 6347 0
467 -327 -7327 0
-467 7327 0
327 7327 0
5507 6487 0
5507 7467 0
-5507 -6487 -7467 0
-607 467 -6487 0
607 6487 0
-467 6487 0
607 -467 -7467 0
-607 7467 0
467 7467 0
5647 6627 0
5647 7607 0
-5647 -6627 -7607 0
-747 607 -6627 0
747 6627 0
-607 6627 0
747 -607 -7607 0
-747 7607 0
607 7607 0
5787 6767 0
5787 7747 0
-5787 -6767 -7747 0
-887 747 -6767 0
887 6767 0
-747 6767 0
887 -747 -7747 0
-887 7747 0
747 7747 0
1028 0
-1868 0
-2008 2988 0
-2008 3968 0
-2008 1028 0
-2008 -1168 0
2008 -2988 -3968 -1028 1168 0
-48 188 -2988 0
48 2988 0
-188 2988 0
48 -188 -3968 0
-48 3968 0
188 3968 0
-2148 3128 0
-2148 4108 0
-2148 1168 0
-2148 -1308 0
2148 -3128 -4108 -1168 1308 0
-188 328 -3128 0
188 3128 0
-328 3128 0
188 -328 -4108 0
-188 4108 0
328 4108 0
-2288 3268 0
-2288 4248 0
-2288 1308 0
-2288 -1448 0
2288 -3268 -4248 -1308 1448 0
-328 468 -3268 0
328 3268 0
-468 3268 0
328 -468 -4248 0
-328 4248 0
468 4248 0
-2428 3408 0
-2428 4388 0
-2428 1448 0
-2428 -1588 0
2428 -3408 -4388 -1448 1588 0
-468 608 -3408 0
468 3408 0
-608 3408 0
468 -608 -4388 0
-468 4388 0
608 4388 0
-2568 3548 0
-2568 4528 0
-2568 1588 0
-2568 -1728 0
2568 -3548 -4528 -1588 1728 0
-608 748 -3548 0
608 3548 0
-748 3548 0
608 -748 -4528 0
-608 4528 0
748 4528 0
-2708 3688 0
-2708 4668 0
-2708 1728 0
-2708 -1868 0
2708 -3688 -4668 -1728 1868 0
-748 888 -3688 0
748 3688 0
-888 3688 0
748 -888 -4668 0
-748 4668 0
888 4668 0
5088 6068 0
5088 7048 0
-5088 -6068 -7048 0
-188 48 -6068 0
188 6068 0
-48 6068 0
188 -48 -7048 0
-188 7048 0
48 7048 0
5228 6208 0
5228 7188 0
-5228 -6208 -7188 0
-328 188 -6208 0
328 6208 0
-188 6208 0
328 -188 -7188 0
-328 7188 0
188 7188 0
5368 6348 0
5368 7328 0
-5368 -6348 -7328 0
-468 328 -6348 0
468 6348 0
-328 6348 0
468 -328 -7328 0
-468 7328 0
328 7328 0
5508 6488 0
5508 7468 0
-5508 -6488 -7468 0
-608 468 -6488 0
608 6488 0
-468 6488 0
608 -468 -7468 0
-608 7468 0
468 7468 0
5648 6628 0
5648 7608 0
-5648 -6628 -7608 0
-748 608 -6628 0
748 6628 0
-608 6628 0
748 -608 -7608 0
-748 7608 0
608 7608 0
5788 6768 0
5788 7748 0
-5788 -6768 -7748 0
-888 748 -6768 0
888 6768 0
-748 6768 0
888 -748 -7748 0
-888 7748 0
748 7748 0
1029 0
-1869 0
-2009 2989 0
-2009 3969 0
-2009 1029 0
-2009 -1169 0
2009 -2989 -3969 -1029 1169 0
-49 189 -2989 0
49 2989 0
-189 2989 0
49 -189 -3969 0
-49 3969 0
189 3969 0
-2149 3129 0
-2149 4109 0
-2149 1169 0
-2149 -1309 0
2149 -3129 -4109 -1169 1309 0
-189 329 -3129 0
189 3129 0
-329 3129 0
189 -329 -4109 0
-189 4109 0
329 4109 0
-2289 3269 0
-2289 4249 0
-2289 1309 0
-2289 -1449 0
2289 -3269 -4249 -1309 1449 0
-329 469 -3269 0
329 3269 0
-469 3269 0
329 -469 -4249 0
-329 4249 0
469 4249 0
-2429 3409 0
-2429 4389 0
-2429 1449 0
-2429 -1589 0
2429 -3409 -4389 -1449 1589 0
-469 609 -3409 0
469 3409 0
-609 3409 0
469 -609 -4389 0
-469 4389 0
609 4389 0
-2569 3549 0
-2569 4529 0
-2569 1589 0
-2569 -1729 0
2569 -3549 -4529 -1589 1729 0
-609 749 -3549 0
609 3549 0
-749 3549 0
609 -749 -4529 0
-609 4529 0
749 4529 0
-2709 3689 0
-2709 4669 0
-2709 1729 0
-2709 -1869 0
2709 -3689 -4669 -1729 1869 0
-749 889 -3689 0
749 3689 0
-889 3689 0
749 -889 -4669 0
-749 4669 0
889 4669 0
5089 6069 0
5089 7049 0
-5089 -6069 -7049 0
-189 49 -6069 0
189 6069 0
-49 6069 0
189 -49 -7049 0
-189 7049 0
49 7049 0
5229 6209 0
5229 7189 0
-5229 -6209 -7189 0
-329 189 -6209 0
329 6209 0
-189 6209 0
329 -189 -7189 0
-329 7189 0
189 7189 0
5369 6349 0
5369 7329 0
-5369 -6349 -7329 0
-469 329 -6349 0
469 6349 0
-329 6349 0
469 -329 -7329 0
-469 7329 0
329 7329 0
5509 6489 0
5509 7469 0
-5509 -6489 -7469 0
-609 469 -6489 0
609 6489 0
-469 6489 0
609 -469 -7469 0
-609 7469 0
469 7469 0
5649 6629 0
5649 7609 0
-5649 -6629 -7609 0
-749 609 -6629 0
749 6629 0
-609 6629 0
749 -609 -7609 0
-749 7609 0
609 7609 0
5789 6769 0
5789 7749 0
-5789 -6769 -7749 0
-889 749 -6769 0
889 6769 0
-749 6769 0
889 -749 -7749 0
-889 7749 0
749 7749 0
1030 0
-1870 0
-2010 2990 0
-2010 3970 0
-2010 1030 0
-2010 -1170 0
2010 -2990 -3970 -1030 1170 0
-50 190 -2990 0
50 2990 0
-190 2990 0
50 -190 -3970 0
-50 3970 0
190 3970 0
-2150 3130 0
-2150 4110 0
-2150 1170 0
-2150 -1310 0
2150 -3130 -4110 -1170 1310 0
-190 330 -3130 0
190 3130 0
-330 3130 0
190 -330 -4110 0
-190 4110 0
330 4110 0
-2290 3270 0
-2290 4250 0
-2290 1310 0
-2290 -1450 0
2290 -3270 -4250 -1310 1450 0
-330 470 -3270 0
330 3270 0
-470 3270 0
330 -470 -4250 0
-330 4250 0
470 4250 0
-2430 3410 0
-2430 4390 0
-2430 1450 0
-2430 -1590 0
2430 -3410 -4390 -1450 1590 0
-470 610 -3410 0
470 3410 0
-610 3410 0
470 -610 -4390 0
-470 4390 0
610 4390 0
-2570 3550 0
-2570 4530 0
-2570 1590 0
-2570 -1730 0
2570 -3550 -4530 -1590 1730 0
-610 750 -3550 0
610 3550 0
-750 3550 0
610 -750 -4530 0
-610 4530 0
750 4530 0
-2710 3690 0
-2710 4670 0
-2710 1730 0
-2710 -1870 0
2710 -3690 -4670 -1730 1870 0
-750 890 -3690 0
750 3690 0
-890 3690 0
750 -890 -4670 0
-750 4670 0
890 4670 0
5090 6070 0
5090 7050 0
-5090 -6070 -7050 0
-190 50 -6070 0
190 6070 0
-50 6070 0
190 -50 -7050 0
-190 7050 0
50 7050 0
5230 6210 0
5230 7190 0
-5230 -6210 -7190 0
-330 190 -6210 0
330 6210 0
-190 6210 0
330 -190 -7190 0
-330 7190 0
190 7190 0
5370 6350 0
5370 7330 0
-5370 -6350 -7330 0
-470 330 -6350 0
470 6350 0
-330 6350 0
470 -330 -7330 0
-470 7330 0
330 7330 0
5510 6490 0
5510 7470 0
-5510 -6490 -7470 0
-610 470 -6490 0
610 6490 0
-470 6490 0
610 -470 -7470 0
-610 7470 0
470 7470 0
5650 6630 0
5650 7610 0
-5650 -6630 -7610 0
-750 610 -6630 0
750 6630 0
-610 6630 0
750 -610 -7610 0
-750 7610 0
610 7610 0
5790 6770 0
5790 7750 0
-5790 -6770 -7750 0
-890 750 -6770 0
890 6770 0
-750 6770 0
890 -750 -7750 0
-890 7750 0
750 7750 0
1031 0
-1871 0
-2011 2991 0
-2011 3971 0
-2011 1031 0
-2011 -1171 0
2011 -2991 -3971 -1031 1171 0
-51 191 -2991 0
51 2991 0
-191 2991 0
51 -191 -3971 0
-51 3971 0
191 3971 0
-2151 3131 0
-2151 4111 0
-2151 1171 0
-2151 -1311 0
2151 -3131 -4111 -1171 1311 0
-191 331 -3131 0
191 3131 0
-331 3131 0
191 -331 -4111 0
-191 4111 0
331 4111 0
-2291 3271 0
-2291 4251 0
-2291 1311 0
-2291 -1451 0
2291 -3271 -4251 -1311 1451 0
-331 471 -3271 0
331 3271 0
-471 3271 0
331 -471 -4251 0
-331 4251 0
471 4251 0
-2431 3411 0
-2431 4391 0
-2431 1451 0
-2431 -1591 0
2431 -3411 -4391 -1451 1591 0
-471 611 -3411 0
471 3411 0
-611 3411 0
471 -611 -4391 0
-471 4391 0
611 4391 0
-2571 3551 0
-2571 4531 0
-2571 1591 0
-2571 -1731 0
2571 -3551 -4531 -1591 1731 0
-611 751 -3551 0
611 3551 0
-751 3551 0
611 -751 -4531 0
-611 4531 0
751 4531 0
-2711 3691 0
-2711 4671 0
-2711 1731 0
-2711 -1871 0
2711 -3691 -4671 -1731 1871 0
-751 891 -3691 0
751 3691 0
-891 3691 0
751 -891 -4671 0
-751 4671 0
891 4671 0
5091 6071 0
5091 7051 0
-5091 -6071 -7051 0
-191 51 -6071 0
191 6071 0
-51 6071 0
191 -51 -7051 0
-191 7051 0
51 7051 0
5231 6211 0
5231 7191 0
-5231 -6211 -7191 0
-331 191 -6211 0
331 6211 0
-191 6211 0
331 -191 -7191 0
-331 7191 0
191 7191 0
5371 6351 0
5371 7331 0
-5371 -6351 -7331 0
-471 331 -6351 0
471 6351 0
-331 6351 0
471 -331 -7331 0
-471 7331 0
331 7331 0
5511 6491 0
5511 7471 0
-5511 -6491 -7471 0
-611 471 -6491 0
611 6491 0
-471 6491 0
611 -471 -7471 0
-611 7471 0
471 7471 0
5651 6631 0
5651 7611 0
-5651 -6631 -7611 0
-751 611 -6631 0
751 6631 0
-611 6631 0
751 -611 -7611 0
-751 7611 0
611 7611 0
5791 6771 0
5791 7751 0
-5791 -6771 -7751 0
-891 751 -6771 0
891 6771 0
-751 6771 0
891 -751 -7751 0
-891 7751 0
751 7751 0
1032 0
-1872 0
-2012 2992 0
-2012 3972 0
-2012 1032 0
-2012 -1172 0
2012 -2992 -3972 -1032 1172 0
-52 192 -2992 0
52 2992 0
-192 2992 0
52 -192 -3972 0
-52 3972 0
192 3972 0
-2152 3132 0
-2152 4112 0
-2152 1172 0
-2152 -1312 0
2152 -3132 -4112 -1172 1312 0
-192 332 -3132 0
192 3132 0
-332 3132 0
192 -332 -4112 0
-192 4112 0
332 4112 0
-2292 3272 0
-2292 4252 0
-2292 1312 0
-2292 -1452 0
2292 -3272 -4252 -1312 1452 0
-332 472 -3272 0
332 3272 0
-472 3272 0
332 -472 -4252 0
-332 4252 0
472 4252 0
-2432 3412 0
-2432 4392 0
-2432 1452 0
-2432 -1592 0
2432 -3412 -4392 -1452 1592 0
-472 612 -3412 0
472 3412 0
-612 3412 0
472 -612 -4392 0
-472 4392 0
612 4392 0
-2572 3552 0
-2572 4532 0
-2572 1592 0
-2572 -1732 0
2572 -3552 -4532 -1592 1732 0
-612 752 -3552 0
612 3552 0
-752 3552 0
612 -752 -4532 0
-612 4532 0
752 4532 0
-2712 3692 0
-2712 4672 0
-2712 1732 0
-2712 -1872 0
2712 -3692 -4672 -1732 1872 0
-752 892 -3692 0
752 3692 0
-892 3692 0
752 -892 -4672 0
-752 4672 0
892 4672 0
5092 6072 0
5092 7052 0
-5092 -6072 -7052 0
-192 52 -6072 0
192 6072 0
-52 6072 0
192 -52 -7052 0
-192 7052 0
52 7052 0
5232 6212 0
5232 7192 0
-5232 -6212 -7192 0
-332 192 -6212 0
332 6212 0
-192 6212 0
332 -192 -7192 0
-332 7192 0
192 7192 0
5372 6352 0
5372 7332 0
-5372 -6352 -7332 0
-472 332 -6352 0
472 6352 0
-332 6352 0
472 -332 -7332 0
-472 7332 0
332 7332 0
5512 6492 0
5512 7472 0
-5512 -6492 -7472 0
-612 472 -6492 0
612 6492 0
-472 6492 0
612 -472 -7472 0
-612 7472 0
472 7472 0
5652 6632 0
5652 7612 0
-5652 -6632 -7612 0
-752 612 -6632 0
752 6632 0
-612 6632 0
752 -612 -7612 0
-752 7612 0
612 7612 0
5792 6772 0
5792 7752 0
-5792 -6772 -7752 0
-892 752 -6772 0
892 6772 0
-752 6772 0
892 -752 -7752 0
-892 7752 0
752 7752 0
1033 0
-1873 0
-2013 2993 0
-2013 3973 0
-2013 1033 0
-2013 -1173 0
2013 -2993 -3973 -1033 1173 0
-53 193 -2993 0
53 2993 0
-193 2993 0
53 -193 -3973 0
-53 3973 0
193 3973 0
-2153 3133 0
-2153 4113 0
-2153 1173 0
-2153 -1313 0
2153 -3133 -4113 -1173 1313 0
-193 333 -3133 0
193 3133 0
-333 3133 0
193 -333 -4113 0
-193 4113 0
333 4113 0
-2293 3273 0
-2293 4253 0
-2293 1313 0
-2293 -1453 0
2293 -3273 -4253 -1313 1453 0
-333 473 -3273 0
333 3273 0
-473 3273 0
333 -473 -4253 0
-333 4253 0
473 4253 0
-2433 3413 0
-2433 4393 0
-2433 1453 0
-2433 -1593 0
2433 -3413 -4393 -1453 1593 0
-473 613 -3413 0
473 3413 0
-613 3413 0
473 -613 -4393 0
-473 4393 0
613 4393 0
-2573 3553 0
-2573 4533 0
-2573 1593 0
-2573 -1733 0
2573 -3553 -4533 -1593 1733 0
-613 753 -3553 0
613 3553 0
-753 3553 0
613 -753 -4533 0
-613 4533 0
753 4533 0
-2713 3693 0
-2713 4673 0
-2713 1733 0
-2713 -1873 0
2713 -3693 -4673 -1733 1873 0
-753 893 -3693 0
753 3693 0
-893 3693 0
753 -893 -4673 0
-753 4673 0
893 4673 0
5093 6073 0
5093 7053 0
-5093 -6073 -7053 0
-193 53 -6073 0
193 6073 0
-53 6073 0
193 -53 -7053 0
-193 7053 0
53 7053 0
5233 6213 0
5233 7193 0
-5233 -6213 -7193 0
-333 193 -6213 0
333 6213 0
-193 6213 0
333 -193 -7193 0
-333 7193 0
193 7193 0
5373 6353 0
5373 7333 0
-5373 -6353 -7333 0
-473 333 -6353 0
473 6353 0
-333 6353 0
473 -333 -7333 0
-473 7333 0
333 7333 0
5513 6493 0
5513 7473 0
-5513 -6493 -7473 0
-613 473 -6493 0
613 6493 0
-473 6493 0
613 -473 -7473 0
-613 7473 0
473 7473 0
5653 6633 0
5653 7613 0
-5653 -6633 -7613 0
-753 613 -6633 0
753 6633 0
-613 6633 0
753 -613 -7613 0
-753 7613 0
613 7613 0
5793 6773 0
5793 7753 0
-5793 -6773 -7753 0
-893 753 -6773 0
893 6773 0
-753 6773 0
893 -753 -7753 0
-893 7753 0
753 7753 0
1034 0
-1874 0
-2014 2994 0
-2014 3974 0
-2014 1034 0
-2014 -1174 0
2014 -2994 -3974 -1034 1174 0
-54 194 -2994 0
54 2994 0
-194 2994 0
54 -194 -3974 0
-54 3974 0
194 3974 0
-2154 3134 0
-2154 4114 0
-2154 1174 0
-2154 -1314 0
2154 -3134 -4114 -1174 1314 0
-194 334 -3134 0
194 3134 0
-334 3134 0
194 -334 -4114 0
-194 4114 0
334 4114 0
-2294 3274 0
-2294 4254 0
-2294 1314 0
-2294 -1454 0
2294 -3274 -4254 -1314 1454 0
-334 474 -3274 0
334 3274 0
-474 3274 0
334 -474 -4254 0
-334 4254 0
474 4254 0
-2434 3414 0
-2434 4394 0
-2434 1454 0
-2434 -1594 0
2434 -3414 -4394 -1454 1594 0
-474 614 -3414 0
474 3414 0
-614 3414 0
474 -614 -4394 0
-474 4394 0
614 4394 0
-2574 3554 0
-2574 4534 0
-2574 1594 0
-2574 -1734 0
2574 -3554 -4534 -1594 1734 0
-614 754 -3554 0
614 3554 0
-754 3554 0
614 -754 -4534 0
-614 4534 0
754 4534 0
-2714 3694 0
-2714 4674 0
-2714 1734 0
-2714 -1874 0
2714 -3694 -4674 -1734 1874 0
-754 894 -3694 0
754 3694 0
-894 3694 0
754 -894 -4674 0
-754 4674 0
894 4674 0
5094 6074 0
5094 7054 0
-5094 -6074 -7054 0
-194 54 -6074 0
194 6074 0
-54 6074 0
194 -54 -7054 0
-194 7054 0
54 7054 0
5234 6214 0
5234 7194 0
-5234 -6214 -7194 0
-334 194 -6214 0
334 6214 0
-194 6214 0
334 -194 -7194 0
-334 7194 0
194 7194 0
5374 6354 0
5374 7334 0
-5374 -6354 -7334 0
-474 334 -6354 0
474 6354 0
-334 6354 0
474 -334 -7334 0
-474 7334 0
334 7334 0
5514 6494 0
5514 7474 0
-5514 -6494 -7474 0
-614 474 -6494 0
614 6494 0
-474 6494 0
614 -474 -7474 0
-614 7474 0
474 7474 0
5654 6634 0
5654 7614 0
-5654 -6634 -7614 0
-754 614 -6634 0
754 6634 0
-614 6634 0
754 -614 -7614 0
-754 7614 0
614 7614 0
5794 6774 0
5794 7754 0
-5794 -6774 -7754 0
-894 754 -6774 0
894 6774 0
-754 6774 0
894 -754 -7754 0
-894 7754 0
754 7754 0
1035 0
-1875 0
-2015 2995 0
-2015 3975 0
-2015 1035 0
-2015 -1175 0
2015 -2995 -3975 -1035 1175 0
-55 195 -2995 0
55 2995 0
-195 2995 0
55 -195 -3975 0
-55 3975 0
195 3975 0
-2155 3135 0
-2155 4115 0
-2155 1175 0
-2155 -1315 0
2155 -3135 -4115 -1175 1315 0
-195 335 -3135 0
195 3135 0
-335 3135 0
195 -335 -4115 0
-195 4115 0
335 4115 0
-2295 3275 0
-2295 4255 0
-2295 1315 0
-2295 -1455 0
2295 -3275 -4255 -1315 1455 0
-335 475 -3275 0
335 3275 0
-475 3275 0
335 -475 -4255 0
-335 4255 0
475 4255 0
-2435 3415 0
-2435 4395 0
-2435 1455 0
-2435 -1595 0
2435 -3415 -4395 -1455 1595 0
-475 615 -3415 0
475 3415 0
-615 3415 0
475 -615 -4395 0
-475 4395 0
615 4395 0
-2575 3555 0
-2575 4535 0
-2575 1595 0
-2575 -1735 0
2575 -3555 -4535 -1595 1735 0
-615 755 -3555 0
615 3555 0
-755 3555 0
615 -755 -4535 0
-615 4535 0
755 4535 0
-2715 3695 0
-2715 4675 0
-2715 1735 0
-2715 -1875 0
2715 -3695 -4675 -1735 1875 0
-755 895 -3695 0
755 3695 0
-895 3695 0
755 -895 -4675 0
-755 4675 0
895 4675 0
5095 6075 0
5095 7055 0
-5095 -6075 -7055 0
-195 55 -6075 0
195 6075 0
-55 6075 0
195 -55 -7055 0
-195 7055 0
55 7055 0
5235 6215 0
5235 7195 0
-5235 -6215 -7195 0
-335 195 -6215 0
335 6215 0
-195 6215 0
335 -195 -7195 0
-335 7195 0
195 7195 0
5375 6355 0
5375 7335 0
-5375 -6355 -7335 0
-475 335 -6355 0
475 6355 0
-335 6355 0
475 -335 -7335 0
-475 7335 0
335 7335 0
5515 6495 0
5515 7475 0
-5515 -6495 -7475 0
-615 475 -6495 0
615 6495 0
-475 6495 0
615 -475 -7475 0
-615 7475 0
475 7475 0
5655 6635 0
5655 7615 0
-5655 -6635 -7615 0
-755 615 -6635 0
755 6635 0
-615 6635 0
755 -615 -7615 0
-755 7615 0
615 7615 0
5795 6775 0
5795 7755 0
-5795 -6775 -7755 0
-895 755 -6775 0
895 6775 0
-755 6775 0
895 -755 -7755 0
-895 7755 0
755 7755 0
1036 0
-1876 0
-2016 2996 0
-2016 3976 0
-2016 1036 0
-2016 -1176 0
2016 -2996 -3976 -1036 1176 0
-56 196 -2996 0
56 2996 0
-196 2996 0
56 -196 -3976 0
-56 3976 0
196 3976 0
-2156 3136 0
-2156 4116 0
-2156 1176 0
-2156 -1316 0
2156 -3136 -4116 -1176 1316 0
-196 336 -3136 0
196 3136 0
-336 3136 0
196 -336 -4116 0
-196 4116 0
336 4116 0
-2296 3276 0
-2296 4256 0
-2296 1316 0
-2296 -1456 0
2296 -3276 -4256 -1316 1456 0
-336 476 -3276 0
336 3276 0
-476 3276 0
336 -476 -4256 0
-336 4256 0
476 4256 0
-2436 3416 0
-2436 4396 0
-2436 1456 0
-2436 -1596 0
2436 -3416 -4396 -1456 1596 0
-476 616 -3416 0
476 3416 0
-616 3416 0
476 -616 -4396 0
-476 4396 0
616 4396 0
-2576 3556 0
-2576 4536 0
-2576 1596 0
-2576 -1736 0
2576 -3556 -4536 -1596 1736 0
-616 756 -3556 0
616 3556 0
-756 3556 0
616 -756 -4536 0
-616 4536 0
756 4536 0
-2716 3696 0
-2716 4676 0
-2716 1736 0
-2716 -1876 0
2716 -3696 -4676 -1736 1876 0
-756 896 -3696 0
756 3696 0
-896 3696 0
756 -896 -4676 0
-756 4676 0
896 4676 0
5096 6076 0
5096 7056 0
-5096 -6076 -7056 0
-196 56 -6076 0
196 6076 0
-56 6076 0
196 -56 -7056 0
-196 7056 0
56 7056 0
5236 6216 0
5236 7196 0
-5236 -6216 -7196 0
-336 196 -6216 0
336 6216 0
-196 6216 0
336 -196 -7196 0
-336 7196 0
196 7196 0
5376 6356 0
5376 7336 0
-5376 -6356 -7336 0
-476 336 -6356 0
476 6356 0
-336 6356 0
476 -336 -7336 0
-476 7336 0
336 7336 0
5516 6496 0
5516 7476 0
-5516 -6496 -7476 0
-616 476 -6496 0
616 6496 0
-476 6496 0
616 -476 -7476 0
-616 7476 0
476 7476 0
5656 6636 0
5656 7616 0
-5656 -6636 -7616 0
-756 616 -6636 0
756 6636 0
-616 6636 0
756 -616 -7616 0
-756 7616 0
616 7616 0
5796 6776 0
5796 7756 0
-5796 -6776 -7756 0
-896 756 -6776 0
896 6776 0
-756 6776 0
896 -756 -7756 0
-896 7756 0
756 7756 0
1037 0
-1877 0
-2017 2997 0
-2017 3977 0
-2017 1037 0
-2017 -1177 0
2017 -2997 -3977 -1037 1177 0
-57 197 -2997 0
57 2997 0
-197 2997 0
57 -197 -3977 0
-57 3977 0
197 3977 0
-2157 3137 0
-2157 4117 0
-2157 1177 0
-2157 -1317 0
2157 -3137 -4117 -1177 1317 0
-197 337 -3137 0
197 3137 0
-337 3137 0
197 -337 -4117 0
-197 4117 0
337 4117 0
-2297 3277 0
-2297 4257 0
-2297 1317 0
-2297 -1457 0
2297 -3277 -4257 -1317 1457 0
-337 477 -3277 0
337 3277 0
-477 3277 0
337 -477 -4257 0
-337 4257 0
477 4257 0
-2437 3417 0
-2437 4397 0
-2437 1457 0
-2437 -1597 0
2437 -3417 -4397 -1457 1597 0
-477 617 -3417 0
477 3417 0
-617 3417 0
477 -617 -4397 0
-477 4397 0
617 4397 0
-2577 3557 0
-2577 4537 0
-2577 1597 0
-2577 -1737 0
2577 -3557 -4537 -1597 1737 0
-617 757 -3557 0
617 3557 0
-757 3557 0
617 -757 -4537 0
-617 4537 0
757 4537 0
-2717 3697 0
-2717 4677 0
-2717 1737 0
-2717 -1877 0
2717 -3697 -4677 -1737 1877 0
-757 897 -3697 0
757 3697 0
-897 3697 0
757 -897 -4677 0
-757 4677 0
897 4677 0
5097 6077 0
5097 7057 0
-5097 -6077 -7057 0
-197 57 -6077 0
197 6077 0
-57 6077 0
197 -57 -7057 0
-197 7057 0
57 7057 0
5237 6217 0
5237 7197 0
-5237 -6217 -7197 0
-337 197 -6217 0
337 6217 0
-197 6217 0
337 -197 -7197 0
-337 7197 0
197 7197 0
5377 6357 0
5377 7337 0
-5377 -6357 -7337 0
-477 337 -6357 0
477 6357 0
-337 6357 0
477 -337 -7337 0
-477 7337 0
337 7337 0
5517 6497 0
5517 7477 0
-5517 -6497 -7477 0
-617 477 -6497 0
617 6497 0
-477 6497 0
617 -477 -7477 0
-617 7477 0
477 7477 0
5657 6637 0
5657 7617 0
-5657 -6637 -7617 0
-757 617 -6637 0
757 6637 0
-617 6637 0
757 -617 -7617 0
-757 7617 0
617 7617 0
5797 6777 0
5797 7757 0
-5797 -6777 -7757 0
-897 757 -6777 0
897 6777 0
-757 6777 0
897 -757 -7757 0
-897 7757 0
757 7757 0
1038 0
-1878 0
-2018 2998 0
-2018 3978 0
-2018 1038 0
-2018 -1178 0
2018 -2998 -3978 -1038 1178 0
-58 198 -2998 0
58 2998 0
-198 2998 0
58 -198 -3978 0
-58 3978 0
198 3978 0
-2158 3138 0
-2158 4118 0
-2158 1178 0
-2158 -1318 0
2158 -3138 -4118 -1178 1318 0
-198 338 -3138 0
198 3138 0
-338 3138 0
198 -338 -4118 0
-198 4118 0
338 4118 0
-2298 3278 0
-2298 4258 0
-2298 1318 0
-2298 -1458 0
2298 -3278 -4258 -1318 1458 0
-338 478 -3278 0
338 3278 0
-478 3278 0
338 -478 -4258 0
-338 4258 0
478 4258 0
-2438 3418 0
-2438 4398 0
-2438 1458 0
-2438 -1598 0
2438 -3418 -4398 -1458 1598 0
-478 618 -3418 0
478 3418 0
-618 3418 0
478 -618 -4398 0
-478 4398 0
618 4398 0
-2578 3558 0
-2578 4538 0
-2578 1598 0
-2578 -1738 0
2578 -3558 -4538 -1598 1738 0
-618 758 -3558 0
618 3558 0
-758 3558 0
618 -758 -4538 0
-618 4538 0
758 4538 0
-2718 3698 0
-2718 4678 0
-2718 1738 0
-2718 -1878 0
2718 -3698 -4678 -1738 1878 0
-758 898 -3698 0
758 3698 0
-898 3698 0
758 -898 -4678 0
-758 4678 0
898 4678 0
5098 6078 0
5098 7058 0
-5098 -6078 -7058 0
-198 58 -6078 0
198 6078 0
-58 6078 0
198 -58 -7058 0
-198 7058 0
58 7058 0
5238 6218 0
5238 7198 0
-5238 -6218 -7198 0
-338 198 -6218 0
338 6218 0
-198 6218 0
338 -198 -7198 0
-338 7198 0
198 7198 0
5378 6358 0
5378 7338 0
-5378 -6358 -7338 0
-478 338 -6358 0
478 6358 0
-338 6358 0
478 -338 -7338 0
-478 7338 0
338 7338 0
5518 6498 0
5518 7478 0
-5518 -6498 -7478 0
-618 478 -6498 0
618 6498 0
-478 6498 0
618 -478 -7478 0
-618 7478 0
478 7478 0
5658 6638 0
5658 7618 0
-5658 -6638 -7618 0
-758 618 -6638 0
758 6638 0
-618 6638 0
758 -618 -7618 0
-758 7618 0
618 7618 0
5798 6778 0
5798 7758 0
-5798 -6778 -7758 0
-898 758 -6778 0
898 6778 0
-758 6778 0
898 -758 -7758 0
-898 7758 0
758 7758 0
1039 0
-1879 0
-2019 2999 0
-2019 3979 0
-2019 1039 0
-2019 -1179 0
2019 -2999 -3979 -1039 1179 0
-59 199 -2999 0
59 2999 0
-199 2999 0
59 -199 -3979 0
-59 3979 0
199 3979 0
-2159 3139 0
-2159 4119 0
-2159 1179 0
-2159 -1319 0
2159 -3139 -4119 -1179 1319 0
-199 339 -3139 0
199 3139 0
-339 3139 0
199 -339 -4119 0
-199 4119 0
339 4119 0
-2299 3279 0
-2299 4259 0
-2299 1319 0
-2299 -1459 0
2299 -3279 -4259 -1319 1459 0
-339 479 -3279 0
339 3279 0
-479 3279 0
339 -479 -4259 0
-339 4259 0
479 4259 0
-2439 3419 0
-2439 4399 0
-2439 1459 0
-2439 -1599 0
2439 -3419 -4399 -1459 1599 0
-479 619 -3419 0
479 3419 0
-619 3419 0
479 -619 -4399 0
-479 4399 0
619 4399 0
-2579 3559 0
-2579 4539 0
-2579 1599 0
-2579 -1739 0
2579 -3559 -4539 -1599 1739 0
-619 759 -3559 0
619 3559 0
-759 3559 0
619 -759 -4539 0
-619 4539 0
759 4539 0
-2719 3699 0
-2719 4679 0
-2719 1739 0
-2719 -1879 0
2719 -3699 -4679 -1739 1879 0
-759 899 -3699 0
759 3699 0
-899 3699 0
759 -899 -4679 0
-759 4679 0
899 4679 0
5099 6079 0
5099 7059 0
-5099 -6079 -7059 0
-199 59 -6079 0
199 6079 0
-59 6079 0
199 -59 -7059 0
-199 7059 0
59 7059 0
5239 6219 0
5239 7199 0
-5239 -6219 -7199 0
-339 199 -6219 0
339 6219 0
-199 6219 0
339 -199 -7199 0
-339 7199 0
199 7199 0
5379 6359 0
5379 7339 0
-5379 -6359 -7339 0
-479 339 -6359 0
479 6359 0
-339 6359 0
479 -339 -7339 0
-479 7339 0
339 7339 0
5519 6499 0
5519 7479 0
-5519 -6499 -7479 0
-619 479 -6499 0
619 6499 0
-479 6499 0
619 -479 -7479 0
-619 7479 0
479 7479 0
5659 6639 0
5659 7619 0
-5659 -6639 -7619 0
-759 619 -6639 0
759 6639 0
-619 6639 0
759 -619 -7619 0
-759 7619 0
619 7619 0
5799 6779 0
5799 7759 0
-5799 -6779 -7759 0
-899 759 -6779 0
899 6779 0
-759 6779 0
899 -759 -7759 0
-899 7759 0
759 7759 0
1040 0
-1880 0
-2020 3000 0
-2020 3980 0
-2020 1040 0
-2020 -1180 0
2020 -3000 -3980 -1040 1180 0
-60 200 -3000 0
60 3000 0
-200 3000 0
60 -200 -3980 0
-60 3980 0
200 3980 0
-2160 3140 0
-2160 4120 0
-2160 1180 0
-2160 -1320 0
2160 -3140 -4120 -1180 1320 0
-200 340 -3140 0
200 3140 0
-340 3140 0
200 -340 -4120 0
-200 4120 0
340 4120 0
-2300 3280 0
-2300 4260 0
-2300 1320 0
-2300 -1460 0
2300 -3280 -4260 -1320 1460 0
-340 480 -3280 0
340 3280 0
-480 3280 0
340 -480 -4260 0
-340 4260 0
480 4260 0
-2440 3420 0
-2440 4400 0
-2440 1460 0
-2440 -1600 0
2440 -3420 -4400 -1460 1600 0
-480 620 -3420 0
480 3420 0
-620 3420 0
480 -620 -4400 0
-480 4400 0
620 4400 0
-2580 3560 0
-2580 4540 0
-2580 1600 0
-2580 -1740 0
2580 -3560 -4540 -1600 1740 0
-620 760 -3560 0
620 3560 0
-760 3560 0
620 -760 -4540 0
-620 4540 0
760 4540 0
-2720 3700 0
-2720 4680 0
-2720 1740 0
-2720 -1880 0
2720 -3700 -4680 -1740 1880 0
-760 900 -3700 0
760 3700 0
-900 3700 0
760 -900 -4680 0
-760 4680 0
900 4680 0
5100 6080 0
5100 7060 0
-5100 -6080 -7060 0
-200 60 -6080 0
200 6080 0
-60 6080 0
200 -60 -7060 0
-200 7060 0
60 7060 0
5240 6220 0
5240 7200 0
-5240 -6220 -7200 0
-340 200 -6220 0
340 6220 0
-200 6220 0
340 -200 -7200 0
-340 7200 0
200 7200 0
5380 6360 0
5380 7340 0
-5380 -6360 -7340 0
-480 340 -6360 0
480 6360 0
-340 6360 0
480 -340 -7340 0
-480 7340 0
340 7340 0
5520 6500 0
5520 7480 0
-5520 -6500 -7480 0
-620 480 -6500 0
620 6500 0
-480 6500 0
620 -480 -7480 0
-620 7480 0
480 7480 0
5660 6640 0
5660 7620 0
-5660 -6640 -7620 0
-760 620 -6640 0
760 6640 0
-620 6640 0
760 -620 -7620 0
-760 7620 0
620 7620 0
5800 6780 0
5800 7760 0
-5800 -6780 -7760 0
-900 760 -6780 0
900 6780 0
-760 6780 0
900 -760 -7760 0
-900 7760 0
760 7760 0
1041 0
-1881 0
-2021 3001 0
-2021 3981 0
-2021 1041 0
-2021 -1181 0
2021 -3001 -3981 -1041 1181 0
-61 201 -3001 0
61 3001 0
-201 3001 0
61 -201 -3981 0
-61 3981 0
201 3981 0
-2161 3141 0
-2161 4121 0
-2161 1181 0
-2161 -1321 0
2161 -3141 -4121 -1181 1321 0
-201 341 -3141 0
201 3141 0
-341 3141 0
201 -341 -4121 0
-201 4121 0
341 4121 0
-2301 3281 0
-2301 4261 0
-2301 1321 0
-2301 -1461 0
2301 -3281 -4261 -1321 1461 0
-341 481 -3281 0
341 3281 0
-481 3281 0
341 -481 -4261 0
-341 4261 0
481 4261 0
-2441 3421 0
-2441 4401 0
-2441 1461 0
-2441 -1601 0
2441 -3421 -4401 -1461 1601 0
-481 621 -3421 0
481 3421 0
-621 3421 0
481 -621 -4401 0
-481 4401 0
621 4401 0
-2581 3561 0
-2581 4541 0
-2581 1601 0
-2581 -1741 0
2581 -3561 -4541 -1601 1741 0
-621 761 -3561 0
621 3561 0
-761 3561 0
621 -761 -4541 0
-621 4541 0
761 4541 0
-2721 3701 0
-2721 4681 0
-2721 1741 0
-2721 -1881 0
2721 -3701 -4681 -1741 1881 0
-761 901 -3701 0
761 3701 0
-901 3701 0
761 -901 -4681 0
-761 4681 0
901 4681 0
5101 6081 0
5101 7061 0
-5101 -6081 -7061 0
-201 61 -6081 0
201 6081 0
-61 6081 0
201 -61 -7061 0
-201 7061 0
61 7061 0
5241 6221 0
5241 7201 0
-5241 -6221 -7201 0
-341 201 -6221 0
341 6221 0
-201 6221 0
341 -201 -7201 0
-341 7201 0
201 7201 0
5381 6361 0
5381 7341 0
-5381 -6361 -7341 0
-481 341 -6361 0
481 6361 0
-341 6361 0
481 -341 -7341 0
-481 7341 0
341 7341 0
5521 6501 0
5521 7481 0
-5521 -6501 -7481 0
-621 481 -6501 0
621 6501 0
-481 6501 0
621 -481 -7481 0
-621 7481 0
481 7481 0
5661 6641 0
5661 7621 0
-5661 -6641 -7621 0
-761 621 -6641 0
761 6641 0
-621 6641 0
761 -621 -7621 0
-761 7621 0
621 7621 0
5801 6781 0
5801 7761 0
-5801 -6781 -7761 0
-901 761 -6781 0
901 6781 0
-761 6781 0
901 -761 -7761 0
-901 7761 0
761 7761 0
1042 0
-1882 0
-2022 3002 0
-2022 3982 0
-2022 1042 0
-2022 -1182 0
2022 -3002 -3982 -1042 1182 0
-62 202 -3002 0
62 3002 0
-202 3002 0
62 -202 -3982 0
-62 3982 0
202 3982 0
-2162 3142 0
-2162 4122 0
-2162 1182 0
-2162 -1322 0
2162 -3142 -4122 -1182 1322 0
-202 342 -3142 0
202 3142 0
-342 3142 0
202 -342 -4122 0
-202 4122 0
342 4122 0
-2302 3282 0
-2302 4262 0
-2302 1322 0
-2302 -1462 0
2302 -3282 -4262 -1322 1462 0
-342 482 -3282 0
342 3282 0
-482 3282 0
342 -482 -4262 0
-342 4262 0
482 4262 0
-2442 3422 0
-2442 4402 0
-2442 1462 0
-2442 -1602 0
2442 -3422 -4402 -1462 1602 0
-482 622 -3422 0
482 3422 0
-622 3422 0
482 -622 -4402 0
-482 4402 0
622 4402 0
-2582 3562 0
-2582 4542 0
-2582 1602 0
-2582 -1742 0
2582 -3562 -4542 -1602 1742 0
-622 762 -3562 0
622 3562 0
-762 3562 0
622 -762 -4542 0
-622 4542 0
762 4542 0
-2722 3702 0
-2722 4682 0
-2722 1742 0
-2722 -1882 0
2722 -3702 -4682 -1742 1882 0
-762 902 -3702 0
762 3702 0
-902 3702 0
762 -902 -4682 0
-762 4682 0
902 4682 0
5102 6082 0
5102 7062 0
-5102 -6082 -7062 0
-202 62 -6082 0
202 6082 0
-62 6082 0
202 -62 -7062 0
-202 7062 0
62 7062 0
5242 6222 0
5242 7202 0
-5242 -6222 -7202 0
-342 202 -6222 0
342 6222 0
-202 6222 0
342 -202 -7202 0
-342 7202 0
202 7202 0
5382 6362 0
5382 7342 0
-5382 -6362 -7342 0
-482 342 -6362 0
482 6362 0
-342 6362 0
482 -342 -7342 0
-482 7342 0
342 7342 0
5522 6502 0
5522 7482 0
-5522 -6502 -7482 0
-622 482 -6502 0
622 6502 0
-482 6502 0
622 -482 -7482 0
-622 7482 0
482 7482 0
5662 6642 0
5662 7622 0
-5662 -6642 -7622 0
-762 622 -6642 0
762 6642 0
-622 6642 0
762 -622 -7622 0
-762 7622 0
622 7622 0
5802 6782 0
5802 7762 0
-5802 -6782 -7762 0
-902 762 -6782 0
902 6782 0
-762 6782 0
902 -762 -7762 0
-902 7762 0
762 7762 0
1043 0
-1883 0
-2023 3003 0
-2023 3983 0
-2023 1043 0
-2023 -1183 0
2023 -3003 -3983 -1043 1183 0
-63 203 -3003 0
63 3003 0
-203 3003 0
63 -203 -3983 0
-63 3983 0
203 3983 0
-2163 3143 0
-2163 4123 0
-2163 1183 0
-2163 -1323 0
2163 -3143 -4123 -1183 1323 0
-203 343 -3143 0
203 3143 0
-343 3143 0
203 -343 -4123 0
-203 4123 0
343 4123 0
-2303 3283 0
-2303 4263 0
-2303 1323 0
-2303 -1463 0
2303 -3283 -4263 -1323 1463 0
-343 483 -3283 0
343 3283 0
-483 3283 0
343 -483 -4263 0
-343 4263 0
483 4263 0
-2443 3423 0
-2443 4403 0
-2443 1463 0
-2443 -1603 0
2443 -3423 -4403 -1463 1603 0
-483 623 -3423 0
483 3423 0
-623 3423 0
483 -623 -4403 0
-483 4403 0
623 4403 0
-2583 3563 0
-2583 4543 0
-2583 1603 0
-2583 -1743 0
2583 -3563 -4543 -1603 1743 0
-623 763 -3563 0
623 3563 0
-763 3563 0
623 -763 -4543 0
-623 4543 0
763 4543 0
-2723 3703 0
-2723 4683 0
-2723 1743 0
-2723 -1883 0
2723 -3703 -4683 -1743 1883 0
-763 903 -3703 0
763 3703 0
-903 3703 0
763 -903 -4683 0
-763 4683 0
903 4683 0
5103 6083 0
5103 7063 0
-5103 -6083 -7063 0
-203 63 -6083 0
203 6083 0
-63 6083 0
203 -63 -7063 0
-203 7063 0
63 7063 0
5243 6223 0
5243 7203 0
-5243 -6223 -7203 0
-343 203 -6223 0
343 6223 0
-203 6223 0
343 -203 -7203 0
-343 7203 0
203 7203 0
5383 6363 0
5383 7343 0
-5383 -6363 -7343 0
-483 343 -6363 0
483 6363 0
-343 6363 0
483 -343 -7343 0
-483 7343 0
343 7343 0
5523 6503 0
5523 7483 0
-5523 -6503 -7483 0
-623 483 -6503 0
623 6503 0
-483 6503 0
623 -483 -7483 0
-623 7483 0
483 7483 0
5663 6643 0
5663 7623 0
-5663 -6643 -7623 0
-763 623 -6643 0
763 6643 0
-623 6643 0
763 -623 -7623 0
-763 7623 0
623 7623 0
5803 6783 0
5803 7763 0
-5803 -6783 -7763 0
-903 763 -6783 0
903 6783 0
-763 6783 0
903 -763 -7763 0
-903 7763 0
763 7763 0
1044 0
-1884 0
-2024 3004 0
-2024 3984 0
-2024 1044 0
-2024 -1184 0
2024 -3004 -3984 -1044 1184 0
-64 204 -3004 0
64 3004 0
-204 3004 0
64 -204 -3984 0
-64 3984 0
204 3984 0
-2164 3144 0
-2164 4124 0
-2164 1184 0
-2164 -1324 0
2164 -3144 -4124 -1184 1324 0
-204 344 -3144 0
204 3144 0
-344 3144 0
204 -344 -4124 0
-204 4124 0
344 4124 0
-2304 3284 0
-2304 4264 0
-2304 1324 0
-2304 -1464 0
2304 -3284 -4264 -1324 1464 0
-344 484 -3284 0
344 3284 0
-484 3284 0
344 -484 -4264 0
-344 4264 0
484 4264 0
-2444 3424 0
-2444 4404 0
-2444 1464 0
-2444 -1604 0
2444 -3424 -4404 -1464 1604 0
-484 624 -3424 0
484 3424 0
-624 3424 0
484 -624 -4404 0
-484 4404 0
624 4404 0
-2584 3564 0
-2584 4544 0
-2584 1604 0
-2584 -1744 0
2584 -3564 -4544 -1604 1744 0
-624 764 -3564 0
624 3564 0
-764 3564 0
624 -764 -4544 0
-624 4544 0
764 4544 0
-2724 3704 0
-2724 4684 0
-2724 1744 0
-2724 -1884 0
2724 -3704 -4684 -1744 1884 0
-764 904 -3704 0
764 3704 0
-904 3704 0
764 -904 -4684 0
-764 4684 0
904 4684 0
5104 6084 0
5104 7064 0
-5104 -6084 -7064 0
-204 64 -6084 0
204 6084 0
-64 6084 0
204 -64 -7064 0
-204 7064 0
64 7064 0
5244 6224 0
5244 7204 0
-5244 -6224 -7204 0
-344 204 -6224 0
344 6224 0
-204 6224 0
344 -204 -7204 0
-344 7204 0
204 7204 0
5384 6364 0
5384 7344 0
-5384 -6364 -7344 0
-484 344 -6364 0
484 6364 0
-344 6364 0
484 -344 -7344 0
-484 7344 0
344 7344 0
5524 6504 0
5524 7484 0
-5524 -6504 -7484 0
-624 484 -6504 0
624 6504 0
-484 6504 0
624 -484 -7484 0
-624 7484 0
484 7484 0
5664 6644 0
5664 7624 0
-5664 -6644 -7624 0
-764 624 -6644 0
764 6644 0
-624 6644 0
764 -624 -7624 0
-764 7624 0
624 7624 0
5804 6784 0
5804 7764 0
-5804 -6784 -7764 0
-904 764 -6784 0
904 6784 0
-764 6784 0
904 -764 -7764 0
-904 7764 0
764 7764 0
1045 0
-1885 0
-2025 3005 0
-2025 3985 0
-2025 1045 0
-2025 -1185 0
2025 -3005 -3985 -1045 1185 0
-65 205 -3005 0
65 3005 0
-205 3005 0
65 -205 -3985 0
-65 3985 0
205 3985 0
-2165 3145 0
-2165 4125 0
-2165 1185 0
-2165 -1325 0
2165 -3145 -4125 -1185 1325 0
-205 345 -3145 0
205 3145 0
-345 3145 0
205 -345 -4125 0
-205 4125 0
345 4125 0
-2305 3285 0
-2305 4265 0
-2305 1325 0
-2305 -1465 0
2305 -3285 -4265 -1325 1465 0
-345 485 -3285 0
345 3285 0
-485 3285 0
345 -485 -4265 0
-345 4265 0
485 4265 0
-2445 3425 0
-2445 4405 0
-2445 1465 0
-2445 -1605 0
2445 -3425 -4405 -1465 1605 0
-485 625 -3425 0
485 3425 0
-625 3425 0
485 -625 -4405 0
-485 4405 0
625 4405 0
-2585 3565 0
-2585 4545 0
-2585 1605 0
-2585 -1745 0
2585 -3565 -4545 -1605 1745 0
-625 765 -3565 0
625 3565 0
-765 3565 0
625 -765 -4545 0
-625 4545 0
765 4545 0
-2725 3705 0
-2725 4685 0
-2725 1745 0
-2725 -1885 0
2725 -3705 -4685 -1745 1885 0
-765 905 -3705 0
765 3705 0
-905 3705 0
765 -905 -4685 0
-765 4685 0
905 4685 0
5105 6085 0
5105 7065 0
-5105 -6085 -7065 0
-205 65 -6085 0
205 6085 0
-65 6085 0
205 -65 -7065 0
-205 7065 0
65 7065 0
5245 6225 0
5245 7205 0
-5245 -6225 -7205 0
-345 205 -6225 0
345 6225 0
-205 6225 0
345 -205 -7205 0
-345 7205 0
205 7205 0
5385 6365 0
5385 7345 0
-5385 -6365 -7345 0
-485 345 -6365 0
485 6365 0
-345 6365 0
485 -345 -7345 0
-485 7345 0
345 7345 0
5525 6505 0
5525 7485 0
-5525 -6505 -7485 0
-625 485 -6505 0
625 6505 0
-485 6505 0
625 -485 -7485 0
-625 7485 0
485 7485 0
5665 6645 0
5665 7625 0
-5665 -6645 -7625 0
-765 625 -6645 0
765 6645 0
-625 6645 0
765 -625 -7625 0
-765 7625 0
625 7625 0
5805 6785 0
5805 7765 0
-5805 -6785 -7765 0
-905 765 -6785 0
905 6785 0
-765 6785 0
905 -765 -7765 0
-905 7765 0
765 7765 0
1046 0
-1886 0
-2026 3006 0
-2026 3986 0
-2026 1046 0
-2026 -1186 0
2026 -3006 -3986 -1046 1186 0
-66 206 -3006 0
66 3006 0
-206 3006 0
66 -206 -3986 0
-66 3986 0
206 3986 0
-2166 3146 0
-2166 4126 0
-2166 1186 0
-2166 -1326 0
2166 -3146 -4126 -1186 1326 0
-206 346 -3146 0
206 3146 0
-346 3146 0
206 -346 -4126 0
-206 4126 0
346 4126 0
-2306 3286 0
-2306 4266 0
-2306 1326 0
-2306 -1466 0
2306 -3286 -4266 -1326 1466 0
-346 486 -3286 0
346 3286 0
-486 3286 0
346 -486 -4266 0
-346 4266 0
486 4266 0
-2446 3426 0
-2446 4406 0
-2446 1466 0
-2446 -1606 0
2446 -3426 -4406 -1466 1606 0
-486 626 -3426 0
486 3426 0
-626 3426 0
486 -626 -4406 0
-486 4406 0
626 4406 0
-2586 3566 0
-2586 4546 0
-2586 1606 0
-2586 -1746 0
2586 -3566 -4546 -1606 1746 0
-626 766 -3566 0
626 3566 0
-766 3566 0
626 -766 -4546 0
-626 4546 0
766 4546 0
-2726 3706 0
-2726 4686 0
-2726 1746 0
-2726 -1886 0
2726 -3706 -4686 -1746 1886 0
-766 906 -3706 0
766 3706 0
-906 3706 0
766 -906 -4686 0
-766 4686 0
906 4686 0
5106 6086 0
5106 7066 0
-5106 -6086 -7066 0
-206 66 -6086 0
206 6086 0
-66 6086 0
206 -66 -7066 0
-206 7066 0
66 7066 0
5246 6226 0
5246 7206 0
-5246 -6226 -7206 0
-346 206 -6226 0
346 6226 0
-206 6226 0
346 -206 -7206 0
-346 7206 0
206 7206 0
5386 6366 0
5386 7346 0
-5386 -6366 -7346 0
-486 346 -6366 0
486 6366 0
-346 6366 0
486 -346 -7346 0
-486 7346 0
346 7346 0
5526 6506 0
5526 7486 0
-5526 -6506 -7486 0
-626 486 -6506 0
626 6506 0
-486 6506 0
626 -486 -7486 0
-626 7486 0
486 7486 0
5666 6646 0
5666 7626 0
-5666 -6646 -7626 0
-766 626 -6646 0
766 6646 0
-626 6646 0
766 -626 -7626 0
-766 7626 0
626 7626 0
5806 6786 0
5806 7766 0
-5806 -6786 -7766 0
-906 766 -6786 0
906 6786 0
-766 6786 0
906 -766 -7766 0
-906 7766 0
766 7766 0
1047 0
-1887 0
-2027 3007 0
-2027 3987 0
-2027 1047 0
-2027 -1187 0
2027 -3007 -3987 -1047 1187 0
-67 207 -3007 0
67 3007 0
-207 3007 0
67 -207 -3987 0
-67 3987 0
207 3987 0
-2167 3147 0
-2167 4127 0
-2167 1187 0
-2167 -1327 0
2167 -3147 -4127 -1187 1327 0
-207 347 -3147 0
207 3147 0
-347 3147 0
207 -347 -4127 0
-207 4127 0
347 4127 0
-2307 3287 0
-2307 4267 0
-2307 1327 0
-2307 -1467 0
2307 -3287 -4267 -1327 1467 0
-347 487 -3287 0
347 3287 0
-487 3287 0
347 -487 -4267 0
-347 4267 0
487 4267 0
-2447 3427 0
-2447 4407 0
-2447 1467 0
-2447 -1607 0
2447 -3427 -4407 -1467 1607 0
-487 627 -3427 0
487 3427 0
-627 3427 0
487 -627 -4407 0
-487 4407 0
627 4407 0
-2587 3567 0
-2587 4547 0
-2587 1607 0
-2587 -1747 0
2587 -3567 -4547 -1607 1747 0
-627 767 -3567 0
627 3567 0
-767 3567 0
627 -767 -4547 0
-627 4547 0
767 4547 0
-2727 3707 0
-2727 4687 0
-2727 1747 0
-2727 -1887 0
2727 -3707 -4687 -1747 1887 0
-767 907 -3707 0
767 3707 0
-907 3707 0
767 -907 -4687 0
-767 4687 0
907 4687 0
5107 6087 0
5107 7067 0
-5107 -6087 -7067 0
-207 67 -6087 0
207 6087 0
-67 6087 0
207 -67 -7067 0
-207 7067 0
67 7067 0
5247 6227 0
5247 7207 0
-5247 -6227 -7207 0
-347 207 -6227 0
347 6227 0
-207 6227 0
347 -207 -7207 0
-347 7207 0
207 7207 0
5387 6367 0
5387 7347 0
-5387 -6367 -7347 0
-487 347 -6367 0
487 6367 0
-347 6367 0
487 -347 -7347 0
-487 7347 0
347 7347 0
5527 6507 0
5527 7487 0
-5527 -6507 -7487 0
-627 487 -6507 0
627 6507 0
-487 6507 0
627 -487 -7487 0
-627 7487 0
487 7487 0
5667 6647 0
5667 7627 0
-5667 -6647 -7627 0
-767 627 -6647 0
767 6647 0
-627 6647 0
767 -627 -7627 0
-767 7627 0
627 7627 0
5807 6787 0
5807 7767 0
-5807 -6787 -7767 0
-907 767 -6787 0
907 6787 0
-767 6787 0
907 -767 -7767 0
-907 7767 0
767 7767 0
1048 0
-1888 0
-2028 3008 0
-2028 3988 0
-2028 1048 0
-2028 -1188 0
2028 -3008 -3988 -1048 1188 0
-68 208 -3008 0
68 3008 0
-208 3008 0
68 -208 -3988 0
-68 3988 0
208 3988 0
-2168 3148 0
-2168 4128 0
-2168 1188 0
-2168 -1328 0
2168 -3148 -4128 -1188 1328 0
-208 348 -3148 0
208 3148 0
-348 3148 0
208 -348 -4128 0
-208 4128 0
348 4128 0
-2308 3288 0
-2308 4268 0
-2308 1328 0
-2308 -1468 0
2308 -3288 -4268 -1328 1468 0
-348 488 -3288 0
348 3288 0
-488 3288 0
348 -488 -4268 0
-348 4268 0
488 4268 0
-2448 3428 0
-2448 4408 0
-2448 1468 0
-2448 -1608 0
2448 -3428 -4408 -1468 1608 0
-488 628 -3428 0
488 3428 0
-628 3428 0
488 -628 -4408 0
-488 4408 0
628 4408 0
-2588 3568 0
-2588 4548 0
-2588 1608 0
-2588 -1748 0
2588 -3568 -4548 -1608 1748 0
-628 768 -3568 0
628 3568 0
-768 3568 0
628 -768 -4548 0
-628 4548 0
768 4548 0
-2728 3708 0
-2728 4688 0
-2728 1748 0
-2728 -1888 0
2728 -3708 -4688 -1748 1888 0
-768 908 -3708 0
768 3708 0
-908 3708 0
768 -908 -4688 0
-768 4688 0
908 4688 0
5108 6088 0
5108 7068 0
-5108 -6088 -7068 0
-208 68 -6088 0
208 6088 0
-68 6088 0
208 -68 -7068 0
-208 7068 0
68 7068 0
5248 6228 0
5248 7208 0
-5248 -6228 -7208 0
-348 208 -6228 0
348 6228 0
-208 6228 0
348 -208 -7208 0
-348 7208 0
208 7208 0
5388 6368 0
5388 7348 0
-5388 -6368 -7348 0
-488 348 -6368 0
488 6368 0
-348 6368 0
488 -348 -7348 0
-488 7348 0
348 7348 0
5528 6508 0
5528 7488 0
-5528 -6508 -7488 0
-628 488 -6508 0
628 6508 0
-488 6508 0
628 -488 -7488 0
-628 7488 0
488 7488 0
5668 6648 0
5668 7628 0
-5668 -6648 -7628 0
-768 628 -6648 0
768 6648 0
-628 6648 0
768 -628 -7628 0
-768 7628 0
628 7628 0
5808 6788 0
5808 7768 0
-5808 -6788 -7768 0
-908 768 -6788 0
908 6788 0
-768 6788 0
908 -768 -7768 0
-908 7768 0
768 7768 0
1049 0
-1889 0
-2029 3009 0
-2029 3989 0
-2029 1049 0
-2029 -1189 0
2029 -3009 -3989 -1049 1189 0
-69 209 -3009 0
69 3009 0
-209 3009 0
69 -209 -3989 0
-69 3989 0
209 3989 0
-2169 3149 0
-2169 4129 0
-2169 1189 0
-2169 -1329 0
2169 -3149 -4129 -1189 1329 0
-209 349 -3149 0
209 3149 0
-349 3149 0
209 -349 -4129 0
-209 4129 0
349 4129 0
-2309 3289 0
-2309 4269 0
-2309 1329 0
-2309 -1469 0
2309 -3289 -4269 -1329 1469 0
-349 489 -3289 0
349 3289 0
-489 3289 0
349 -489 -4269 0
-349 4269 0
489 4269 0
-2449 3429 0
-2449 4409 0
-2449 1469 0
-2449 -1609 0
2449 -3429 -4409 -1469 1609 0
-489 629 -3429 0
489 3429 0
-629 3429 0
489 -629 -4409 0
-489 4409 0
629 4409 0
-2589 3569 0
-2589 4549 0
-2589 1609 0
-2589 -1749 0
2589 -3569 -4549 -1609 1749 0
-629 769 -3569 0
629 3569 0
-769 3569 0
629 -769 -4549 0
-629 4549 0
769 4549 0
-2729 3709 0
-2729 4689 0
-2729 1749 0
-2729 -1889 0
2729 -3709 -4689 -1749 1889 0
-769 909 -3709 0
769 3709 0
-909 3709 0
769 -909 -4689 0
-769 4689 0
909 4689 0
5109 6089 0
5109 7069 0
-5109 -6089 -7069 0
-209 69 -6089 0
209 6089 0
-69 6089 0
209 -69 -7069 0
-209 7069 0
69 7069 0
5249 6229 0
5249 7209 0
-5249 -6229 -7209 0
-349 209 -6229 0
349 6229 0
-209 6229 0
349 -209 -7209 0
-349 7209 0
209 7209 0
5389 6369 0
5389 7349 0
-5389 -6369 -7349 0
-489 349 -6369 0
489 6369 0
-349 6369 0
489 -349 -7349 0
-489 7349 0
349 7349 0
5529 6509 0
5529 7489 0
-5529 -6509 -7489 0
-629 489 -6509 0
629 6509 0
-489 6509 0
629 -489 -7489 0
-629 7489 0
489 7489 0
5669 6649 0
5669 7629 0
-5669 -6649 -7629 0
-769 629 -6649 0
769 6649 0
-629 6649 0
769 -629 -7629 0
-769 7629 0
629 7629 0
5809 6789 0
5809 7769 0
-5809 -6789 -7769 0
-909 769 -6789 0
909 6789 0
-769 6789 0
909 -769 -7769 0
-909 7769 0
769 7769 0
1050 0
-1890 0
-2030 3010 0
-2030 3990 0
-2030 1050 0
-2030 -1190 0
2030 -3010 -3990 -1050 1190 0
-70 210 -3010 0
70 3010 0
-210 3010 0
70 -210 -3990 0
-70 3990 0
210 3990 0
-2170 3150 0
-2170 4130 0
-2170 1190 0
-2170 -1330 0
2170 -3150 -4130 -1190 1330 0
-210 350 -3150 0
210 3150 0
-350 3150 0
210 -350 -4130 0
-210 4130 0
350 4130 0
-2310 3290 0
-2310 4270 0
-2310 1330 0
-2310 -1470 0
2310 -3290 -4270 -1330 1470 0
-350 490 -3290 0
350 3290 0
-490 3290 0
350 -490 -4270 0
-350 4270 0
490 4270 0
-2450 3430 0
-2450 4410 0
-2450 1470 0
-2450 -1610 0
2450 -3430 -4410 -1470 1610 0
-490 630 -3430 0
490 3430 0
-630 3430 0
490 -630 -4410 0
-490 4410 0
630 4410 0
-2590 3570 0
-2590 4550 0
-2590 1610 0
-2590 -1750 0
2590 -3570 -4550 -1610 1750 0
-630 770 -3570 0
630 3570 0
-770 3570 0
630 -770 -4550 0
-630 4550 0
770 4550 0
-2730 3710 0
-2730 4690 0
-2730 1750 0
-2730 -1890 0
2730 -3710 -4690 -1750 1890 0
-770 910 -3710 0
770 3710 0
-910 3710 0
770 -910 -4690 0
-770 4690 0
910 4690 0
5110 6090 0
5110 7070 0
-5110 -6090 -7070 0
-210 70 -6090 0
210 6090 0
-70 6090 0
210 -70 -7070 0
-210 7070 0
70 7070 0
5250 6230 0
5250 7210 0
-5250 -6230 -7210 0
-350 210 -6230 0
350 6230 0
-210 6230 0
350 -210 -7210 0
-350 7210 0
210 7210 0
5390 6370 0
5390 7350 0
-5390 -6370 -7350 0
-490 350 -6370 0
490 6370 0
-350 6370 0
490 -350 -7350 0
-490 7350 0
350 7350 0
5530 6510 0
5530 7490 0
-5530 -6510 -7490 0
-630 490 -6510 0
630 6510 0
-490 6510 0
630 -490 -7490 0
-630 7490 0
490 7490 0
5670 6650 0
5670 7630 0
-5670 -6650 -7630 0
-770 630 -6650 0
770 6650 0
-630 6650 0
770 -630 -7630 0
-770 7630 0
630 7630 0
5810 6790 0
5810 7770 0
-5810 -6790 -7770 0
-910 770 -6790 0
910 6790 0
-770 6790 0
910 -770 -7770 0
-910 7770 0
770 7770 0
1051 0
-1891 0
-2031 3011 0
-2031 3991 0
-2031 1051 0
-2031 -1191 0
2031 -3011 -3991 -1051 1191 0
-71 211 -3011 0
71 3011 0
-211 3011 0
71 -211 -3991 0
-71 3991 0
211 3991 0
-2171 3151 0
-2171 4131 0
-2171 1191 0
-2171 -1331 0
2171 -3151 -4131 -1191 1331 0
-211 351 -3151 0
211 3151 0
-351 3151 0
211 -351 -4131 0
-211 4131 0
351 4131 0
-2311 3291 0
-2311 4271 0
-2311 1331 0
-2311 -1471 0
2311 -3291 -4271 -1331 1471 0
-351 491 -3291 0
351 3291 0
-491 3291 0
351 -491 -4271 0
-351 4271 0
491 4271 0
-2451 3431 0
-2451 4411 0
-2451 1471 0
-2451 -1611 0
2451 -3431 -4411 -1471 1611 0
-491 631 -3431 0
491 3431 0
-631 3431 0
491 -631 -4411 0
-491 4411 0
631 4411 0
-2591 3571 0
-2591 4551 0
-2591 1611 0
-2591 -1751 0
2591 -3571 -4551 -1611 1751 0
-631 771 -3571 0
631 3571 0
-771 3571 0
631 -771 -4551 0
-631 4551 0
771 4551 0
-2731 3711 0
-2731 4691 0
-2731 1751 0
-2731 -1891 0
2731 -3711 -4691 -1751 1891 0
-771 911 -3711 0
771 3711 0
-911 3711 0
771 -911 -4691 0
-771 4691 0
911 4691 0
5111 6091 0
5111 7071 0
-5111 -6091 -7071 0
-211 71 -6091 0
211 6091 0
-71 6091 0
211 -71 -7071 0
-211 7071 0
71 7071 0
5251 6231 0
5251 7211 0
-5251 -6231 -7211 0
-351 211 -6231 0
351 6231 0
-211 6231 0
351 -211 -7211 0
-351 7211 0
211 7211 0
5391 6371 0
5391 7351 0
-5391 -6371 -7351 0
-491 351 -6371 0
491 6371 0
-351 6371 0
491 -351 -7351 0
-491 7351 0
351 7351 0
5531 6511 0
5531 7491 0
-5531 -6511 -7491 0
-631 491 -6511 0
631 6511 0
-491 6511 0
631 -491 -7491 0
-631 7491 0
491 7491 0
5671 6651 0
5671 7631 0
-5671 -6651 -7631 0
-771 631 -6651 0
771 6651 0
-631 6651 0
771 -631 -7631 0
-771 7631 0
631 7631 0
5811 6791 0
5811 7771 0
-5811 -6791 -7771 0
-911 771 -6791 0
911 6791 0
-771 6791 0
911 -771 -7771 0
-911 7771 0
771 7771 0
1052 0
-1892 0
-2032 3012 0
-2032 3992 0
-2032 1052 0
-2032 -1192 0
2032 -3012 -3992 -1052 1192 0
-72 212 -3012 0
72 3012 0
-212 3012 0
72 -212 -3992 0
-72 3992 0
212 3992 0
-2172 3152 0
-2172 4132 0
-2172 1192 0
-2172 -1332 0
2172 -3152 -4132 -1192 1332 0
-212 352 -3152 0
212 3152 0
-352 3152 0
212 -352 -4132 0
-212 4132 0
352 4132 0
-2312 3292 0
-2312 4272 0
-2312 1332 0
-2312 -1472 0
2312 -3292 -4272 -1332 1472 0
-352 492 -3292 0
352 3292 0
-492 3292 0
352 -492 -4272 0
-352 4272 0
492 4272 0
-2452 3432 0
-2452 4412 0
-2452 1472 0
-2452 -1612 0
2452 -3432 -4412 -1472 1612 0
-492 632 -3432 0
492 3432 0
-632 3432 0
492 -632 -4412 0
-492 4412 0
632 4412 0
-2592 3572 0
-2592 4552 0
-2592 1612 0
-2592 -1752 0
2592 -3572 -4552 -1612 1752 0
-632 772 -3572 0
632 3572 0
-772 3572 0
632 -772 -4552 0
-632 4552 0
772 4552 0
-2732 3712 0
-2732 4692 0
-2732 1752 0
-2732 -1892 0
2732 -3712 -4692 -1752 1892 0
-772 912 -3712 0
772 3712 0
-912 3712 0
772 -912 -4692 0
-772 4692 0
912 4692 0
5112 6092 0
5112 7072 0
-5112 -6092 -7072 0
-212 72 -6092 0
212 6092 0
-72 6092 0
212 -72 -7072 0
-212 7072 0
72 7072 0
5252 6232 0
5252 7212 0
-5252 -6232 -7212 0
-352 212 -6232 0
352 6232 0
-212 6232 0
352 -212 -7212 0
-352 7212 0
212 7212 0
5392 6372 0
5392 7352 0
-5392 -6372 -7352 0
-492 352 -6372 0
492 6372 0
-352 6372 0
492 -352 -7352 0
-492 7352 0
352 7352 0
5532 6512 0
5532 7492 0
-5532 -6512 -7492 0
-632 492 -6512 0
632 6512 0
-492 6512 0
632 -492 -7492 0
-632 7492 0
492 7492 0
5672 6652 0
5672 7632 0
-5672 -6652 -7632 0
-772 632 -6652 0
772 6652 0
-632 6652 0
772 -632 -7632 0
-772 7632 0
632 7632 0
5812 6792 0
5812 7772 0
-5812 -6792 -7772 0
-912 772 -6792 0
912 6792 0
-772 6792 0
912 -772 -7772 0
-912 7772 0
772 7772 0
1053 0
-1893 0
-2033 3013 0
-2033 3993 0
-2033 1053 0
-2033 -1193 0
2033 -3013 -3993 -1053 1193 0
-73 213 -3013 0
73 3013 0
-213 3013 0
73 -213 -3993 0
-73 3993 0
213 3993 0
-2173 3153 0
-2173 4133 0
-2173 1193 0
-2173 -1333 0
2173 -3153 -4133 -1193 1333 0
-213 353 -3153 0
213 3153 0
-353 3153 0
213 -353 -4133 0
-213 4133 0
353 4133 0
-2313 3293 0
-2313 4273 0
-2313 1333 0
-2313 -1473 0
2313 -3293 -4273 -1333 1473 0
-353 493 -3293 0
353 3293 0
-493 3293 0
353 -493 -4273 0
-353 4273 0
493 4273 0
-2453 3433 0
-2453 4413 0
-2453 1473 0
-2453 -1613 0
2453 -3433 -4413 -1473 1613 0
-493 633 -3433 0
493 3433 0
-633 3433 0
493 -633 -4413 0
-493 4413 0
633 4413 0
-2593 3573 0
-2593 4553 0
-2593 1613 0
-2593 -1753 0
2593 -3573 -4553 -1613 1753 0
-633 773 -3573 0
633 3573 0
-773 3573 0
633 -773 -4553 0
-633 4553 0
773 4553 0
-2733 3713 0
-2733 4693 0
-2733 1753 0
-2733 -1893 0
2733 -3713 -4693 -1753 1893 0
-773 913 -3713 0
773 3713 0
-913 3713 0
773 -913 -4693 0
-773 4693 0
913 4693 0
5113 6093 0
5113 7073 0
-5113 -6093 -7073 0
-213 73 -6093 0
213 6093 0
-73 6093 0
213 -73 -7073 0
-213 7073 0
73 7073 0
5253 6233 0
5253 7213 0
-5253 -6233 -7213 0
-353 213 -6233 0
353 6233 0
-213 6233 0
353 -213 -7213 0
-353 7213 0
213 7213 0
5393 6373 0
5393 7353 0
-5393 -6373 -7353 0
-493 353 -6373 0
493 6373 0
-353 6373 0
493 -353 -7353 0
-493 7353 0
353 7353 0
5533 6513 0
5533 7493 0
-5533 -6513 -7493 0
-633 493 -6513 0
633 6513 0
-493 6513 0
633 -493 -7493 0
-633 7493 0
493 7493 0
5673 6653 0
5673 7633 0
-5673 -6653 -7633 0
-773 633 -6653 0
773 6653 0
-633 6653 0
773 -633 -7633 0
-773 7633 0
633 7633 0
5813 6793 0
5813 7773 0
-5813 -6793 -7773 0
-913 773 -6793 0
913 6793 0
-773 6793 0
913 -773 -7773 0
-913 7773 0
773 7773 0
1054 0
-1894 0
-2034 3014 0
-2034 3994 0
-2034 1054 0
-2034 -1194 0
2034 -3014 -3994 -1054 1194 0
-74 214 -3014 0
74 3014 0
-214 3014 0
74 -214 -3994 0
-74 3994 0
214 3994 0
-2174 3154 0
-2174 4134 0
-2174 1194 0
-2174 -1334 0
2174 -3154 -4134 -1194 1334 0
-214 354 -3154 0
214 3154 0
-354 3154 0
214 -354 -4134 0
-214 4134 0
354 4134 0
-2314 3294 0
-2314 4274 0
-2314 1334 0
-2314 -1474 0
2314 -3294 -4274 -1334 1474 0
-354 494 -3294 0
354 3294 0
-494 3294 0
354 -494 -4274 0
-354 4274 0
494 4274 0
-2454 3434 0
-2454 4414 0
-2454 1474 0
-2454 -1614 0
2454 -3434 -4414 -1474 1614 0
-494 634 -3434 0
494 3434 0
-634 3434 0
494 -634 -4414 0
-494 4414 0
634 4414 0
-2594 3574 0
-2594 4554 0
-2594 1614 0
-2594 -1754 0
2594 -3574 -4554 -1614 1754 0
-634 774 -3574 0
634 3574 0
-774 3574 0
634 -774 -4554 0
-634 4554 0
774 4554 0
-2734 3714 0
-2734 4694 0
-2734 1754 0
-2734 -1894 0
2734 -3714 -4694 -1754 1894 0
-774 914 -3714 0
774 3714 0
-914 3714 0
774 -914 -4694 0
-774 4694 0
914 4694 0
5114 6094 0
5114 7074 0
-5114 -6094 -7074 0
-214 74 -6094 0
214 6094 0
-74 6094 0
214 -74 -7074 0
-214 7074 0
74 7074 0
5254 6234 0
5254 7214 0
-5254 -6234 -7214 0
-354 214 -6234 0
354 6234 0
-214 6234 0
354 -214 -7214 0
-354 7214 0
214 7214 0
5394 6374 0
5394 7354 0
-5394 -6374 -7354 0
-494 354 -6374 0
494 6374 0
-354 6374 0
494 -354 -7354 0
-494 7354 0
354 7354 0
5534 6514 0
5534 7494 0
-5534 -6514 -7494 0
-634 494 -6514 0
634 6514 0
-494 6514 0
634 -494 -7494 0
-634 7494 0
494 7494 0
5674 6654 0
5674 7634 0
-5674 -6654 -7634 0
-774 634 -6654 0
774 6654 0
-634 6654 0
774 -634 -7634 0
-774 7634 0
634 7634 0
5814 6794 0
5814 7774 0
-5814 -6794 -7774 0
-914 774 -6794 0
914 6794 0
-774 6794 0
914 -774 -7774 0
-914 7774 0
774 7774 0
1055 0
-1895 0
-2035 3015 0
-2035 3995 0
-2035 1055 0
-2035 -1195 0
2035 -3015 -3995 -1055 1195 0
-75 215 -3015 0
75 3015 0
-215 3015 0
75 -215 -3995 0
-75 3995 0
215 3995 0
-2175 3155 0
-2175 4135 0
-2175 1195 0
-2175 -1335 0
2175 -3155 -4135 -1195 1335 0
-215 355 -3155 0
215 3155 0
-355 3155 0
215 -355 -4135 0
-215 4135 0
355 4135 0
-2315 3295 0
-2315 4275 0
-2315 1335 0
-2315 -1475 0
2315 -3295 -4275 -1335 1475 0
-355 495 -3295 0
355 3295 0
-495 3295 0
355 -495 -4275 0
-355 4275 0
495 4275 0
-2455 3435 0
-2455 4415 0
-2455 1475 0
-2455 -1615 0
2455 -3435 -4415 -1475 1615 0
-495 635 -3435 0
495 3435 0
-635 3435 0
495 -635 -4415 0
-495 4415 0
635 4415 0
-2595 3575 0
-2595 4555 0
-2595 1615 0
-2595 -1755 0
2595 -3575 -4555 -1615 1755 0
-635 775 -3575 0
635 3575 0
-775 3575 0
635 -775 -4555 0
-635 4555 0
775 4555 0
-2735 3715 0
-2735 4695 0
-2735 1755 0
-2735 -1895 0
2735 -3715 -4695 -1755 1895 0
-775 915 -3715 0
775 3715 0
-915 3715 0
775 -915 -4695 0
-775 4695 0
915 4695 0
5115 6095 0
5115 7075 0
-5115 -6095 -7075 0
-215 75 -6095 0
215 6095 0
-75 6095 0
215 -75 -7075 0
-215 7075 0
75 7075 0
5255 6235 0
5255 7215 0
-5255 -6235 -7215 0
-355 215 -6235 0
355 6235 0
-215 6235 0
355 -215 -7215 0
-355 7215 0
215 7215 0
5395 6375 0
5395 7355 0
-5395 -6375 -7355 0
-495 355 -6375 0
495 6375 0
-355 6375 0
495 -355 -7355 0
-495 7355 0
355 7355 0
5535 6515 0
5535 7495 0
-5535 -6515 -7495 0
-635 495 -6515 0
635 6515 0
-495 6515 0
635 -495 -7495 0
-635 7495 0
495 7495 0
5675 6655 0
5675 7635 0
-5675 -6655 -7635 0
-775 635 -6655 0
775 6655 0
-635 6655 0
775 -635 -7635 0
-775 7635 0
635 7635 0
5815 6795 0
5815 7775 0
-5815 -6795 -7775 0
-915 775 -6795 0
915 6795 0
-775 6795 0
915 -775 -7775 0
-915 7775 0
775 7775 0
1056 0
-1896 0
-2036 3016 0
-2036 3996 0
-2036 1056 0
-2036 -1196 0
2036 -3016 -3996 -1056 1196 0
-76 216 -3016 0
76 3016 0
-216 3016 0
76 -216 -3996 0
-76 3996 0
216 3996 0
-2176 3156 0
-2176 4136 0
-2176 1196 0
-2176 -1336 0
2176 -3156 -4136 -1196 1336 0
-216 356 -3156 0
216 3156 0
-356 3156 0
216 -356 -4136 0
-216 4136 0
356 4136 0
-2316 3296 0
-2316 4276 0
-2316 1336 0
-2316 -1476 0
2316 -3296 -4276 -1336 1476 0
-356 496 -3296 0
356 3296 0
-496 3296 0
356 -496 -4276 0
-356 4276 0
496 4276 0
-2456 3436 0
-2456 4416 0
-2456 1476 0
-2456 -1616 0
2456 -3436 -4416 -1476 1616 0
-496 636 -3436 0
496 3436 0
-636 3436 0
496 -636 -4416 0
-496 4416 0
636 4416 0
-2596 3576 0
-2596 4556 0
-2596 1616 0
-2596 -1756 0
2596 -3576 -4556 -1616 1756 0
-636 776 -3576 0
636 3576 0
-776 3576 0
636 -776 -4556 0
-636 4556 0
776 4556 0
-2736 3716 0
-2736 4696 0
-2736 1756 0
-2736 -1896 0
2736 -3716 -4696 -1756 1896 0
-776 916 -3716 0
776 3716 0
-916 3716 0
776 -916 -4696 0
-776 4696 0
916 4696 0
5116 6096 0
5116 7076 0
-5116 -6096 -7076 0
-216 76 -6096 0
216 6096 0
-76 6096 0
216 -76 -7076 0
-216 7076 0
76 7076 0
5256 6236 0
5256 7216 0
-5256 -6236 -7216 0
-356 216 -6236 0
356 6236 0
-216 6236 0
356 -216 -7216 0
-356 7216 0
216 7216 0
5396 6376 0
5396 7356 0
-5396 -6376 -7356 0
-496 356 -6376 0
496 6376 0
-356 6376 0
496 -356 -7356 0
-496 7356 0
356 7356 0
5536 6516 0
5536 7496 0
-5536 -6516 -7496 0
-636 496 -6516 0
636 6516 0
-496 6516 0
636 -496 -7496 0
-636 7496 0
496 7496 0
5676 6656 0
5676 7636 0
-5676 -6656 -7636 0
-776 636 -6656 0
776 6656 0
-636 6656 0
776 -636 -7636 0
-776 7636 0
636 7636 0
5816 6796 0
5816 7776 0
-5816 -6796 -7776 0
-916 776 -6796 0
916 6796 0
-776 6796 0
916 -776 -7776 0
-916 7776 0
776 7776 0
1057 0
-1897 0
-2037 3017 0
-2037 3997 0
-2037 1057 0
-2037 -1197 0
2037 -3017 -3997 -1057 1197 0
-77 217 -3017 0
77 3017 0
-217 3017 0
77 -217 -3997 0
-77 3997 0
217 3997 0
-2177 3157 0
-2177 4137 0
-2177 1197 0
-2177 -1337 0
2177 -3157 -4137 -1197 1337 0
-217 357 -3157 0
217 3157 0
-357 3157 0
217 -357 -4137 0
-217 4137 0
357 4137 0
-2317 3297 0
-2317 4277 0
-2317 1337 0
-2317 -1477 0
2317 -3297 -4277 -1337 1477 0
-357 497 -3297 0
357 3297 0
-497 3297 0
357 -497 -4277 0
-357 4277 0
497 4277 0
-2457 3437 0
-2457 4417 0
-2457 1477 0
-2457 -1617 0
2457 -3437 -4417 -1477 1617 0
-497 637 -3437 0
497 3437 0
-637 3437 0
497 -637 -4417 0
-497 4417 0
637 4417 0
-2597 3577 0
-2597 4557 0
-2597 1617 0
-2597 -1757 0
2597 -3577 -4557 -1617 1757 0
-637 777 -3577 0
637 3577 0
-777 3577 0
637 -777 -4557 0
-637 4557 0
777 4557 0
-2737 3717 0
-2737 4697 0
-2737 1757 0
-2737 -1897 0
2737 -3717 -4697 -1757 1897 0
-777 917 -3717 0
777 3717 0
-917 3717 0
777 -917 -4697 0
-777 4697 0
917 4697 0
5117 6097 0
5117 7077 0
-5117 -6097 -7077 0
-217 77 -6097 0
217 6097 0
-77 6097 0
217 -77 -7077 0
-217 7077 0
77 7077 0
5257 6237 0
5257 7217 0
-5257 -6237 -7217 0
-357 217 -6237 0
357 6237 0
-217 6237 0
357 -217 -7217 0
-357 7217 0
217 7217 0
5397 6377 0
5397 7357 0
-5397 -6377 -7357 0
-497 357 -6377 0
497 6377 0
-357 6377 0
497 -357 -7357 0
-497 7357 0
357 7357 0
5537 6517 0
5537 7497 0
-5537 -6517 -7497 0
-637 497 -6517 0
637 6517 0
-497 6517 0
637 -497 -7497 0
-637 7497 0
497 7497 0
5677 6657 0
5677 7637 0
-5677 -6657 -7637 0
-777 637 -6657 0
777 6657 0
-637 6657 0
777 -637 -7637 0
-777 7637 0
637 7637 0
5817 6797 0
5817 7777 0
-5817 -6797 -7777 0
-917 777 -6797 0
917 6797 0
-777 6797 0
917 -777 -7777 0
-917 7777 0
777 7777 0
1058 0
-1898 0
-2038 3018 0
-2038 3998 0
-2038 1058 0
-2038 -1198 0
2038 -3018 -3998 -1058 1198 0
-78 218 -3018 0
78 3018 0
-218 3018 0
78 -218 -3998 0
-78 3998 0
218 3998 0
-2178 3158 0
-2178 4138 0
-2178 1198 0
-2178 -1338 0
2178 -3158 -4138 -1198 1338 0
-218 358 -3158 0
218 3158 0
-358 3158 0
218 -358 -4138 0
-218 4138 0
358 4138 0
-2318 3298 0
-2318 4278 0
-2318 1338 0
-2318 -1478 0
2318 -3298 -4278 -1338 1478 0
-358 498 -3298 0
358 3298 0
-498 3298 0
358 -498 -4278 0
-358 4278 0
498 4278 0
-2458 3438 0
-2458 4418 0
-2458 1478 0
-2458 -1618 0
2458 -3438 -4418 -1478 1618 0
-498 638 -3438 0
498 3438 0
-638 3438 0
498 -638 -4418 0
-498 4418 0
638 4418 0
-2598 3578 0
-2598 4558 0
-2598 1618 0
-2598 -1758 0
2598 -3578 -4558 -1618 1758 0
-638 778 -3578 0
638 3578 0
-778 3578 0
638 -778 -4558 0
-638 4558 0
778 4558 0
-2738 3718 0
-2738 4698 0
-2738 1758 0
-2738 -1898 0
2738 -3718 -4698 -1758 1898 0
-778 918 -3718 0
778 3718 0
-918 3718 0
778 -918 -4698 0
-778 4698 0
918 4698 0
5118 6098 0
5118 7078 0
-5118 -6098 -7078 0
-218 78 -6098 0
218 6098 0
-78 6098 0
218 -78 -7078 0
-218 7078 0
78 7078 0
5258 6238 0
5258 7218 0
-5258 -6238 -7218 0
-358 218 -6238 0
358 6238 0
-218 6238 0
358 -218 -7218 0
-358 7218 0
218 7218 0
5398 6378 0
5398 7358 0
-5398 -6378 -7358 0
-498 358 -6378 0
498 6378 0
-358 6378 0
498 -358 -7358 0
-498 7358 0
358 7358 0
5538 6518 0
5538 7498 0
-5538 -6518 -7498 0
-638 498 -6518 0
638 6518 0
-498 6518 0
638 -498 -7498 0
-638 7498 0
498 7498 0
5678 6658 0
5678 7638 0
-5678 -6658 -7638 0
-778 638 -6658 0
778 6658 0
-638 6658 0
778 -638 -7638 0
-778 7638 0
638 7638 0
5818 6798 0
5818 7778 0
-5818 -6798 -7778 0
-918 778 -6798 0
918 6798 0
-778 6798 0
918 -778 -7778 0
-918 7778 0
778 7778 0
1059 0
-1899 0
-2039 3019 0
-2039 3999 0
-2039 1059 0
-2039 -1199 0
2039 -3019 -3999 -1059 1199 0
-79 219 -3019 0
79 3019 0
-219 3019 0
79 -219 -3999 0
-79 3999 0
219 3999 0
-2179 3159 0
-2179 4139 0
-2179 1199 0
-2179 -1339 0
2179 -3159 -4139 -1199 1339 0
-219 359 -3159 0
219 3159 0
-359 3159 0
219 -359 -4139 0
-219 4139 0
359 4139 0
-2319 3299 0
-2319 4279 0
-2319 1339 0
-2319 -1479 0
2319 -3299 -4279 -1339 1479 0
-359 499 -3299 0
359 3299 0
-499 3299 0
359 -499 -4279 0
-359 4279 0
499 4279 0
-2459 3439 0
-2459 4419 0
-2459 1479 0
-2459 -1619 0
2459 -3439 -4419 -1479 1619 0
-499 639 -3439 0
499 3439 0
-639 3439 0
499 -639 -4419 0
-499 4419 0
639 4419 0
-2599 3579 0
-2599 4559 0
-2599 1619 0
-2599 -1759 0
2599 -3579 -4559 -1619 1759 0
-639 779 -3579 0
639 3579 0
-779 3579 0
639 -779 -4559 0
-639 4559 0
779 4559 0
-2739 3719 0
-2739 4699 0
-2739 1759 0
-2739 -1899 0
2739 -3719 -4699 -1759 1899 0
-779 919 -3719 0
779 3719 0
-919 3719 0
779 -919 -4699 0
-779 4699 0
919 4699 0
5119 6099 0
5119 7079 0
-5119 -6099 -7079 0
-219 79 -6099 0
219 6099 0
-79 6099 0
219 -79 -7079 0
-219 7079 0
79 7079 0
5259 6239 0
5259 7219 0
-5259 -6239 -7219 0
-359 219 -6239 0
359 6239 0
-219 6239 0
359 -219 -7219 0
-359 7219 0
219 7219 0
5399 6379 0
5399 7359 0
-5399 -6379 -7359 0
-499 359 -6379 0
499 6379 0
-359 6379 0
499 -359 -7359 0
-499 7359 0
359 7359 0
5539 6519 0
5539 7499 0
-5539 -6519 -7499 0
-639 499 -6519 0
639 6519 0
-499 6519 0
639 -499 -7499 0
-639 7499 0
499 7499 0
5679 6659 0
5679 7639 0
-5679 -6659 -7639 0
-779 639 -6659 0
779 6659 0
-639 6659 0
779 -639 -7639 0
-779 7639 0
639 7639 0
5819 6799 0
5819 7779 0
-5819 -6799 -7779 0
-919 779 -6799 0
919 6799 0
-779 6799 0
919 -779 -7779 0
-919 7779 0
779 7779 0
1060 0
-1900 0
-2040 3020 0
-2040 4000 0
-2040 1060 0
-2040 -1200 0
2040 -3020 -4000 -1060 1200 0
-80 220 -3020 0
80 3020 0
-220 3020 0
80 -220 -4000 0
-80 4000 0
220 4000 0
-2180 3160 0
-2180 4140 0
-2180 1200 0
-2180 -1340 0
2180 -3160 -4140 -1200 1340 0
-220 360 -3160 0
220 3160 0
-360 3160 0
220 -360 -4140 0
-220 4140 0
360 4140 0
-2320 3300 0
-2320 4280 0
-2320 1340 0
-2320 -1480 0
2320 -3300 -4280 -1340 1480 0
-360 500 -3300 0
360 3300 0
-500 3300 0
360 -500 -4280 0
-360 4280 0
500 4280 0
-2460 3440 0
-2460 4420 0
-2460 1480 0
-2460 -1620 0
2460 -3440 -4420 -1480 1620 0
-500 640 -3440 0
500 3440 0
-640 3440 0
500 -640 -4420 0
-500 4420 0
640 4420 0
-2600 3580 0
-2600 4560 0
-2600 1620 0
-2600 -1760 0
2600 -3580 -4560 -1620 1760 0
-640 780 -3580 0
640 3580 0
-780 3580 0
640 -780 -4560 0
-640 4560 0
780 4560 0
-2740 3720 0
-2740 4700 0
-2740 1760 0
-2740 -1900 0
2740 -3720 -4700 -1760 1900 0
-780 920 -3720 0
780 3720 0
-920 3720 0
780 -920 -4700 0
-780 4700 0
920 4700 0
5120 6100 0
5120 7080 0
-5120 -6100 -7080 0
-220 80 -6100 0
220 6100 0
-80 6100 0
220 -80 -7080 0
-220 7080 0
80 7080 0
5260 6240 0
5260 7220 0
-5260 -6240 -7220 0
-360 220 -6240 0
360 6240 0
-220 6240 0
360 -220 -7220 0
-360 7220 0
220 7220 0
5400 6380 0
5400 7360 0
-5400 -6380 -7360 0
-500 360 -6380 0
500 6380 0
-360 6380 0
500 -360 -7360 0
-500 7360 0
360 7360 0
5540 6520 0
5540 7500 0
-5540 -6520 -7500 0
-640 500 -6520 0
640 6520 0
-500 6520 0
640 -500 -7500 0
-640 7500 0
500 7500 0
5680 6660 0
5680 7640 0
-5680 -6660 -7640 0
-780 640 -6660 0
780 6660 0
-640 6660 0
780 -640 -7640 0
-780 7640 0
640 7640 0
5820 6800 0
5820 7780 0
-5820 -6800 -7780 0
-920 780 -6800 0
920 6800 0
-780 6800 0
920 -780 -7780 0
-920 7780 0
780 7780 0
1061 0
-1901 0
-2041 3021 0
-2041 4001 0
-2041 1061 0
-2041 -1201 0
2041 -3021 -4001 -1061 1201 0
-81 221 -3021 0
81 3021 0
-221 3021 0
81 -221 -4001 0
-81 4001 0
221 4001 0
-2181 3161 0
-2181 4141 0
-2181 1201 0
-2181 -1341 0
2181 -3161 -4141 -1201 1341 0
-221 361 -3161 0
221 3161 0
-361 3161 0
221 -361 -4141 0
-221 4141 0
361 4141 0
-2321 3301 0
-2321 4281 0
-2321 1341 0
-2321 -1481 0
2321 -3301 -4281 -1341 1481 0
-361 501 -3301 0
361 3301 0
-501 3301 0
361 -501 -4281 0
-361 4281 0
501 4281 0
-2461 3441 0
-2461 4421 0
-2461 1481 0
-2461 -1621 0
2461 -3441 -4421 -1481 1621 0
-501 641 -3441 0
501 3441 0
-641 3441 0
501 -641 -4421 0
-501 4421 0
641 4421 0
-2601 3581 0
-2601 4561 0
-2601 1621 0
-2601 -1761 0
2601 -3581 -4561 -1621 1761 0
-641 781 -3581 0
641 3581 0
-781 3581 0
641 -781 -4561 0
-641 4561 0
781 4561 0
-2741 3721 0
-2741 4701 0
-2741 1761 0
-2741 -1901 0
2741 -3721 -4701 -1761 1901 0
-781 921 -3721 0
781 3721 0
-921 3721 0
781 -921 -4701 0
-781 4701 0
921 4701 0
5121 6101 0
5121 7081 0
-5121 -6101 -7081 0
-221 81 -6101 0
221 6101 0
-81 6101 0
221 -81 -7081 0
-221 7081 0
81 7081 0
5261 6241 0
5261 7221 0
-5261 -6241 -7221 0
-361 221 -6241 0
361 6241 0
-221 6241 0
361 -221 -7221 0
-361 7221 0
221 7221 0
5401 6381 0
5401 7361 0
-5401 -6381 -7361 0
-501 361 -6381 0
501 6381 0
-361 6381 0
501 -361 -7361 0
-501 7361 0
361 7361 0
5541 6521 0
5541 7501 0
-5541 -6521 -7501 0
-641 501 -6521 0
641 6521 0
-501 6521 0
641 -501 -7501 0
-641 7501 0
501 7501 0
5681 6661 0
5681 7641 0
-5681 -6661 -7641 0
-781 641 -6661 0
781 6661 0
-641 6661 0
781 -641 -7641 0
-781 7641 0
641 7641 0
5821 6801 0
5821 7781 0
-5821 -6801 -7781 0
-921 781 -6801 0
921 6801 0
-781 6801 0
921 -781 -7781 0
-921 7781 0
781 7781 0
1062 0
-1902 0
-2042 3022 0
-2042 4002 0
-2042 1062 0
-2042 -1202 0
2042 -3022 -4002 -1062 1202 0
-82 222 -3022 0
82 3022 0
-222 3022 0
82 -222 -4002 0
-82 4002 0
222 4002 0
-2182 3162 0
-2182 4142 0
-2182 1202 0
-2182 -1342 0
2182 -3162 -4142 -1202 1342 0
-222 362 -3162 0
222 3162 0
-362 3162 0
222 -362 -4142 0
-222 4142 0
362 4142 0
-2322 3302 0
-2322 4282 0
-2322 1342 0
-2322 -1482 0
2322 -3302 -4282 -1342 1482 0
-362 502 -3302 0
362 3302 0
-502 3302 0
362 -502 -4282 0
-362 4282 0
502 4282 0
-2462 3442 0
-2462 4422 0
-2462 1482 0
-2462 -1622 0
2462 -3442 -4422 -1482 1622 0
-502 642 -3442 0
502 3442 0
-642 3442 0
502 -642 -4422 0
-502 4422 0
642 4422 0
-2602 3582 0
-2602 4562 0
-2602 1622 0
-2602 -1762 0
2602 -3582 -4562 -1622 1762 0
-642 782 -3582 0
642 3582 0
-782 3582 0
642 -782 -4562 0
-642 4562 0
782 4562 0
-2742 3722 0
-2742 4702 0
-2742 1762 0
-2742 -1902 0
2742 -3722 -4702 -1762 1902 0
-782 922 -3722 0
782 3722 0
-922 3722 0
782 -922 -4702 0
-782 4702 0
922 4702 0
5122 6102 0
5122 7082 0
-5122 -6102 -7082 0
-222 82 -6102 0
222 6102 0
-82 6102 0
222 -82 -7082 0
-222 7082 0
82 7082 0
5262 6242 0
5262 7222 0
-5262 -6242 -7222 0
-362 222 -6242 0
362 6242 0
-222 6242 0
362 -222 -7222 0
-362 7222 0
222 7222 0
5402 6382 0
5402 7362 0
-5402 -6382 -7362 0
-502 362 -6382 0
502 6382 0
-362 6382 0
502 -362 -7362 0
-502 7362 0
362 7362 0
5542 6522 0
5542 7502 0
-5542 -6522 -7502 0
-642 502 -6522 0
642 6522 0
-502 6522 0
642 -502 -7502 0
-642 7502 0
502 7502 0
5682 6662 0
5682 7642 0
-5682 -6662 -7642 0
-782 642 -6662 0
782 6662 0
-642 6662 0
782 -642 -7642 0
-782 7642 0
642 7642 0
5822 6802 0
5822 7782 0
-5822 -6802 -7782 0
-922 782 -6802 0
922 6802 0
-782 6802 0
922 -782 -7782 0
-922 7782 0
782 7782 0
1063 0
-1903 0
-2043 3023 0
-2043 4003 0
-2043 1063 0
-2043 -1203 0
2043 -3023 -4003 -1063 1203 0
-83 223 -3023 0
83 3023 0
-223 3023 0
83 -223 -4003 0
-83 4003 0
223 4003 0
-2183 3163 0
-2183 4143 0
-2183 1203 0
-2183 -1343 0
2183 -3163 -4143 -1203 1343 0
-223 363 -3163 0
223 3163 0
-363 3163 0
223 -363 -4143 0
-223 4143 0
363 4143 0
-2323 3303 0
-2323 4283 0
-2323 1343 0
-2323 -1483 0
2323 -3303 -4283 -1343 1483 0
-363 503 -3303 0
363 3303 0
-503 3303 0
363 -503 -4283 0
-363 4283 0
503 4283 0
-2463 3443 0
-2463 4423 0
-2463 1483 0
-2463 -1623 0
2463 -3443 -4423 -1483 1623 0
-503 643 -3443 0
503 3443 0
-643 3443 0
503 -643 -4423 0
-503 4423 0
643 4423 0
-2603 3583 0
-2603 4563 0
-2603 1623 0
-2603 -1763 0
2603 -3583 -4563 -1623 1763 0
-643 783 -3583 0
643 3583 0
-783 3583 0
643 -783 -4563 0
-643 4563 0
783 4563 0
-2743 3723 0
-2743 4703 0
-2743 1763 0
-2743 -1903 0
2743 -3723 -4703 -1763 1903 0
-783 923 -3723 0
783 3723 0
-923 3723 0
783 -923 -4703 0
-783 4703 0
923 4703 0
5123 6103 0
5123 7083 0
-5123 -6103 -7083 0
-223 83 -6103 0
223 6103 0
-83 6103 0
223 -83 -7083 0
-223 7083 0
83 7083 0
5263 6243 0
5263 7223 0
-5263 -6243 -7223 0
-363 223 -6243 0
363 6243 0
-223 6243 0
363 -223 -7223 0
-363 7223 0
223 7223 0
5403 6383 0
5403 7363 0
-5403 -6383 -7363 0
-503 363 -6383 0
503 6383 0
-363 6383 0
503 -363 -7363 0
-503 7363 0
363 7363 0
5543 6523 0
5543 7503 0
-5543 -6523 -7503 0
-643 503 -6523 0
643 6523 0
-503 6523 0
643 -503 -7503 0
-643 7503 0
503 7503 0
5683 6663 0
5683 7643 0
-5683 -6663 -7643 0
-783 643 -6663 0
783 6663 0
-643 6663 0
783 -643 -7643 0
-783 7643 0
643 7643 0
5823 6803 0
5823 7783 0
-5823 -6803 -7783 0
-923 783 -6803 0
923 6803 0
-783 6803 0
923 -783 -7783 0
-923 7783 0
783 7783 0
1064 0
-1904 0
-2044 3024 0
-2044 4004 0
-2044 1064 0
-2044 -1204 0
2044 -3024 -4004 -1064 1204 0
-84 224 -3024 0
84 3024 0
-224 3024 0
84 -224 -4004 0
-84 4004 0
224 4004 0
-2184 3164 0
-2184 4144 0
-2184 1204 0
-2184 -1344 0
2184 -3164 -4144 -1204 1344 0
-224 364 -3164 0
224 3164 0
-364 3164 0
224 -364 -4144 0
-224 4144 0
364 4144 0
-2324 3304 0
-2324 4284 0
-2324 1344 0
-2324 -1484 0
2324 -3304 -4284 -1344 1484 0
-364 504 -3304 0
364 3304 0
-504 3304 0
364 -504 -4284 0
-364 4284 0
504 4284 0
-2464 3444 0
-2464 4424 0
-2464 1484 0
-2464 -1624 0
2464 -3444 -4424 -1484 1624 0
-504 644 -3444 0
504 3444 0
-644 3444 0
504 -644 -4424 0
-504 4424 0
644 4424 0
-2604 3584 0
-2604 4564 0
-2604 1624 0
-2604 -1764 0
2604 -3584 -4564 -1624 1764 0
-644 784 -3584 0
644 3584 0
-784 3584 0
644 -784 -4564 0
-644 4564 0
784 4564 0
-2744 3724 0
-2744 4704 0
-2744 1764 0
-2744 -1904 0
2744 -3724 -4704 -1764 1904 0
-784 924 -3724 0
784 3724 0
-924 3724 0
784 -924 -4704 0
-784 4704 0
924 4704 0
5124 6104 0
5124 7084 0
-5124 -6104 -7084 0
-224 84 -6104 0
224 6104 0
-84 6104 0
224 -84 -7084 0
-224 7084 0
84 7084 0
5264 6244 0
5264 7224 0
-5264 -6244 -7224 0
-364 224 -6244 0
364 6244 0
-224 6244 0
364 -224 -7224 0
-364 7224 0
224 7224 0
5404 6384 0
5404 7364 0
-5404 -6384 -7364 0
-504 364 -6384 0
504 6384 0
-364 6384 0
504 -364 -7364 0
-504 7364 0
364 7364 0
5544 6524 0
5544 7504 0
-5544 -6524 -7504 0
-644 504 -6524 0
644 6524 0
-504 6524 0
644 -504 -7504 0
-644 7504 0
504 7504 0
5684 6664 0
5684 7644 0
-5684 -6664 -7644 0
-784 644 -6664 0
784 6664 0
-644 6664 0
784 -644 -7644 0
-784 7644 0
644 7644 0
5824 6804 0
5824 7784 0
-5824 -6804 -7784 0
-924 784 -6804 0
924 6804 0
-784 6804 0
924 -784 -7784 0
-924 7784 0
784 7784 0
1065 0
-1905 0
-2045 3025 0
-2045 4005 0
-2045 1065 0
-2045 -1205 0
2045 -3025 -4005 -1065 1205 0
-85 225 -3025 0
85 3025 0
-225 3025 0
85 -225 -4005 0
-85 4005 0
225 4005 0
-2185 3165 0
-2185 4145 0
-2185 1205 0
-2185 -1345 0
2185 -3165 -4145 -1205 1345 0
-225 365 -3165 0
225 3165 0
-365 3165 0
225 -365 -4145 0
-225 4145 0
365 4145 0
-2325 3305 0
-2325 4285 0
-2325 1345 0
-2325 -1485 0
2325 -3305 -4285 -1345 1485 0
-365 505 -3305 0
365 3305 0
-505 3305 0
365 -505 -4285 0
-365 4285 0
505 4285 0
-2465 3445 0
-2465 4425 0
-2465 1485 0
-2465 -1625 0
2465 -3445 -4425 -1485 1625 0
-505 645 -3445 0
505 3445 0
-645 3445 0
505 -645 -4425 0
-505 4425 0
645 4425 0
-2605 3585 0
-2605 4565 0
-2605 1625 0
-2605 -1765 0
2605 -3585 -4565 -1625 1765 0
-645 785 -3585 0
645 3585 0
-785 3585 0
645 -785 -4565 0
-645 4565 0
785 4565 0
-2745 3725 0
-2745 4705 0
-2745 1765 0
-2745 -1905 0
2745 -3725 -4705 -1765 1905 0
-785 925 -3725 0
785 3725 0
-925 3725 0
785 -925 -4705 0
-785 4705 0
925 4705 0
5125 6105 0
5125 7085 0
-5125 -6105 -7085 0
-225 85 -6105 0
225 6105 0
-85 6105 0
225 -85 -7085 0
-225 7085 0
85 7085 0
5265 6245 0
5265 7225 0
-5265 -6245 -7225 0
-365 225 -6245 0
365 6245 0
-225 6245 0
365 -225 -7225 0
-365 7225 0
225 7225 0
5405 6385 0
5405 7365 0
-5405 -6385 -7365 0
-505 365 -6385 0
505 6385 0
-365 6385 0
505 -365 -7365 0
-505 7365 0
365 7365 0
5545 6525 0
5545 7505 0
-5545 -6525 -7505 0
-645 505 -6525 0
645 6525 0
-505 6525 0
645 -505 -7505 0
-645 7505 0
505 7505 0
5685 6665 0
5685 7645 0
-5685 -6665 -7645 0
-785 645 -6665 0
785 6665 0
-645 6665 0
785 -645 -7645 0
-785 7645 0
645 7645 0
5825 6805 0
5825 7785 0
-5825 -6805 -7785 0
-925 785 -6805 0
925 6805 0
-785 6805 0
925 -785 -7785 0
-925 7785 0
785 7785 0
1066 0
-1906 0
-2046 3026 0
-2046 4006 0
-2046 1066 0
-2046 -1206 0
2046 -3026 -4006 -1066 1206 0
-86 226 -3026 0
86 3026 0
-226 3026 0
86 -226 -4006 0
-86 4006 0
226 4006 0
-2186 3166 0
-2186 4146 0
-2186 1206 0
-2186 -1346 0
2186 -3166 -4146 -1206 1346 0
-226 366 -3166 0
226 3166 0
-366 3166 0
226 -366 -4146 0
-226 4146 0
366 4146 0
-2326 3306 0
-2326 4286 0
-2326 1346 0
-2326 -1486 0
2326 -3306 -4286 -1346 1486 0
-366 506 -3306 0
366 3306 0
-506 3306 0
366 -506 -4286 0
-366 4286 0
506 4286 0
-2466 3446 0
-2466 4426 0
-2466 1486 0
-2466 -1626 0
2466 -3446 -4426 -1486 1626 0
-506 646 -3446 0
506 3446 0
-646 3446 0
506 -646 -4426 0
-506 4426 0
646 4426 0
-2606 3586 0
-2606 4566 0
-2606 1626 0
-2606 -1766 0
2606 -3586 -4566 -1626 1766 0
-646 786 -3586 0
646 3586 0
-786 3586 0
646 -786 -4566 0
-646 4566 0
786 4566 0
-2746 3726 0
-2746 4706 0
-2746 1766 0
-2746 -1906 0
2746 -3726 -4706 -1766 1906 0
-786 926 -3726 0
786 3726 0
-926 3726 0
786 -926 -4706 0
-786 4706 0
926 4706 0
5126 6106 0
5126 7086 0
-5126 -6106 -7086 0
-226 86 -6106 0
226 6106 0
-86 6106 0
226 -86 -7086 0
-226 7086 0
86 7086 0
5266 6246 0
5266 7226 0
-5266 -6246 -7226 0
-366 226 -6246 0
366 6246 0
-226 6246 0
366 -226 -7226 0
-366 7226 0
226 7226 0
5406 6386 0
5406 7366 0
-5406 -6386 -7366 0
-506 366 -6386 0
506 6386 0
-366 6386 0
506 -366 -7366 0
-506 7366 0
366 7366 0
5546 6526 0
5546 7506 0
-5546 -6526 -7506 0
-646 506 -6526 0
646 6526 0
-506 6526 0
646 -506 -7506 0
-646 7506 0
506 7506 0
5686 6666 0
5686 7646 0
-5686 -6666 -7646 0
-786 646 -6666 0
786 6666 0
-646 6666 0
786 -646 -7646 0
-786 7646 0
646 7646 0
5826 6806 0
5826 7786 0
-5826 -6806 -7786 0
-926 786 -6806 0
926 6806 0
-786 6806 0
926 -786 -7786 0
-926 7786 0
786 7786 0
1067 0
-1907 0
-2047 3027 0
-2047 4007 0
-2047 1067 0
-2047 -1207 0
2047 -3027 -4007 -1067 1207 0
-87 227 -3027 0
87 3027 0
-227 3027 0
87 -227 -4007 0
-87 4007 0
227 4007 0
-2187 3167 0
-2187 4147 0
-2187 1207 0
-2187 -1347 0
2187 -3167 -4147 -1207 1347 0
-227 367 -3167 0
227 3167 0
-367 3167 0
227 -367 -4147 0
-227 4147 0
367 4147 0
-2327 3307 0
-2327 4287 0
-2327 1347 0
-2327 -1487 0
2327 -3307 -4287 -1347 1487 0
-367 507 -3307 0
367 3307 0
-507 3307 0
367 -507 -4287 0
-367 4287 0
507 4287 0
-2467 3447 0
-2467 4427 0
-2467 1487 0
-2467 -1627 0
2467 -3447 -4427 -1487 1627 0
-507 647 -3447 0
507 3447 0
-647 3447 0
507 -647 -4427 0
-507 4427 0
647 4427 0
-2607 3587 0
-2607 4567 0
-2607 1627 0
-2607 -1767 0
2607 -3587 -4567 -1627 1767 0
-647 787 -3587 0
647 3587 0
-787 3587 0
647 -787 -4567 0
-647 4567 0
787 4567 0
-2747 3727 0
-2747 4707 0
-2747 1767 0
-2747 -1907 0
2747 -3727 -4707 -1767 1907 0
-787 927 -3727 0
787 3727 0
-927 3727 0
787 -927 -4707 0
-787 4707 0
927 4707 0
5127 6107 0
5127 7087 0
-5127 -6107 -7087 0
-227 87 -6107 0
227 6107 0
-87 6107 0
227 -87 -7087 0
-227 7087 0
87 7087 0
5267 6247 0
5267 7227 0
-5267 -6247 -7227 0
-367 227 -6247 0
367 6247 0
-227 6247 0
367 -227 -7227 0
-367 7227 0
227 7227 0
5407 6387 0
5407 7367 0
-5407 -6387 -7367 0
-507 367 -6387 0
507 6387 0
-367 6387 0
507 -367 -7367 0
-507 7367 0
367 7367 0
5547 6527 0
5547 7507 0
-5547 -6527 -7507 0
-647 507 -6527 0
647 6527 0
-507 6527 0
647 -507 -7507 0
-647 7507 0
507 7507 0
5687 6667 0
5687 7647 0
-5687 -6667 -7647 0
-787 647 -6667 0
787 6667 0
-647 6667 0
787 -647 -7647 0
-787 7647 0
647 7647 0
5827 6807 0
5827 7787 0
-5827 -6807 -7787 0
-927 787 -6807 0
927 6807 0
-787 6807 0
927 -787 -7787 0
-927 7787 0
787 7787 0
1068 0
-1908 0
-2048 3028 0
-2048 4008 0
-2048 1068 0
-2048 -1208 0
2048 -3028 -4008 -1068 1208 0
-88 228 -3028 0
88 3028 0
-228 3028 0
88 -228 -4008 0
-88 4008 0
228 4008 0
-2188 3168 0
-2188 4148 0
-2188 1208 0
-2188 -1348 0
2188 -3168 -4148 -1208 1348 0
-228 368 -3168 0
228 3168 0
-368 3168 0
228 -368 -4148 0
-228 4148 0
368 4148 0
-2328 3308 0
-2328 4288 0
-2328 1348 0
-2328 -1488 0
2328 -3308 -4288 -1348 1488 0
-368 508 -3308 0
368 3308 0
-508 3308 0
368 -508 -4288 0
-368 4288 0
508 4288 0
-2468 3448 0
-2468 4428 0
-2468 1488 0
-2468 -1628 0
2468 -3448 -4428 -1488 1628 0
-508 648 -3448 0
508 3448 0
-648 3448 0
508 -648 -4428 0
-508 4428 0
648 4428 0
-2608 3588 0
-2608 4568 0
-2608 1628 0
-2608 -1768 0
2608 -3588 -4568 -1628 1768 0
-648 788 -3588 0
648 3588 0
-788 3588 0
648 -788 -4568 0
-648 4568 0
788 4568 0
-2748 3728 0
-2748 4708 0
-2748 1768 0
-2748 -1908 0
2748 -3728 -4708 -1768 1908 0
-788 928 -3728 0
788 3728 0
-928 3728 0
788 -928 -4708 0
-788 4708 0
928 4708 0
5128 6108 0
5128 7088 0
-5128 -6108 -7088 0
-228 88 -6108 0
228 6108 0
-88 6108 0
228 -88 -7088 0
-228 7088 0
88 7088 0
5268 6248 0
5268 7228 0
-5268 -6248 -7228 0
-368 228 -6248 0
368 6248 0
-228 6248 0
368 -228 -7228 0
-368 7228 0
228 7228 0
5408 6388 0
5408 7368 0
-5408 -6388 -7368 0
-508 368 -6388 0
508 6388 0
-368 6388 0
508 -368 -7368 0
-508 7368 0
368 7368 0
5548 6528 0
5548 7508 0
-5548 -6528 -7508 0
-648 508 -6528 0
648 6528 0
-508 6528 0
648 -508 -7508 0
-648 7508 0
508 7508 0
5688 6668 0
5688 7648 0
-5688 -6668 -7648 0
-788 648 -6668 0
788 6668 0
-648 6668 0
788 -648 -7648 0
-788 7648 0
648 7648 0
5828 6808 0
5828 7788 0
-5828 -6808 -7788 0
-928 788 -6808 0
928 6808 0
-788 6808 0
928 -788 -7788 0
-928 7788 0
788 7788 0
1069 0
-1909 0
-2049 3029 0
-2049 4009 0
-2049 1069 0
-2049 -1209 0
2049 -3029 -4009 -1069 1209 0
-89 229 -3029 0
89 3029 0
-229 3029 0
89 -229 -4009 0
-89 4009 0
229 4009 0
-2189 3169 0
-2189 4149 0
-2189 1209 0
-2189 -1349 0
2189 -3169 -4149 -1209 1349 0
-229 369 -3169 0
229 3169 0
-369 3169 0
229 -369 -4149 0
-229 4149 0
369 4149 0
-2329 3309 0
-2329 4289 0
-2329 1349 0
-2329 -1489 0
2329 -3309 -4289 -1349 1489 0
-369 509 -3309 0
369 3309 0
-509 3309 0
369 -509 -4289 0
-369 4289 0
509 4289 0
-2469 3449 0
-2469 4429 0
-2469 1489 0
-2469 -1629 0
2469 -3449 -4429 -1489 1629 0
-509 649 -3449 0
509 3449 0
-649 3449 0
509 -649 -4429 0
-509 4429 0
649 4429 0
-2609 3589 0
-2609 4569 0
-2609 1629 0
-2609 -1769 0
2609 -3589 -4569 -1629 1769 0
-649 789 -3589 0
649 3589 0
-789 3589 0
649 -789 -4569 0
-649 4569 0
789 4569 0
-2749 3729 0
-2749 4709 0
-2749 1769 0
-2749 -1909 0
2749 -3729 -4709 -1769 1909 0
-789 929 -3729 0
789 3729 0
-929 3729 0
789 -929 -4709 0
-789 4709 0
929 4709 0
5129 6109 0
5129 7089 0
-5129 -6109 -7089 0
-229 89 -6109 0
229 6109 0
-89 6109 0
229 -89 -7089 0
-229 7089 0
89 7089 0
5269 6249 0
5269 7229 0
-5269 -6249 -7229 0
-369 229 -6249 0
369 6249 0
-229 6249 0
369 -229 -7229 0
-369 7229 0
229 7229 0
5409 6389 0
5409 7369 0
-5409 -6389 -7369 0
-509 369 -6389 0
509 6389 0
-369 6389 0
509 -369 -7369 0
-509 7369 0
369 7369 0
5549 6529 0
5549 7509 0
-5549 -6529 -7509 0
-649 509 -6529 0
649 6529 0
-509 6529 0
649 -509 -7509 0
-649 7509 0
509 7509 0
5689 6669 0
5689 7649 0
-5689 -6669 -7649 0
-789 649 -6669 0
789 6669 0
-649 6669 0
789 -649 -7649 0
-789 7649 0
649 7649 0
5829 6809 0
5829 7789 0
-5829 -6809 -7789 0
-929 789 -6809 0
929 6809 0
-789 6809 0
929 -789 -7789 0
-929 7789 0
789 7789 0
1070 0
-1910 0
-2050 3030 0
-2050 4010 0
-2050 1070 0
-2050 -1210 0
2050 -3030 -4010 -1070 1210 0
-90 230 -3030 0
90 3030 0
-230 3030 0
90 -230 -4010 0
-90 4010 0
230 4010 0
-2190 3170 0
-2190 4150 0
-2190 1210 0
-2190 -1350 0
2190 -3170 -4150 -1210 1350 0
-230 370 -3170 0
230 3170 0
-370 3170 0
230 -370 -4150 0
-230 4150 0
370 4150 0
-2330 3310 0
-2330 4290 0
-2330 1350 0
-2330 -1490 0
2330 -3310 -4290 -1350 1490 0
-370 510 -3310 0
370 3310 0
-510 3310 0
370 -510 -4290 0
-370 4290 0
510 4290 0
-2470 3450 0
-2470 4430 0
-2470 1490 0
-2470 -1630 0
2470 -3450 -4430 -1490 1630 0
-510 650 -3450 0
510 3450 0
-650 3450 0
510 -650 -4430 0
-510 4430 0
650 4430 0
-2610 3590 0
-2610 4570 0
-2610 1630 0
-2610 -1770 0
2610 -3590 -4570 -1630 1770 0
-650 790 -3590 0
650 3590 0
-790 3590 0
650 -790 -4570 0
-650 4570 0
790 4570 0
-2750 3730 0
-2750 4710 0
-2750 1770 0
-2750 -1910 0
2750 -3730 -4710 -1770 1910 0
-790 930 -3730 0
790 3730 0
-930 3730 0
790 -930 -4710 0
-790 4710 0
930 4710 0
5130 6110 0
5130 7090 0
-5130 -6110 -7090 0
-230 90 -6110 0
230 6110 0
-90 6110 0
230 -90 -7090 0
-230 7090 0
90 7090 0
5270 6250 0
5270 7230 0
-5270 -6250 -7230 0
-370 230 -6250 0
370 6250 0
-230 6250 0
370 -230 -7230 0
-370 7230 0
230 7230 0
5410 6390 0
5410 7370 0
-5410 -6390 -7370 0
-510 370 -6390 0
510 6390 0
-370 6390 0
510 -370 -7370 0
-510 7370 0
370 7370 0
5550 6530 0
5550 7510 0
-5550 -6530 -7510 0
-650 510 -6530 0
650 6530 0
-510 6530 0
650 -510 -7510 0
-650 7510 0
510 7510 0
5690 6670 0
5690 7650 0
-5690 -6670 -7650 0
-790 650 -6670 0
790 6670 0
-650 6670 0
790 -650 -7650 0
-790 7650 0
650 7650 0
5830 6810 0
5830 7790 0
-5830 -6810 -7790 0
-930 790 -6810 0
930 6810 0
-790 6810 0
930 -790 -7790 0
-930 7790 0
790 7790 0
1071 0
-1911 0
-2051 3031 0
-2051 4011 0
-2051 1071 0
-2051 -1211 0
2051 -3031 -4011 -1071 1211 0
-91 231 -3031 0
91 3031 0
-231 3031 0
91 -231 -4011 0
-91 4011 0
231 4011 0
-2191 3171 0
-2191 4151 0
-2191 1211 0
-2191 -1351 0
2191 -3171 -4151 -1211 1351 0
-231 371 -3171 0
231 3171 0
-371 3171 0
231 -371 -4151 0
-231 4151 0
371 4151 0
-2331 3311 0
-2331 4291 0
-2331 1351 0
-2331 -1491 0
2331 -3311 -4291 -1351 1491 0
-371 511 -3311 0
371 3311 0
-511 3311 0
371 -511 -4291 0
-371 4291 0
511 4291 0
-2471 3451 0
-2471 4431 0
-2471 1491 0
-2471 -1631 0
2471 -3451 -4431 -1491 1631 0
-511 651 -3451 0
511 3451 0
-651 3451 0
511 -651 -4431 0
-511 4431 0
651 4431 0
-2611 3591 0
-2611 4571 0
-2611 1631 0
-2611 -1771 0
2611 -3591 -4571 -1631 1771 0
-651 791 -3591 0
651 3591 0
-791 3591 0
651 -791 -4571 0
-651 4571 0
791 4571 0
-2751 3731 0
-2751 4711 0
-2751 1771 0
-2751 -1911 0
2751 -3731 -4711 -1771 1911 0
-791 931 -3731 0
791 3731 0
-931 3731 0
791 -931 -4711 0
-791 4711 0
931 4711 0
5131 6111 0
5131 7091 0
-5131 -6111 -7091 0
-231 91 -6111 0
231 6111 0
-91 6111 0
231 -91 -7091 0
-231 7091 0
91 7091 0
5271 6251 0
5271 7231 0
-5271 -6251 -7231 0
-371 231 -6251 0
371 6251 0
-231 6251 0
371 -231 -7231 0
-371 7231 0
231 7231 0
5411 6391 0
5411 7371 0
-5411 -6391 -7371 0
-511 371 -6391 0
511 6391 0
-371 6391 0
511 -371 -7371 0
-511 7371 0
371 7371 0
5551 6531 0
5551 7511 0
-5551 -6531 -7511 0
-651 511 -6531 0
651 6531 0
-511 6531 0
651 -511 -7511 0
-651 7511 0
511 7511 0
5691 6671 0
5691 7651 0
-5691 -6671 -7651 0
-791 651 -6671 0
791 6671 0
-651 6671 0
791 -651 -7651 0
-791 7651 0
651 7651 0
5831 6811 0
5831 7791 0
-5831 -6811 -7791 0
-931 791 -6811 0
931 6811 0
-791 6811 0
931 -791 -7791 0
-931 7791 0
791 7791 0
1072 0
-1912 0
-2052 3032 0
-2052 4012 0
-2052 1072 0
-2052 -1212 0
2052 -3032 -4012 -1072 1212 0
-92 232 -3032 0
92 3032 0
-232 3032 0
92 -232 -4012 0
-92 4012 0
232 4012 0
-2192 3172 0
-2192 4152 0
-2192 1212 0
-2192 -1352 0
2192 -3172 -4152 -1212 1352 0
-232 372 -3172 0
232 3172 0
-372 3172 0
232 -372 -4152 0
-232 4152 0
372 4152 0
-2332 3312 0
-2332 4292 0
-2332 1352 0
-2332 -1492 0
2332 -3312 -4292 -1352 1492 0
-372 512 -3312 0
372 3312 0
-512 3312 0
372 -512 -4292 0
-372 4292 0
512 4292 0
-2472 3452 0
-2472 4432 0
-2472 1492 0
-2472 -1632 0
2472 -3452 -4432 -1492 1632 0
-512 652 -3452 0
512 3452 0
-652 3452 0
512 -652 -4432 0
-512 4432 0
652 4432 0
-2612 3592 0
-2612 4572 0
-2612 1632 0
-2612 -1772 0
2612 -3592 -4572 -1632 1772 0
-652 792 -3592 0
652 3592 0
-792 3592 0
652 -792 -4572 0
-652 4572 0
792 4572 0
-2752 3732 0
-2752 4712 0
-2752 1772 0
-2752 -1912 0
2752 -3732 -4712 -1772 1912 0
-792 932 -3732 0
792 3732 0
-932 3732 0
792 -932 -4712 0
-792 4712 0
932 4712 0
5132 6112 0
5132 7092 0
-5132 -6112 -7092 0
-232 92 -6112 0
232 6112 0
-92 6112 0
232 -92 -7092 0
-232 7092 0
92 7092 0
5272 6252 0
5272 7232 0
-5272 -6252 -7232 0
-372 232 -6252 0
372 6252 0
-232 6252 0
372 -232 -7232 0
-372 7232 0
232 7232 0
5412 6392 0
5412 7372 0
-5412 -6392 -7372 0
-512 372 -6392 0
512 6392 0
-372 6392 0
512 -372 -7372 0
-512 7372 0
372 7372 0
5552 6532 0
5552 7512 0
-5552 -6532 -7512 0
-652 512 -6532 0
652 6532 0
-512 6532 0
652 -512 -7512 0
-652 7512 0
512 7512 0
5692 6672 0
5692 7652 0
-5692 -6672 -7652 0
-792 652 -6672 0
792 6672 0
-652 6672 0
792 -652 -7652 0
-792 7652 0
652 7652 0
5832 6812 0
5832 7792 0
-5832 -6812 -7792 0
-932 792 -6812 0
932 6812 0
-792 6812 0
932 -792 -7792 0
-932 7792 0
792 7792 0
1073 0
-1913 0
-2053 3033 0
-2053 4013 0
-2053 1073 0
-2053 -1213 0
2053 -3033 -4013 -1073 1213 0
-93 233 -3033 0
93 3033 0
-233 3033 0
93 -233 -4013 0
-93 4013 0
233 4013 0
-2193 3173 0
-2193 4153 0
-2193 1213 0
-2193 -1353 0
2193 -3173 -4153 -1213 1353 0
-233 373 -3173 0
233 3173 0
-373 3173 0
233 -373 -4153 0
-233 4153 0
373 4153 0
-2333 3313 0
-2333 4293 0
-2333 1353 0
-2333 -1493 0
2333 -3313 -4293 -1353 1493 0
-373 513 -3313 0
373 3313 0
-513 3313 0
373 -513 -4293 0
-373 4293 0
513 4293 0
-2473 3453 0
-2473 4433 0
-2473 1493 0
-2473 -1633 0
2473 -3453 -4433 -1493 1633 0
-513 653 -3453 0
513 3453 0
-653 3453 0
513 -653 -4433 0
-513 4433 0
653 4433 0
-2613 3593 0
-2613 4573 0
-2613 1633 0
-2613 -1773 0
2613 -3593 -4573 -1633 1773 0
-653 793 -3593 0
653 3593 0
-793 3593 0
653 -793 -4573 0
-653 4573 0
793 4573 0
-2753 3733 0
-2753 4713 0
-2753 1773 0
-2753 -1913 0
2753 -3733 -4713 -1773 1913 0
-793 933 -3733 0
793 3733 0
-933 3733 0
793 -933 -4713 0
-793 4713 0
933 4713 0
5133 6113 0
5133 7093 0
-5133 -6113 -7093 0
-233 93 -6113 0
233 6113 0
-93 6113 0
233 -93 -7093 0
-233 7093 0
93 7093 0
5273 6253 0
5273 7233 0
-5273 -6253 -7233 0
-373 233 -6253 0
373 6253 0
-233 6253 0
373 -233 -7233 0
-373 7233 0
233 7233 0
5413 6393 0
5413 7373 0
-5413 -6393 -7373 0
-513 373 -6393 0
513 6393 0
-373 6393 0
513 -373 -7373 0
-513 7373 0
373 7373 0
5553 6533 0
5553 7513 0
-5553 -6533 -7513 0
-653 513 -6533 0
653 6533 0
-513 6533 0
653 -513 -7513 0
-653 7513 0
513 7513 0
5693 6673 0
5693 7653 0
-5693 -6673 -7653 0
-793 653 -6673 0
793 6673 0
-653 6673 0
793 -653 -7653 0
-793 7653 0
653 7653 0
5833 6813 0
5833 7793 0
-5833 -6813 -7793 0
-933 793 -6813 0
933 6813 0
-793 6813 0
933 -793 -7793 0
-933 7793 0
793 7793 0
1074 0
-1914 0
-2054 3034 0
-2054 4014 0
-2054 1074 0
-2054 -1214 0
2054 -3034 -4014 -1074 1214 0
-94 234 -3034 0
94 3034 0
-234 3034 0
94 -234 -4014 0
-94 4014 0
234 4014 0
-2194 3174 0
-2194 4154 0
-2194 1214 0
-2194 -1354 0
2194 -3174 -4154 -1214 1354 0
-234 374 -3174 0
234 3174 0
-374 3174 0
234 -374 -4154 0
-234 4154 0
374 4154 0
-2334 3314 0
-2334 4294 0
-2334 1354 0
-2334 -1494 0
2334 -3314 -4294 -1354 1494 0
-374 514 -3314 0
374 3314 0
-514 3314 0
374 -514 -4294 0
-374 4294 0
514 4294 0
-2474 3454 0
-2474 4434 0
-2474 1494 0
-2474 -1634 0
2474 -3454 -4434 -1494 1634 0
-514 654 -3454 0
514 3454 0
-654 3454 0
514 -654 -4434 0
-514 4434 0
654 4434 0
-2614 3594 0
-2614 4574 0
-2614 1634 0
-2614 -1774 0
2614 -3594 -4574 -1634 1774 0
-654 794 -3594 0
654 3594 0
-794 3594 0
654 -794 -4574 0
-654 4574 0
794 4574 0
-2754 3734 0
-2754 4714 0
-2754 1774 0
-2754 -1914 0
2754 -3734 -4714 -1774 1914 0
-794 934 -3734 0
794 3734 0
-934 3734 0
794 -934 -4714 0
-794 4714 0
934 4714 0
5134 6114 0
5134 7094 0
-5134 -6114 -7094 0
-234 94 -6114 0
234 6114 0
-94 6114 0
234 -94 -7094 0
-234 7094 0
94 7094 0
5274 6254 0
5274 7234 0
-5274 -6254 -7234 0
-374 234 -6254 0
374 6254 0
-234 6254 0
374 -234 -7234 0
-374 7234 0
234 7234 0
5414 6394 0
5414 7374 0
-5414 -6394 -7374 0
-514 374 -6394 0
514 6394 0
-374 6394 0
514 -374 -7374 0
-514 7374 0
374 7374 0
5554 6534 0
5554 7514 0
-5554 -6534 -7514 0
-654 514 -6534 0
654 6534 0
-514 6534 0
654 -514 -7514 0
-654 7514 0
514 7514 0
5694 6674 0
5694 7654 0
-5694 -6674 -7654 0
-794 654 -6674 0
794 6674 0
-654 6674 0
794 -654 -7654 0
-794 7654 0
654 7654 0
5834 6814 0
5834 7794 0
-5834 -6814 -7794 0
-934 794 -6814 0
934 6814 0
-794 6814 0
934 -794 -7794 0
-934 7794 0
794 7794 0
1075 0
-1915 0
-2055 3035 0
-2055 4015 0
-2055 1075 0
-2055 -1215 0
2055 -3035 -4015 -1075 1215 0
-95 235 -3035 0
95 3035 0
-235 3035 0
95 -235 -4015 0
-95 4015 0
235 4015 0
-2195 3175 0
-2195 4155 0
-2195 1215 0
-2195 -1355 0
2195 -3175 -4155 -1215 1355 0
-235 375 -3175 0
235 3175 0
-375 3175 0
235 -375 -4155 0
-235 4155 0
375 4155 0
-2335 3315 0
-2335 4295 0
-2335 1355 0
-2335 -1495 0
2335 -3315 -4295 -1355 1495 0
-375 515 -3315 0
375 3315 0
-515 3315 0
375 -515 -4295 0
-375 4295 0
515 4295 0
-2475 3455 0
-2475 4435 0
-2475 1495 0
-2475 -1635 0
2475 -3455 -4435 -1495 1635 0
-515 655 -3455 0
515 3455 0
-655 3455 0
515 -655 -4435 0
-515 4435 0
655 4435 0
-2615 3595 0
-2615 4575 0
-2615 1635 0
-2615 -1775 0
2615 -3595 -4575 -1635 1775 0
-655 795 -3595 0
655 3595 0
-795 3595 0
655 -795 -4575 0
-655 4575 0
795 4575 0
-2755 3735 0
-2755 4715 0
-2755 1775 0
-2755 -1915 0
2755 -3735 -4715 -1775 1915 0
-795 935 -3735 0
795 3735 0
-935 3735 0
795 -935 -4715 0
-795 4715 0
935 4715 0
5135 6115 0
5135 7095 0
-5135 -6115 -7095 0
-235 95 -6115 0
235 6115 0
-95 6115 0
235 -95 -7095 0
-235 7095 0
95 7095 0
5275 6255 0
5275 7235 0
-5275 -6255 -7235 0
-375 235 -6255 0
375 6255 0
-235 6255 0
375 -235 -7235 0
-375 7235 0
235 7235 0
5415 6395 0
5415 7375 0
-5415 -6395 -7375 0
-515 375 -6395 0
515 6395 0
-375 6395 0
515 -375 -7375 0
-515 7375 0
375 7375 0
5555 6535 0
5555 7515 0
-5555 -6535 -7515 0
-655 515 -6535 0
655 6535 0
-515 6535 0
655 -515 -7515 0
-655 7515 0
515 7515 0
5695 6675 0
5695 7655 0
-5695 -6675 -7655 0
-795 655 -6675 0
795 6675 0
-655 6675 0
795 -655 -7655 0
-795 7655 0
655 7655 0
5835 6815 0
5835 7795 0
-5835 -6815 -7795 0
-935 795 -6815 0
935 6815 0
-795 6815 0
935 -795 -7795 0
-935 7795 0
795 7795 0
1076 0
-1916 0
-2056 3036 0
-2056 4016 0
-2056 1076 0
-2056 -1216 0
2056 -3036 -4016 -1076 1216 0
-96 236 -3036 0
96 3036 0
-236 3036 0
96 -236 -4016 0
-96 4016 0
236 4016 0
-2196 3176 0
-2196 4156 0
-2196 1216 0
-2196 -1356 0
2196 -3176 -4156 -1216 1356 0
-236 376 -3176 0
236 3176 0
-376 3176 0
236 -376 -4156 0
-236 4156 0
376 4156 0
-2336 3316 0
-2336 4296 0
-2336 1356 0
-2336 -1496 0
2336 -3316 -4296 -1356 1496 0
-376 516 -3316 0
376 3316 0
-516 3316 0
376 -516 -4296 0
-376 4296 0
516 4296 0
-2476 3456 0
-2476 4436 0
-2476 1496 0
-2476 -1636 0
2476 -3456 -4436 -1496 1636 0
-516 656 -3456 0
516 3456 0
-656 3456 0
516 -656 -4436 0
-516 4436 0
656 4436 0
-2616 3596 0
-2616 4576 0
-2616 1636 0
-2616 -1776 0
2616 -3596 -4576 -1636 1776 0
-656 796 -3596 0
656 3596 0
-796 3596 0
656 -796 -4576 0
-656 4576 0
796 4576 0
-2756 3736 0
-2756 4716 0
-2756 1776 0
-2756 -1916 0
2756 -3736 -4716 -1776 1916 0
-796 936 -3736 0
796 3736 0
-936 3736 0
796 -936 -4716 0
-796 4716 0
936 4716 0
5136 6116 0
5136 7096 0
-5136 -6116 -7096 0
-236 96 -6116 0
236 6116 0
-96 6116 0
236 -96 -7096 0
-236 7096 0
96 7096 0
5276 6256 0
5276 7236 0
-5276 -6256 -7236 0
-376 236 -6256 0
376 6256 0
-236 6256 0
376 -236 -7236 0
-376 7236 0
236 7236 0
5416 6396 0
5416 7376 0
-5416 -6396 -7376 0
-516 376 -6396 0
516 6396 0
-376 6396 0
516 -376 -7376 0
-516 7376 0
376 7376 0
5556 6536 0
5556 7516 0
-5556 -6536 -7516 0
-656 516 -6536 0
656 6536 0
-516 6536 0
656 -516 -7516 0
-656 7516 0
516 7516 0
5696 6676 0
5696 7656 0
-5696 -6676 -7656 0
-796 656 -6676 0
796 6676 0
-656 6676 0
796 -656 -7656 0
-796 7656 0
656 7656 0
5836 6816 0
5836 7796 0
-5836 -6816 -7796 0
-936 796 -6816 0
936 6816 0
-796 6816 0
936 -796 -7796 0
-936 7796 0
796 7796 0
1077 0
-1917 0
-2057 3037 0
-2057 4017 0
-2057 1077 0
-2057 -1217 0
2057 -3037 -4017 -1077 1217 0
-97 237 -3037 0
97 3037 0
-237 3037 0
97 -237 -4017 0
-97 4017 0
237 4017 0
-2197 3177 0
-2197 4157 0
-2197 1217 0
-2197 -1357 0
2197 -3177 -4157 -1217 1357 0
-237 377 -3177 0
237 3177 0
-377 3177 0
237 -377 -4157 0
-237 4157 0
377 4157 0
-2337 3317 0
-2337 4297 0
-2337 1357 0
-2337 -1497 0
2337 -3317 -4297 -1357 1497 0
-377 517 -3317 0
377 3317 0
-517 3317 0
377 -517 -4297 0
-377 4297 0
517 4297 0
-2477 3457 0
-2477 4437 0
-2477 1497 0
-2477 -1637 0
2477 -3457 -4437 -1497 1637 0
-517 657 -3457 0
517 3457 0
-657 3457 0
517 -657 -4437 0
-517 4437 0
657 4437 0
-2617 3597 0
-2617 4577 0
-2617 1637 0
-2617 -1777 0
2617 -3597 -4577 -1637 1777 0
-657 797 -3597 0
657 3597 0
-797 3597 0
657 -797 -4577 0
-657 4577 0
797 4577 0
-2757 3737 0
-2757 4717 0
-2757 1777 0
-2757 -1917 0
2757 -3737 -4717 -1777 1917 0
-797 937 -3737 0
797 3737 0
-937 3737 0
797 -937 -4717 0
-797 4717 0
937 4717 0
5137 6117 0
5137 7097 0
-5137 -6117 -7097 0
-237 97 -6117 0
237 6117 0
-97 6117 0
237 -97 -7097 0
-237 7097 0
97 7097 0
5277 6257 0
5277 7237 0
-5277 -6257 -7237 0
-377 237 -6257 0
377 6257 0
-237 6257 0
377 -237 -7237 0
-377 7237 0
237 7237 0
5417 6397 0
5417 7377 0
-5417 -6397 -7377 0
-517 377 -6397 0
517 6397 0
-377 6397 0
517 -377 -7377 0
-517 7377 0
377 7377 0
5557 6537 0
5557 7517 0
-5557 -6537 -7517 0
-657 517 -6537 0
657 6537 0
-517 6537 0
657 -517 -7517 0
-657 7517 0
517 7517 0
5697 6677 0
5697 7657 0
-5697 -6677 -7657 0
-797 657 -6677 0
797 6677 0
-657 6677 0
797 -657 -7657 0
-797 7657 0
657 7657 0
5837 6817 0
5837 7797 0
-5837 -6817 -7797 0
-937 797 -6817 0
937 6817 0
-797 6817 0
937 -797 -7797 0
-937 7797 0
797 7797 0
1078 0
-1918 0
-2058 3038 0
-2058 4018 0
-2058 1078 0
-2058 -1218 0
2058 -3038 -4018 -1078 1218 0
-98 238 -3038 0
98 3038 0
-238 3038 0
98 -238 -4018 0
-98 4018 0
238 4018 0
-2198 3178 0
-2198 4158 0
-2198 1218 0
-2198 -1358 0
2198 -3178 -4158 -1218 1358 0
-238 378 -3178 0
238 3178 0
-378 3178 0
238 -378 -4158 0
-238 4158 0
378 4158 0
-2338 3318 0
-2338 4298 0
-2338 1358 0
-2338 -1498 0
2338 -3318 -4298 -1358 1498 0
-378 518 -3318 0
378 3318 0
-518 3318 0
378 -518 -4298 0
-378 4298 0
518 4298 0
-2478 3458 0
-2478 4438 0
-2478 1498 0
-2478 -1638 0
2478 -3458 -4438 -1498 1638 0
-518 658 -3458 0
518 3458 0
-658 3458 0
518 -658 -4438 0
-518 4438 0
658 4438 0
-2618 3598 0
-2618 4578 0
-2618 1638 0
-2618 -1778 0
2618 -3598 -4578 -1638 1778 0
-658 798 -3598 0
658 3598 0
-798 3598 0
658 -798 -4578 0
-658 4578 0
798 4578 0
-2758 3738 0
-2758 4718 0
-2758 1778 0
-2758 -1918 0
2758 -3738 -4718 -1778 1918 0
-798 938 -3738 0
798 3738 0
-938 3738 0
798 -938 -4718 0
-798 4718 0
938 4718 0
5138 6118 0
5138 7098 0
-5138 -6118 -7098 0
-238 98 -6118 0
238 6118 0
-98 6118 0
238 -98 -7098 0
-238 7098 0
98 7098 0
5278 6258 0
5278 7238 0
-5278 -6258 -7238 0
-378 238 -6258 0
378 6258 0
-238 6258 0
378 -238 -7238 0
-378 7238 0
238 7238 0
5418 6398 0
5418 7378 0
-5418 -6398 -7378 0
-518 378 -6398 0
518 6398 0
-378 6398 0
518 -378 -7378 0
-518 7378 0
378 7378 0
5558 6538 0
5558 7518 0
-5558 -6538 -7518 0
-658 518 -6538 0
658 6538 0
-518 6538 0
658 -518 -7518 0
-658 7518 0
518 7518 0
5698 6678 0
5698 7658 0
-5698 -6678 -7658 0
-798 658 -6678 0
798 6678 0
-658 6678 0
798 -658 -7658 0
-798 7658 0
658 7658 0
5838 6818 0
5838 7798 0
-5838 -6818 -7798 0
-938 798 -6818 0
938 6818 0
-798 6818 0
938 -798 -7798 0
-938 7798 0
798 7798 0
1079 0
-1919 0
-2059 3039 0
-2059 4019 0
-2059 1079 0
-2059 -1219 0
2059 -3039 -4019 -1079 1219 0
-99 239 -3039 0
99 3039 0
-239 3039 0
99 -239 -4019 0
-99 4019 0
239 4019 0
-2199 3179 0
-2199 4159 0
-2199 1219 0
-2199 -1359 0
2199 -3179 -4159 -1219 1359 0
-239 379 -3179 0
239 3179 0
-379 3179 0
239 -379 -4159 0
-239 4159 0
379 4159 0
-2339 3319 0
-2339 4299 0
-2339 1359 0
-2339 -1499 0
2339 -3319 -4299 -1359 1499 0
-379 519 -3319 0
379 3319 0
-519 3319 0
379 -519 -4299 0
-379 4299 0
519 4299 0
-2479 3459 0
-2479 4439 0
-2479 1499 0
-2479 -1639 0
2479 -3459 -4439 -1499 1639 0
-519 659 -3459 0
519 3459 0
-659 3459 0
519 -659 -4439 0
-519 4439 0
659 4439 0
-2619 3599 0
-2619 4579 0
-2619 1639 0
-2619 -1779 0
2619 -3599 -4579 -1639 1779 0
-659 799 -3599 0
659 3599 0
-799 3599 0
659 -799 -4579 0
-659 4579 0
799 4579 0
-2759 3739 0
-2759 4719 0
-2759 1779 0
-2759 -1919 0
2759 -3739 -4719 -1779 1919 0
-799 939 -3739 0
799 3739 0
-939 3739 0
799 -939 -4719 0
-799 4719 0
939 4719 0
5139 6119 0
5139 7099 0
-5139 -6119 -7099 0
-239 99 -6119 0
239 6119 0
-99 6119 0
239 -99 -7099 0
-239 7099 0
99 7099 0
5279 6259 0
5279 7239 0
-5279 -6259 -7239 0
-379 239 -6259 0
379 6259 0
-239 6259 0
379 -239 -7239 0
-379 7239 0
239 7239 0
5419 6399 0
5419 7379 0
-5419 -6399 -7379 0
-519 379 -6399 0
519 6399 0
-379 6399 0
519 -379 -7379 0
-519 7379 0
379 7379 0
5559 6539 0
5559 7519 0
-5559 -6539 -7519 0
-659 519 -6539 0
659 6539 0
-519 6539 0
659 -519 -7519 0
-659 7519 0
519 7519 0
5699 6679 0
5699 7659 0
-5699 -6679 -7659 0
-799 659 -6679 0
799 6679 0
-659 6679 0
799 -659 -7659 0
-799 7659 0
659 7659 0
5839 6819 0
5839 7799 0
-5839 -6819 -7799 0
-939 799 -6819 0
939 6819 0
-799 6819 0
939 -799 -7799 0
-939 7799 0
799 7799 0
1080 0
-1920 0
-2060 3040 0
-2060 4020 0
-2060 1080 0
-2060 -1220 0
2060 -3040 -4020 -1080 1220 0
-100 240 -3040 0
100 3040 0
-240 3040 0
100 -240 -4020 0
-100 4020 0
240 4020 0
-2200 3180 0
-2200 4160 0
-2200 1220 0
-2200 -1360 0
2200 -3180 -4160 -1220 1360 0
-240 380 -3180 0
240 3180 0
-380 3180 0
240 -380 -4160 0
-240 4160 0
380 4160 0
-2340 3320 0
-2340 4300 0
-2340 1360 0
-2340 -1500 0
2340 -3320 -4300 -1360 1500 0
-380 520 -3320 0
380 3320 0
-520 3320 0
380 -520 -4300 0
-380 4300 0
520 4300 0
-2480 3460 0
-2480 4440 0
-2480 1500 0
-2480 -1640 0
2480 -3460 -4440 -1500 1640 0
-520 660 -3460 0
520 3460 0
-660 3460 0
520 -660 -4440 0
-520 4440 0
660 4440 0
-2620 3600 0
-2620 4580 0
-2620 1640 0
-2620 -1780 0
2620 -3600 -4580 -1640 1780 0
-660 800 -3600 0
660 3600 0
-800 3600 0
660 -800 -4580 0
-660 4580 0
800 4580 0
-2760 3740 0
-2760 4720 0
-2760 1780 0
-2760 -1920 0
2760 -3740 -4720 -1780 1920 0
-800 940 -3740 0
800 3740 0
-940 3740 0
800 -940 -4720 0
-800 4720 0
940 4720 0
5140 6120 0
5140 7100 0
-5140 -6120 -7100 0
-240 100 -6120 0
240 6120 0
-100 6120 0
240 -100 -7100 0
-240 7100 0
100 7100 0
5280 6260 0
5280 7240 0
-5280 -6260 -7240 0
-380 240 -6260 0
380 6260 0
-240 6260 0
380 -240 -7240 0
-380 7240 0
240 7240 0
5420 6400 0
5420 7380 0
-5420 -6400 -7380 0
-520 380 -6400 0
520 6400 0
-380 6400 0
520 -380 -7380 0
-520 7380 0
380 7380 0
5560 6540 0
5560 7520 0
-5560 -6540 -7520 0
-660 520 -6540 0
660 6540 0
-520 6540 0
660 -520 -7520 0
-660 7520 0
520 7520 0
5700 6680 0
5700 7660 0
-5700 -6680 -7660 0
-800 660 -6680 0
800 6680 0
-660 6680 0
800 -660 -7660 0
-800 7660 0
660 7660 0
5840 6820 0
5840 7800 0
-5840 -6820 -7800 0
-940 800 -6820 0
940 6820 0
-800 6820 0
940 -800 -7800 0
-940 7800 0
800 7800 0
1081 0
-1921 0
-2061 3041 0
-2061 4021 0
-2061 1081 0
-2061 -1221 0
2061 -3041 -4021 -1081 1221 0
-101 241 -3041 0
101 3041 0
-241 3041 0
101 -241 -4021 0
-101 4021 0
241 4021 0
-2201 3181 0
-2201 4161 0
-2201 1221 0
-2201 -1361 0
2201 -3181 -4161 -1221 1361 0
-241 381 -3181 0
241 3181 0
-381 3181 0
241 -381 -4161 0
-241 4161 0
381 4161 0
-2341 3321 0
-2341 4301 0
-2341 1361 0
-2341 -1501 0
2341 -3321 -4301 -1361 1501 0
-381 521 -3321 0
381 3321 0
-521 3321 0
381 -521 -4301 0
-381 4301 0
521 4301 0
-2481 3461 0
-2481 4441 0
-2481 1501 0
-2481 -1641 0
2481 -3461 -4441 -1501 1641 0
-521 661 -3461 0
521 3461 0
-661 3461 0
521 -661 -4441 0
-521 4441 0
661 4441 0
-2621 3601 0
-2621 4581 0
-2621 1641 0
-2621 -1781 0
2621 -3601 -4581 -1641 1781 0
-661 801 -3601 0
661 3601 0
-801 3601 0
661 -801 -4581 0
-661 4581 0
801 4581 0
-2761 3741 0
-2761 4721 0
-2761 1781 0
-2761 -1921 0
2761 -3741 -4721 -1781 1921 0
-801 941 -3741 0
801 3741 0
-941 3741 0
801 -941 -4721 0
-801 4721 0
941 4721 0
5141 6121 0
5141 7101 0
-5141 -6121 -7101 0
-241 101 -6121 0
241 6121 0
-101 6121 0
241 -101 -7101 0
-241 7101 0
101 7101 0
5281 6261 0
5281 7241 0
-5281 -6261 -7241 0
-381 241 -6261 0
381 6261 0
-241 6261 0
381 -241 -7241 0
-381 7241 0
241 7241 0
5421 6401 0
5421 7381 0
-5421 -6401 -7381 0
-521 381 -6401 0
521 6401 0
-381 6401 0
521 -381 -7381 0
-521 7381 0
381 7381 0
5561 6541 0
5561 7521 0
-5561 -6541 -7521 0
-661 521 -6541 0
661 6541 0
-521 6541 0
661 -521 -7521 0
-661 7521 0
521 7521 0
5701 6681 0
5701 7661 0
-5701 -6681 -7661 0
-801 661 -6681 0
801 6681 0
-661 6681 0
801 -661 -7661 0
-801 7661 0
661 7661 0
5841 6821 0
5841 7801 0
-5841 -6821 -7801 0
-941 801 -6821 0
941 6821 0
-801 6821 0
941 -801 -7801 0
-941 7801 0
801 7801 0
1082 0
-1922 0
-2062 3042 0
-2062 4022 0
-2062 1082 0
-2062 -1222 0
2062 -3042 -4022 -1082 1222 0
-102 242 -3042 0
102 3042 0
-242 3042 0
102 -242 -4022 0
-102 4022 0
242 4022 0
-2202 3182 0
-2202 4162 0
-2202 1222 0
-2202 -1362 0
2202 -3182 -4162 -1222 1362 0
-242 382 -3182 0
242 3182 0
-382 3182 0
242 -382 -4162 0
-242 4162 0
382 4162 0
-2342 3322 0
-2342 4302 0
-2342 1362 0
-2342 -1502 0
2342 -3322 -4302 -1362 1502 0
-382 522 -3322 0
382 3322 0
-522 3322 0
382 -522 -4302 0
-382 4302 0
522 4302 0
-2482 3462 0
-2482 4442 0
-2482 1502 0
-2482 -1642 0
2482 -3462 -4442 -1502 1642 0
-522 662 -3462 0
522 3462 0
-662 3462 0
522 -662 -4442 0
-522 4442 0
662 4442 0
-2622 3602 0
-2622 4582 0
-2622 1642 0
-2622 -1782 0
2622 -3602 -4582 -1642 1782 0
-662 802 -3602 0
662 3602 0
-802 3602 0
662 -802 -4582 0
-662 4582 0
802 4582 0
-2762 3742 0
-2762 4722 0
-2762 1782 0
-2762 -1922 0
2762 -3742 -4722 -1782 1922 0
-802 942 -3742 0
802 3742 0
-942 3742 0
802 -942 -4722 0
-802 4722 0
942 4722 0
5142 6122 0
5142 7102 0
-5142 -6122 -7102 0
-242 102 -6122 0
242 6122 0
-102 6122 0
242 -102 -7102 0
-242 7102 0
102 7102 0
5282 6262 0
5282 7242 0
-5282 -6262 -7242 0
-382 242 -6262 0
382 6262 0
-242 6262 0
382 -242 -7242 0
-382 7242 0
242 7242 0
5422 6402 0
5422 7382 0
-5422 -6402 -7382 0
-522 382 -6402 0
522 6402 0
-382 6402 0
522 -382 -7382 0
-522 7382 0
382 7382 0
5562 6542 0
5562 7522 0
-5562 -6542 -7522 0
-662 522 -6542 0
662 6542 0
-522 6542 0
662 -522 -7522 0
-662 7522 0
522 7522 0
5702 6682 0
5702 7662 0
-5702 -6682 -7662 0
-802 662 -6682 0
802 6682 0
-662 6682 0
802 -662 -7662 0
-802 7662 0
662 7662 0
5842 6822 0
5842 7802 0
-5842 -6822 -7802 0
-942 802 -6822 0
942 6822 0
-802 6822 0
942 -802 -7802 0
-942 7802 0
802 7802 0
1083 0
-1923 0
-2063 3043 0
-2063 4023 0
-2063 1083 0
-2063 -1223 0
2063 -3043 -4023 -1083 1223 0
-103 243 -3043 0
103 3043 0
-243 3043 0
103 -243 -4023 0
-103 4023 0
243 4023 0
-2203 3183 0
-2203 4163 0
-2203 1223 0
-2203 -1363 0
2203 -3183 -4163 -1223 1363 0
-243 383 -3183 0
243 3183 0
-383 3183 0
243 -383 -4163 0
-243 4163 0
383 4163 0
-2343 3323 0
-2343 4303 0
-2343 1363 0
-2343 -1503 0
2343 -3323 -4303 -1363 1503 0
-383 523 -3323 0
383 3323 0
-523 3323 0
383 -523 -4303 0
-383 4303 0
523 4303 0
-2483 3463 0
-2483 4443 0
-2483 1503 0
-2483 -1643 0
2483 -3463 -4443 -1503 1643 0
-523 663 -3463 0
523 3463 0
-663 3463 0
523 -663 -4443 0
-523 4443 0
663 4443 0
-2623 3603 0
-2623 4583 0
-2623 1643 0
-2623 -1783 0
2623 -3603 -4583 -1643 1783 0
-663 803 -3603 0
663 3603 0
-803 3603 0
663 -803 -4583 0
-663 4583 0
803 4583 0
-2763 3743 0
-2763 4723 0
-2763 1783 0
-2763 -1923 0
2763 -3743 -4723 -1783 1923 0
-803 943 -3743 0
803 3743 0
-943 3743 0
803 -943 -4723 0
-803 4723 0
943 4723 0
5143 6123 0
5143 7103 0
-5143 -6123 -7103 0
-243 103 -6123 0
243 6123 0
-103 6123 0
243 -103 -7103 0
-243 7103 0
103 7103 0
5283 6263 0
5283 7243 0
-5283 -6263 -7243 0
-383 243 -6263 0
383 6263 0
-243 6263 0
383 -243 -7243 0
-383 7243 0
243 7243 0
5423 6403 0
5423 7383 0
-5423 -6403 -7383 0
-523 383 -6403 0
523 6403 0
-383 6403 0
523 -383 -7383 0
-523 7383 0
383 7383 0
5563 6543 0
5563 7523 0
-5563 -6543 -7523 0
-663 523 -6543 0
663 6543 0
-523 6543 0
663 -523 -7523 0
-663 7523 0
523 7523 0
5703 6683 0
5703 7663 0
-5703 -6683 -7663 0
-803 663 -6683 0
803 6683 0
-663 6683 0
803 -663 -7663 0
-803 7663 0
663 7663 0
5843 6823 0
5843 7803 0
-5843 -6823 -7803 0
-943 803 -6823 0
943 6823 0
-803 6823 0
943 -803 -7803 0
-943 7803 0
803 7803 0
1084 0
-1924 0
-2064 3044 0
-2064 4024 0
-2064 1084 0
-2064 -1224 0
2064 -3044 -4024 -1084 1224 0
-104 244 -3044 0
104 3044 0
-244 3044 0
104 -244 -4024 0
-104 4024 0
244 4024 0
-2204 3184 0
-2204 4164 0
-2204 1224 0
-2204 -1364 0
2204 -3184 -4164 -1224 1364 0
-244 384 -3184 0
244 3184 0
-384 3184 0
244 -384 -4164 0
-244 4164 0
384 4164 0
-2344 3324 0
-2344 4304 0
-2344 1364 0
-2344 -1504 0
2344 -3324 -4304 -1364 1504 0
-384 524 -3324 0
384 3324 0
-524 3324 0
384 -524 -4304 0
-384 4304 0
524 4304 0
-2484 3464 0
-2484 4444 0
-2484 1504 0
-2484 -1644 0
2484 -3464 -4444 -1504 1644 0
-524 664 -3464 0
524 3464 0
-664 3464 0
524 -664 -4444 0
-524 4444 0
664 4444 0
-2624 3604 0
-2624 4584 0
-2624 1644 0
-2624 -1784 0
2624 -3604 -4584 -1644 1784 0
-664 804 -3604 0
664 3604 0
-804 3604 0
664 -804 -4584 0
-664 4584 0
804 4584 0
-2764 3744 0
-2764 4724 0
-2764 1784 0
-2764 -1924 0
2764 -3744 -4724 -1784 1924 0
-804 944 -3744 0
804 3744 0
-944 3744 0
804 -944 -4724 0
-804 4724 0
944 4724 0
5144 6124 0
5144 7104 0
-5144 -6124 -7104 0
-244 104 -6124 0
244 6124 0
-104 6124 0
244 -104 -7104 0
-244 7104 0
104 7104 0
5284 6264 0
5284 7244 0
-5284 -6264 -7244 0
-384 244 -6264 0
384 6264 0
-244 6264 0
384 -244 -7244 0
-384 7244 0
244 7244 0
5424 6404 0
5424 7384 0
-5424 -6404 -7384 0
-524 384 -6404 0
524 6404 0
-384 6404 0
524 -384 -7384 0
-524 7384 0
384 7384 0
5564 6544 0
5564 7524 0
-5564 -6544 -7524 0
-664 524 -6544 0
664 6544 0
-524 6544 0
664 -524 -7524 0
-664 7524 0
524 7524 0
5704 6684 0
5704 7664 0
-5704 -6684 -7664 0
-804 664 -6684 0
804 6684 0
-664 6684 0
804 -664 -7664 0
-804 7664 0
664 7664 0
5844 6824 0
5844 7804 0
-5844 -6824 -7804 0
-944 804 -6824 0
944 6824 0
-804 6824 0
944 -804 -7804 0
-944 7804 0
804 7804 0
1085 0
-1925 0
-2065 3045 0
-2065 4025 0
-2065 1085 0
-2065 -1225 0
2065 -3045 -4025 -1085 1225 0
-105 245 -3045 0
105 3045 0
-245 3045 0
105 -245 -4025 0
-105 4025 0
245 4025 0
-2205 3185 0
-2205 4165 0
-2205 1225 0
-2205 -1365 0
2205 -3185 -4165 -1225 1365 0
-245 385 -3185 0
245 3185 0
-385 3185 0
245 -385 -4165 0
-245 4165 0
385 4165 0
-2345 3325 0
-2345 4305 0
-2345 1365 0
-2345 -1505 0
2345 -3325 -4305 -1365 1505 0
-385 525 -3325 0
385 3325 0
-525 3325 0
385 -525 -4305 0
-385 4305 0
525 4305 0
-2485 3465 0
-2485 4445 0
-2485 1505 0
-2485 -1645 0
2485 -3465 -4445 -1505 1645 0
-525 665 -3465 0
525 3465 0
-665 3465 0
525 -665 -4445 0
-525 4445 0
665 4445 0
-2625 3605 0
-2625 4585 0
-2625 1645 0
-2625 -1785 0
2625 -3605 -4585 -1645 1785 0
-665 805 -3605 0
665 3605 0
-805 3605 0
665 -805 -4585 0
-665 4585 0
805 4585 0
-2765 3745 0
-2765 4725 0
-2765 1785 0
-2765 -1925 0
2765 -3745 -4725 -1785 1925 0
-805 945 -3745 0
805 3745 0
-945 3745 0
805 -945 -4725 0
-805 4725 0
945 4725 0
5145 6125 0
5145 7105 0
-5145 -6125 -7105 0
-245 105 -6125 0
245 6125 0
-105 6125 0
245 -105 -7105 0
-245 7105 0
105 7105 0
5285 6265 0
5285 7245 0
-5285 -6265 -7245 0
-385 245 -6265 0
385 6265 0
-245 6265 0
385 -245 -7245 0
-385 7245 0
245 7245 0
5425 6405 0
5425 7385 0
-5425 -6405 -7385 0
-525 385 -6405 0
525 6405 0
-385 6405 0
525 -385 -7385 0
-525 7385 0
385 7385 0
5565 6545 0
5565 7525 0
-5565 -6545 -7525 0
-665 525 -6545 0
665 6545 0
-525 6545 0
665 -525 -7525 0
-665 7525 0
525 7525 0
5705 6685 0
5705 7665 0
-5705 -6685 -7665 0
-805 665 -6685 0
805 6685 0
-665 6685 0
805 -665 -7665 0
-805 7665 0
665 7665 0
5845 6825 0
5845 7805 0
-5845 -6825 -7805 0
-945 805 -6825 0
945 6825 0
-805 6825 0
945 -805 -7805 0
-945 7805 0
805 7805 0
1086 0
-1926 0
-2066 3046 0
-2066 4026 0
-2066 1086 0
-2066 -1226 0
2066 -3046 -4026 -1086 1226 0
-106 246 -3046 0
106 3046 0
-246 3046 0
106 -246 -4026 0
-106 4026 0
246 4026 0
-2206 3186 0
-2206 4166 0
-2206 1226 0
-2206 -1366 0
2206 -3186 -4166 -1226 1366 0
-246 386 -3186 0
246 3186 0
-386 3186 0
246 -386 -4166 0
-246 4166 0
386 4166 0
-2346 3326 0
-2346 4306 0
-2346 1366 0
-2346 -1506 0
2346 -3326 -4306 -1366 1506 0
-386 526 -3326 0
386 3326 0
-526 3326 0
386 -526 -4306 0
-386 4306 0
526 4306 0
-2486 3466 0
-2486 4446 0
-2486 1506 0
-2486 -1646 0
2486 -3466 -4446 -1506 1646 0
-526 666 -3466 0
526 3466 0
-666 3466 0
526 -666 -4446 0
-526 4446 0
666 4446 0
-2626 3606 0
-2626 4586 0
-2626 1646 0
-2626 -1786 0
2626 -3606 -4586 -1646 1786 0
-666 806 -3606 0
666 3606 0
-806 3606 0
666 -806 -4586 0
-666 4586 0
806 4586 0
-2766 3746 0
-2766 4726 0
-2766 1786 0
-2766 -1926 0
2766 -3746 -4726 -1786 1926 0
-806 946 -3746 0
806 3746 0
-946 3746 0
806 -946 -4726 0
-806 4726 0
946 4726 0
5146 6126 0
5146 7106 0
-5146 -6126 -7106 0
-246 106 -6126 0
246 6126 0
-106 6126 0
246 -106 -7106 0
-246 7106 0
106 7106 0
5286 6266 0
5286 7246 0
-5286 -6266 -7246 0
-386 246 -6266 0
386 6266 0
-246 6266 0
386 -246 -7246 0
-386 7246 0
246 7246 0
5426 6406 0
5426 7386 0
-5426 -6406 -7386 0
-526 386 -6406 0
526 6406 0
-386 6406 0
526 -386 -7386 0
-526 7386 0
386 7386 0
5566 6546 0
5566 7526 0
-5566 -6546 -7526 0
-666 526 -6546 0
666 6546 0
-526 6546 0
666 -526 -7526 0
-666 7526 0
526 7526 0
5706 6686 0
5706 7666 0
-5706 -6686 -7666 0
-806 666 -6686 0
806 6686 0
-666 6686 0
806 -666 -7666 0
-806 7666 0
666 7666 0
5846 6826 0
5846 7806 0
-5846 -6826 -7806 0
-946 806 -6826 0
946 6826 0
-806 6826 0
946 -806 -7806 0
-946 7806 0
806 7806 0
1087 0
-1927 0
-2067 3047 0
-2067 4027 0
-2067 1087 0
-2067 -1227 0
2067 -3047 -4027 -1087 1227 0
-107 247 -3047 0
107 3047 0
-247 3047 0
107 -247 -4027 0
-107 4027 0
247 4027 0
-2207 3187 0
-2207 4167 0
-2207 1227 0
-2207 -1367 0
2207 -3187 -4167 -1227 1367 0
-247 387 -3187 0
247 3187 0
-387 3187 0
247 -387 -4167 0
-247 4167 0
387 4167 0
-2347 3327 0
-2347 4307 0
-2347 1367 0
-2347 -1507 0
2347 -3327 -4307 -1367 1507 0
-387 527 -3327 0
387 3327 0
-527 3327 0
387 -527 -4307 0
-387 4307 0
527 4307 0
-2487 3467 0
-2487 4447 0
-2487 1507 0
-2487 -1647 0
2487 -3467 -4447 -1507 1647 0
-527 667 -3467 0
527 3467 0
-667 3467 0
527 -667 -4447 0
-527 4447 0
667 4447 0
-2627 3607 0
-2627 4587 0
-2627 1647 0
-2627 -1787 0
2627 -3607 -4587 -1647 1787 0
-667 807 -3607 0
667 3607 0
-807 3607 0
667 -807 -4587 0
-667 4587 0
807 4587 0
-2767 3747 0
-2767 4727 0
-2767 1787 0
-2767 -1927 0
2767 -3747 -4727 -1787 1927 0
-807 947 -3747 0
807 3747 0
-947 3747 0
807 -947 -4727 0
-807 4727 0
947 4727 0
5147 6127 0
5147 7107 0
-5147 -6127 -7107 0
-247 107 -6127 0
247 6127 0
-107 6127 0
247 -107 -7107 0
-247 7107 0
107 7107 0
5287 6267 0
5287 7247 0
-5287 -6267 -7247 0
-387 247 -6267 0
387 6267 0
-247 6267 0
387 -247 -7247 0
-387 7247 0
247 7247 0
5427 6407 0
5427 7387 0
-5427 -6407 -7387 0
-527 387 -6407 0
527 6407 0
-387 6407 0
527 -387 -7387 0
-527 7387 0
387 7387 0
5567 6547 0
5567 7527 0
-5567 -6547 -7527 0
-667 527 -6547 0
667 6547 0
-527 6547 0
667 -527 -7527 0
-667 7527 0
527 7527 0
5707 6687 0
5707 7667 0
-5707 -6687 -7667 0
-807 667 -6687 0
807 6687 0
-667 6687 0
807 -667 -7667 0
-807 7667 0
667 7667 0
5847 6827 0
5847 7807 0
-5847 -6827 -7807 0
-947 807 -6827 0
947 6827 0
-807 6827 0
947 -807 -7807 0
-947 7807 0
807 7807 0
1088 0
-1928 0
-2068 3048 0
-2068 4028 0
-2068 1088 0
-2068 -1228 0
2068 -3048 -4028 -1088 1228 0
-108 248 -3048 0
108 3048 0
-248 3048 0
108 -248 -4028 0
-108 4028 0
248 4028 0
-2208 3188 0
-2208 4168 0
-2208 1228 0
-2208 -1368 0
2208 -3188 -4168 -1228 1368 0
-248 388 -3188 0
248 3188 0
-388 3188 0
248 -388 -4168 0
-248 4168 0
388 4168 0
-2348 3328 0
-2348 4308 0
-2348 1368 0
-2348 -1508 0
2348 -3328 -4308 -1368 1508 0
-388 528 -3328 0
388 3328 0
-528 3328 0
388 -528 -4308 0
-388 4308 0
528 4308 0
-2488 3468 0
-2488 4448 0
-2488 1508 0
-2488 -1648 0
2488 -3468 -4448 -1508 1648 0
-528 668 -3468 0
528 3468 0
-668 3468 0
528 -668 -4448 0
-528 4448 0
668 4448 0
-2628 3608 0
-2628 4588 0
-2628 1648 0
-2628 -1788 0
2628 -3608 -4588 -1648 1788 0
-668 808 -3608 0
668 3608 0
-808 3608 0
668 -808 -4588 0
-668 4588 0
808 4588 0
-2768 3748 0
-2768 4728 0
-2768 1788 0
-2768 -1928 0
2768 -3748 -4728 -1788 1928 0
-808 948 -3748 0
808 3748 0
-948 3748 0
808 -948 -4728 0
-808 4728 0
948 4728 0
5148 6128 0
5148 7108 0
-5148 -6128 -7108 0
-248 108 -6128 0
248 6128 0
-108 6128 0
248 -108 -7108 0
-248 7108 0
108 7108 0
5288 6268 0
5288 7248 0
-5288 -6268 -7248 0
-388 248 -6268 0
388 6268 0
-248 6268 0
388 -248 -7248 0
-388 7248 0
248 7248 0
5428 6408 0
5428 7388 0
-5428 -6408 -7388 0
-528 388 -6408 0
528 6408 0
-388 6408 0
528 -388 -7388 0
-528 7388 0
388 7388 0
5568 6548 0
5568 7528 0
-5568 -6548 -7528 0
-668 528 -6548 0
668 6548 0
-528 6548 0
668 -528 -7528 0
-668 7528 0
528 7528 0
5708 6688 0
5708 7668 0
-5708 -6688 -7668 0
-808 668 -6688 0
808 6688 0
-668 6688 0
808 -668 -7668 0
-808 7668 0
668 7668 0
5848 6828 0
5848 7808 0
-5848 -6828 -7808 0
-948 808 -6828 0
948 6828 0
-808 6828 0
948 -808 -7808 0
-948 7808 0
808 7808 0
1089 0
-1929 0
-2069 3049 0
-2069 4029 0
-2069 1089 0
-2069 -1229 0
2069 -3049 -4029 -1089 1229 0
-109 249 -3049 0
109 3049 0
-249 3049 0
109 -249 -4029 0
-109 4029 0
249 4029 0
-2209 3189 0
-2209 4169 0
-2209 1229 0
-2209 -1369 0
2209 -3189 -4169 -1229 1369 0
-249 389 -3189 0
249 3189 0
-389 3189 0
249 -389 -4169 0
-249 4169 0
389 4169 0
-2349 3329 0
-2349 4309 0
-2349 1369 0
-2349 -1509 0
2349 -3329 -4309 -1369 1509 0
-389 529 -3329 0
389 3329 0
-529 3329 0
389 -529 -4309 0
-389 4309 0
529 4309 0
-2489 3469 0
-2489 4449 0
-2489 1509 0
-2489 -1649 0
2489 -3469 -4449 -1509 1649 0
-529 669 -3469 0
529 3469 0
-669 3469 0
529 -669 -4449 0
-529 4449 0
669 4449 0
-2629 3609 0
-2629 4589 0
-2629 1649 0
-2629 -1789 0
2629 -3609 -4589 -1649 1789 0
-669 809 -3609 0
669 3609 0
-809 3609 0
669 -809 -4589 0
-669 4589 0
809 4589 0
-2769 3749 0
-2769 4729 0
-2769 1789 0
-2769 -1929 0
2769 -3749 -4729 -1789 1929 0
-809 949 -3749 0
809 3749 0
-949 3749 0
809 -949 -4729 0
-809 4729 0
949 4729 0
5149 6129 0
5149 7109 0
-5149 -6129 -7109 0
-249 109 -6129 0
249 6129 0
-109 6129 0
249 -109 -7109 0
-249 7109 0
109 7109 0
5289 6269 0
5289 7249 0
-5289 -6269 -7249 0
-389 249 -6269 0
389 6269 0
-249 6269 0
389 -249 -7249 0
-389 7249 0
249 7249 0
5429 6409 0
5429 7389 0
-5429 -6409 -7389 0
-529 389 -6409 0
529 6409 0
-389 6409 0
529 -389 -7389 0
-529 7389 0
389 7389 0
5569 6549 0
5569 7529 0
-5569 -6549 -7529 0
-669 529 -6549 0
669 6549 0
-529 6549 0
669 -529 -7529 0
-669 7529 0
529 7529 0
5709 6689 0
5709 7669 0
-5709 -6689 -7669 0
-809 669 -6689 0
809 6689 0
-669 6689 0
809 -669 -7669 0
-809 7669 0
669 7669 0
5849 6829 0
5849 7809 0
-5849 -6829 -7809 0
-949 809 -6829 0
949 6829 0
-809 6829 0
949 -809 -7809 0
-949 7809 0
809 7809 0
1090 0
-1930 0
-2070 3050 0
-2070 4030 0
-2070 1090 0
-2070 -1230 0
2070 -3050 -4030 -1090 1230 0
-110 250 -3050 0
110 3050 0
-250 3050 0
110 -250 -4030 0
-110 4030 0
250 4030 0
-2210 3190 0
-2210 4170 0
-2210 1230 0
-2210 -1370 0
2210 -3190 -4170 -1230 1370 0
-250 390 -3190 0
250 3190 0
-390 3190 0
250 -390 -4170 0
-250 4170 0
390 4170 0
-2350 3330 0
-2350 4310 0
-2350 1370 0
-2350 -1510 0
2350 -3330 -4310 -1370 1510 0
-390 530 -3330 0
390 3330 0
-530 3330 0
390 -530 -4310 0
-390 4310 0
530 4310 0
-2490 3470 0
-2490 4450 0
-2490 1510 0
-2490 -1650 0
2490 -3470 -4450 -1510 1650 0
-530 670 -3470 0
530 3470 0
-670 3470 0
530 -670 -4450 0
-530 4450 0
670 4450 0
-2630 3610 0
-2630 4590 0
-2630 1650 0
-2630 -1790 0
2630 -3610 -4590 -1650 1790 0
-670 810 -3610 0
670 3610 0
-810 3610 0
670 -810 -4590 0
-670 4590 0
810 4590 0
-2770 3750 0
-2770 4730 0
-2770 1790 0
-2770 -1930 0
2770 -3750 -4730 -1790 1930 0
-810 950 -3750 0
810 3750 0
-950 3750 0
810 -950 -4730 0
-810 4730 0
950 4730 0
5150 6130 0
5150 7110 0
-5150 -6130 -7110 0
-250 110 -6130 0
250 6130 0
-110 6130 0
250 -110 -7110 0
-250 7110 0
110 7110 0
5290 6270 0
5290 7250 0
-5290 -6270 -7250 0
-390 250 -6270 0
390 6270 0
-250 6270 0
390 -250 -7250 0
-390 7250 0
250 7250 0
5430 6410 0
5430 7390 0
-5430 -6410 -7390 0
-530 390 -6410 0
530 6410 0
-390 6410 0
530 -390 -7390 0
-530 7390 0
390 7390 0
5570 6550 0
5570 7530 0
-5570 -6550 -7530 0
-670 530 -6550 0
670 6550 0
-530 6550 0
670 -530 -7530 0
-670 7530 0
530 7530 0
5710 6690 0
5710 7670 0
-5710 -6690 -7670 0
-810 670 -6690 0
810 6690 0
-670 6690 0
810 -670 -7670 0
-810 7670 0
670 7670 0
5850 6830 0
5850 7810 0
-5850 -6830 -7810 0
-950 810 -6830 0
950 6830 0
-810 6830 0
950 -810 -7810 0
-950 7810 0
810 7810 0
1091 0
-1931 0
-2071 3051 0
-2071 4031 0
-2071 1091 0
-2071 -1231 0
2071 -3051 -4031 -1091 1231 0
-111 251 -3051 0
111 3051 0
-251 3051 0
111 -251 -4031 0
-111 4031 0
251 4031 0
-2211 3191 0
-2211 4171 0
-2211 1231 0
-2211 -1371 0
2211 -3191 -4171 -1231 1371 0
-251 391 -3191 0
251 3191 0
-391 3191 0
251 -391 -4171 0
-251 4171 0
391 4171 0
-2351 3331 0
-2351 4311 0
-2351 1371 0
-2351 -1511 0
2351 -3331 -4311 -1371 1511 0
-391 531 -3331 0
391 3331 0
-531 3331 0
391 -531 -4311 0
-391 4311 0
531 4311 0
-2491 3471 0
-2491 4451 0
-2491 1511 0
-2491 -1651 0
2491 -3471 -4451 -1511 1651 0
-531 671 -3471 0
531 3471 0
-671 3471 0
531 -671 -4451 0
-531 4451 0
671 4451 0
-2631 3611 0
-2631 4591 0
-2631 1651 0
-2631 -1791 0
2631 -3611 -4591 -1651 1791 0
-671 811 -3611 0
671 3611 0
-811 3611 0
671 -811 -4591 0
-671 4591 0
811 4591 0
-2771 3751 0
-2771 4731 0
-2771 1791 0
-2771 -1931 0
2771 -3751 -4731 -1791 1931 0
-811 951 -3751 0
811 3751 0
-951 3751 0
811 -951 -4731 0
-811 4731 0
951 4731 0
5151 6131 0
5151 7111 0
-5151 -6131 -7111 0
-251 111 -6131 0
251 6131 0
-111 6131 0
251 -111 -7111 0
-251 7111 0
111 7111 0
5291 6271 0
5291 7251 0
-5291 -6271 -7251 0
-391 251 -6271 0
391 6271 0
-251 6271 0
391 -251 -7251 0
-391 7251 0
251 7251 0
5431 6411 0
5431 7391 0
-5431 -6411 -7391 0
-531 391 -6411 0
531 6411 0
-391 6411 0
531 -391 -7391 0
-531 7391 0
391 7391 0
5571 6551 0
5571 7531 0
-5571 -6551 -7531 0
-671 531 -6551 0
671 6551 0
-531 6551 0
671 -531 -7531 0
-671 7531 0
531 7531 0
5711 6691 0
5711 7671 0
-5711 -6691 -7671 0
-811 671 -6691 0
811 6691 0
-671 6691 0
811 -671 -7671 0
-811 7671 0
671 7671 0
5851 6831 0
5851 7811 0
-5851 -6831 -7811 0
-951 811 -6831 0
951 6831 0
-811 6831 0
951 -811 -7811 0
-951 7811 0
811 7811 0
1092 0
-1932 0
-2072 3052 0
-2072 4032 0
-2072 1092 0
-2072 -1232 0
2072 -3052 -4032 -1092 1232 0
-112 252 -3052 0
112 3052 0
-252 3052 0
112 -252 -4032 0
-112 4032 0
252 4032 0
-2212 3192 0
-2212 4172 0
-2212 1232 0
-2212 -1372 0
2212 -3192 -4172 -1232 1372 0
-252 392 -3192 0
252 3192 0
-392 3192 0
252 -392 -4172 0
-252 4172 0
392 4172 0
-2352 3332 0
-2352 4312 0
-2352 1372 0
-2352 -1512 0
2352 -3332 -4312 -1372 1512 0
-392 532 -3332 0
392 3332 0
-532 3332 0
392 -532 -4312 0
-392 4312 0
532 4312 0
-2492 3472 0
-2492 4452 0
-2492 1512 0
-2492 -1652 0
2492 -3472 -4452 -1512 1652 0
-532 672 -3472 0
532 3472 0
-672 3472 0
532 -672 -4452 0
-532 4452 0
672 4452 0
-2632 3612 0
-2632 4592 0
-2632 1652 0
-2632 -1792 0
2632 -3612 -4592 -1652 1792 0
-672 812 -3612 0
672 3612 0
-812 3612 0
672 -812 -4592 0
-672 4592 0
812 4592 0
-2772 3752 0
-2772 4732 0
-2772 1792 0
-2772 -1932 0
2772 -3752 -4732 -1792 1932 0
-812 952 -3752 0
812 3752 0
-952 3752 0
812 -952 -4732 0
-812 4732 0
952 4732 0
5152 6132 0
5152 7112 0
-5152 -6132 -7112 0
-252 112 -6132 0
252 6132 0
-112 6132 0
252 -112 -7112 0
-252 7112 0
112 7112 0
5292 6272 0
5292 7252 0
-5292 -6272 -7252 0
-392 252 -6272 0
392 6272 0
-252 6272 0
392 -252 -7252 0
-392 7252 0
252 7252 0
5432 6412 0
5432 7392 0
-5432 -6412 -7392 0
-532 392 -6412 0
532 6412 0
-392 6412 0
532 -392 -7392 0
-532 7392 0
392 7392 0
5572 6552 0
5572 7532 0
-5572 -6552 -7532 0
-672 532 -6552 0
672 6552 0
-532 6552 0
672 -532 -7532 0
-672 7532 0
532 7532 0
5712 6692 0
5712 7672 0
-5712 -6692 -7672 0
-812 672 -6692 0
812 6692 0
-672 6692 0
812 -672 -7672 0
-812 7672 0
672 7672 0
5852 6832 0
5852 7812 0
-5852 -6832 -7812 0
-952 812 -6832 0
952 6832 0
-812 6832 0
952 -812 -7812 0
-952 7812 0
812 7812 0
1093 0
-1933 0
-2073 3053 0
-2073 4033 0
-2073 1093 0
-2073 -1233 0
2073 -3053 -4033 -1093 1233 0
-113 253 -3053 0
113 3053 0
-253 3053 0
113 -253 -4033 0
-113 4033 0
253 4033 0
-2213 3193 0
-2213 4173 0
-2213 1233 0
-2213 -1373 0
2213 -3193 -4173 -1233 1373 0
-253 393 -3193 0
253 3193 0
-393 3193 0
253 -393 -4173 0
-253 4173 0
393 4173 0
-2353 3333 0
-2353 4313 0
-2353 1373 0
-2353 -1513 0
2353 -3333 -4313 -1373 1513 0
-393 533 -3333 0
393 3333 0
-533 3333 0
393 -533 -4313 0
-393 4313 0
533 4313 0
-2493 3473 0
-2493 4453 0
-2493 1513 0
-2493 -1653 0
2493 -3473 -4453 -1513 1653 0
-533 673 -3473 0
533 3473 0
-673 3473 0
533 -673 -4453 0
-533 4453 0
673 4453 0
-2633 3613 0
-2633 4593 0
-2633 1653 0
-2633 -1793 0
2633 -3613 -4593 -1653 1793 0
-673 813 -3613 0
673 3613 0
-813 3613 0
673 -813 -4593 0
-673 4593 0
813 4593 0
-2773 3753 0
-2773 4733 0
-2773 1793 0
-2773 -1933 0
2773 -3753 -4733 -1793 1933 0
-813 953 -3753 0
813 3753 0
-953 3753 0
813 -953 -4733 0
-813 4733 0
953 4733 0
5153 6133 0
5153 7113 0
-5153 -6133 -7113 0
-253 113 -6133 0
253 6133 0
-113 6133 0
253 -113 -7113 0
-253 7113 0
113 7113 0
5293 6273 0
5293 7253 0
-5293 -6273 -7253 0
-393 253 -6273 0
393 6273 0
-253 6273 0
393 -253 -7253 0
-393 7253 0
253 7253 0
5433 6413 0
5433 7393 0
-5433 -6413 -7393 0
-533 393 -6413 0
533 6413 0
-393 6413 0
533 -393 -7393 0
-533 7393 0
393 7393 0
5573 6553 0
5573 7533 0
-5573 -6553 -7533 0
-673 533 -6553 0
673 6553 0
-533 6553 0
673 -533 -7533 0
-673 7533 0
533 7533 0
5713 6693 0
5713 7673 0
-5713 -6693 -7673 0
-813 673 -6693 0
813 6693 0
-673 6693 0
813 -673 -7673 0
-813 7673 0
673 7673 0
5853 6833 0
5853 7813 0
-5853 -6833 -7813 0
-953 813 -6833 0
953 6833 0
-813 6833 0
953 -813 -7813 0
-953 7813 0
813 7813 0
1094 0
-1934 0
-2074 3054 0
-2074 4034 0
-2074 1094 0
-2074 -1234 0
2074 -3054 -4034 -1094 1234 0
-114 254 -3054 0
114 3054 0
-254 3054 0
114 -254 -4034 0
-114 4034 0
254 4034 0
-2214 3194 0
-2214 4174 0
-2214 1234 0
-2214 -1374 0
2214 -3194 -4174 -1234 1374 0
-254 394 -3194 0
254 3194 0
-394 3194 0
254 -394 -4174 0
-254 4174 0
394 4174 0
-2354 3334 0
-2354 4314 0
-2354 1374 0
-2354 -1514 0
2354 -3334 -4314 -1374 1514 0
-394 534 -3334 0
394 3334 0
-534 3334 0
394 -534 -4314 0
-394 4314 0
534 4314 0
-2494 3474 0
-2494 4454 0
-2494 1514 0
-2494 -1654 0
2494 -3474 -4454 -1514 1654 0
-534 674 -3474 0
534 3474 0
-674 3474 0
534 -674 -4454 0
-534 4454 0
674 4454 0
-2634 3614 0
-2634 4594 0
-2634 1654 0
-2634 -1794 0
2634 -3614 -4594 -1654 1794 0
-674 814 -3614 0
674 3614 0
-814 3614 0
674 -814 -4594 0
-674 4594 0
814 4594 0
-2774 3754 0
-2774 4734 0
-2774 1794 0
-2774 -1934 0
2774 -3754 -4734 -1794 1934 0
-814 954 -3754 0
814 3754 0
-954 3754 0
814 -954 -4734 0
-814 4734 0
954 4734 0
5154 6134 0
5154 7114 0
-5154 -6134 -7114 0
-254 114 -6134 0
254 6134 0
-114 6134 0
254 -114 -7114 0
-254 7114 0
114 7114 0
5294 6274 0
5294 7254 0
-5294 -6274 -7254 0
-394 254 -6274 0
394 6274 0
-254 6274 0
394 -254 -7254 0
-394 7254 0
254 7254 0
5434 6414 0
5434 7394 0
-5434 -6414 -7394 0
-534 394 -6414 0
534 6414 0
-394 6414 0
534 -394 -7394 0
-534 7394 0
394 7394 0
5574 6554 0
5574 7534 0
-5574 -6554 -7534 0
-674 534 -6554 0
674 6554 0
-534 6554 0
674 -534 -7534 0
-674 7534 0
534 7534 0
5714 6694 0
5714 7674 0
-5714 -6694 -7674 0
-814 674 -6694 0
814 6694 0
-674 6694 0
814 -674 -7674 0
-814 7674 0
674 7674 0
5854 6834 0
5854 7814 0
-5854 -6834 -7814 0
-954 814 -6834 0
954 6834 0
-814 6834 0
954 -814 -7814 0
-954 7814 0
814 7814 0
1095 0
-1935 0
-2075 3055 0
-2075 4035 0
-2075 1095 0
-2075 -1235 0
2075 -3055 -4035 -1095 1235 0
-115 255 -3055 0
115 3055 0
-255 3055 0
115 -255 -4035 0
-115 4035 0
255 4035 0
-2215 3195 0
-2215 4175 0
-2215 1235 0
-2215 -1375 0
2215 -3195 -4175 -1235 1375 0
-255 395 -3195 0
255 3195 0
-395 3195 0
255 -395 -4175 0
-255 4175 0
395 4175 0
-2355 3335 0
-2355 4315 0
-2355 1375 0
-2355 -1515 0
2355 -3335 -4315 -1375 1515 0
-395 535 -3335 0
395 3335 0
-535 3335 0
395 -535 -4315 0
-395 4315 0
535 4315 0
-2495 3475 0
-2495 4455 0
-2495 1515 0
-2495 -1655 0
2495 -3475 -4455 -1515 1655 0
-535 675 -3475 0
535 3475 0
-675 3475 0
535 -675 -4455 0
-535 4455 0
675 4455 0
-2635 3615 0
-2635 4595 0
-2635 1655 0
-2635 -1795 0
2635 -3615 -4595 -1655 1795 0
-675 815 -3615 0
675 3615 0
-815 3615 0
675 -815 -4595 0
-675 4595 0
815 4595 0
-2775 3755 0
-2775 4735 0
-2775 1795 0
-2775 -1935 0
2775 -3755 -4735 -1795 1935 0
-815 955 -3755 0
815 3755 0
-955 3755 0
815 -955 -4735 0
-815 4735 0
955 4735 0
5155 6135 0
5155 7115 0
-5155 -6135 -7115 0
-255 115 -6135 0
255 6135 0
-115 6135 0
255 -115 -7115 0
-255 7115 0
115 7115 0
5295 6275 0
5295 7255 0
-5295 -6275 -7255 0
-395 255 -6275 0
395 6275 0
-255 6275 0
395 -255 -7255 0
-395 7255 0
255 7255 0
5435 6415 0
5435 7395 0
-5435 -6415 -7395 0
-535 395 -6415 0
535 6415 0
-395 6415 0
535 -395 -7395 0
-535 7395 0
395 7395 0
5575 6555 0
5575 7535 0
-5575 -6555 -7535 0
-675 535 -6555 0
675 6555 0
-535 6555 0
675 -535 -7535 0
-675 7535 0
535 7535 0
5715 6695 0
5715 7675 0
-5715 -6695 -7675 0
-815 675 -6695 0
815 6695 0
-675 6695 0
815 -675 -7675 0
-815 7675 0
675 7675 0
5855 6835 0
5855 7815 0
-5855 -6835 -7815 0
-955 815 -6835 0
955 6835 0
-815 6835 0
955 -815 -7815 0
-955 7815 0
815 7815 0
1096 0
-1936 0
-2076 3056 0
-2076 4036 0
-2076 1096 0
-2076 -1236 0
2076 -3056 -4036 -1096 1236 0
-116 256 -3056 0
116 3056 0
-256 3056 0
116 -256 -4036 0
-116 4036 0
256 4036 0
-2216 3196 0
-2216 4176 0
-2216 1236 0
-2216 -1376 0
2216 -3196 -4176 -1236 1376 0
-256 396 -3196 0
256 3196 0
-396 3196 0
256 -396 -4176 0
-256 4176 0
396 4176 0
-2356 3336 0
-2356 4316 0
-2356 1376 0
-2356 -1516 0
2356 -3336 -4316 -1376 1516 0
-396 536 -3336 0
396 3336 0
-536 3336 0
396 -536 -4316 0
-396 4316 0
536 4316 0
-2496 3476 0
-2496 4456 0
-2496 1516 0
-2496 -1656 0
2496 -3476 -4456 -1516 1656 0
-536 676 -3476 0
536 3476 0
-676 3476 0
536 -676 -4456 0
-536 4456 0
676 4456 0
-2636 3616 0
-2636 4596 0
-2636 1656 0
-2636 -1796 0
2636 -3616 -4596 -1656 1796 0
-676 816 -3616 0
676 3616 0
-816 3616 0
676 -816 -4596 0
-676 4596 0
816 4596 0
-2776 3756 0
-2776 4736 0
-2776 1796 0
-2776 -1936 0
2776 -3756 -4736 -1796 1936 0
-816 956 -3756 0
816 3756 0
-956 3756 0
816 -956 -4736 0
-816 4736 0
956 4736 0
5156 6136 0
5156 7116 0
-5156 -6136 -7116 0
-256 116 -6136 0
256 6136 0
-116 6136 0
256 -116 -7116 0
-256 7116 0
116 7116 0
5296 6276 0
5296 7256 0
-5296 -6276 -7256 0
-396 256 -6276 0
396 6276 0
-256 6276 0
396 -256 -7256 0
-396 7256 0
256 7256 0
5436 6416 0
5436 7396 0
-5436 -6416 -7396 0
-536 396 -6416 0
536 6416 0
-396 6416 0
536 -396 -7396 0
-536 7396 0
396 7396 0
5576 6556 0
5576 7536 0
-5576 -6556 -7536 0
-676 536 -6556 0
676 6556 0
-536 6556 0
676 -536 -7536 0
-676 7536 0
536 7536 0
5716 6696 0
5716 7676 0
-5716 -6696 -7676 0
-816 676 -6696 0
816 6696 0
-676 6696 0
816 -676 -7676 0
-816 7676 0
676 7676 0
5856 6836 0
5856 7816 0
-5856 -6836 -7816 0
-956 816 -6836 0
956 6836 0
-816 6836 0
956 -816 -7816 0
-956 7816 0
816 7816 0
1097 0
-1937 0
-2077 3057 0
-2077 4037 0
-2077 1097 0
-2077 -1237 0
2077 -3057 -4037 -1097 1237 0
-117 257 -3057 0
117 3057 0
-257 3057 0
117 -257 -4037 0
-117 4037 0
257 4037 0
-2217 3197 0
-2217 4177 0
-2217 1237 0
-2217 -1377 0
2217 -3197 -4177 -1237 1377 0
-257 397 -3197 0
257 3197 0
-397 3197 0
257 -397 -4177 0
-257 4177 0
397 4177 0
-2357 3337 0
-2357 4317 0
-2357 1377 0
-2357 -1517 0
2357 -3337 -4317 -1377 1517 0
-397 537 -3337 0
397 3337 0
-537 3337 0
397 -537 -4317 0
-397 4317 0
537 4317 0
-2497 3477 0
-2497 4457 0
-2497 1517 0
-2497 -1657 0
2497 -3477 -4457 -1517 1657 0
-537 677 -3477 0
537 3477 0
-677 3477 0
537 -677 -4457 0
-537 4457 0
677 4457 0
-2637 3617 0
-2637 4597 0
-2637 1657 0
-2637 -1797 0
2637 -3617 -4597 -1657 1797 0
-677 817 -3617 0
677 3617 0
-817 3617 0
677 -817 -4597 0
-677 4597 0
817 4597 0
-2777 3757 0
-2777 4737 0
-2777 1797 0
-2777 -1937 0
2777 -3757 -4737 -1797 1937 0
-817 957 -3757 0
817 3757 0
-957 3757 0
817 -957 -4737 0
-817 4737 0
957 4737 0
5157 6137 0
5157 7117 0
-5157 -6137 -7117 0
-257 117 -6137 0
257 6137 0
-117 6137 0
257 -117 -7117 0
-257 7117 0
117 7117 0
5297 6277 0
5297 7257 0
-5297 -6277 -7257 0
-397 257 -6277 0
397 6277 0
-257 6277 0
397 -257 -7257 0
-397 7257 0
257 7257 0
5437 6417 0
5437 7397 0
-5437 -6417 -7397 0
-537 397 -6417 0
537 6417 0
-397 6417 0
537 -397 -7397 0
-537 7397 0
397 7397 0
5577 6557 0
5577 7537 0
-5577 -6557 -7537 0
-677 537 -6557 0
677 6557 0
-537 6557 0
677 -537 -7537 0
-677 7537 0
537 7537 0
5717 6697 0
5717 7677 0
-5717 -6697 -7677 0
-817 677 -6697 0
817 6697 0
-677 6697 0
817 -677 -7677 0
-817 7677 0
677 7677 0
5857 6837 0
5857 7817 0
-5857 -6837 -7817 0
-957 817 -6837 0
957 6837 0
-817 6837 0
957 -817 -7817 0
-957 7817 0
817 7817 0
1098 0
-1938 0
-2078 3058 0
-2078 4038 0
-2078 1098 0
-2078 -1238 0
2078 -3058 -4038 -1098 1238 0
-118 258 -3058 0
118 3058 0
-258 3058 0
118 -258 -4038 0
-118 4038 0
258 4038 0
-2218 3198 0
-2218 4178 0
-2218 1238 0
-2218 -1378 0
2218 -3198 -4178 -1238 1378 0
-258 398 -3198 0
258 3198 0
-398 3198 0
258 -398 -4178 0
-258 4178 0
398 4178 0
-2358 3338 0
-2358 4318 0
-2358 1378 0
-2358 -1518 0
2358 -3338 -4318 -1378 1518 0
-398 538 -3338 0
398 3338 0
-538 3338 0
398 -538 -4318 0
-398 4318 0
538 4318 0
-2498 3478 0
-2498 4458 0
-2498 1518 0
-2498 -1658 0
2498 -3478 -4458 -1518 1658 0
-538 678 -3478 0
538 3478 0
-678 3478 0
538 -678 -4458 0
-538 4458 0
678 4458 0
-2638 3618 0
-2638 4598 0
-2638 1658 0
-2638 -1798 0
2638 -3618 -4598 -1658 1798 0
-678 818 -3618 0
678 3618 0
-818 3618 0
678 -818 -4598 0
-678 4598 0
818 4598 0
-2778 3758 0
-2778 4738 0
-2778 1798 0
-2778 -1938 0
2778 -3758 -4738 -1798 1938 0
-818 958 -3758 0
818 3758 0
-958 3758 0
818 -958 -4738 0
-818 4738 0
958 4738 0
5158 6138 0
5158 7118 0
-5158 -6138 -7118 0
-258 118 -6138 0
258 6138 0
-118 6138 0
258 -118 -7118 0
-258 7118 0
118 7118 0
5298 6278 0
5298 7258 0
-5298 -6278 -7258 0
-398 258 -6278 0
398 6278 0
-258 6278 0
398 -258 -7258 0
-398 7258 0
258 7258 0
5438 6418 0
5438 7398 0
-5438 -6418 -7398 0
-538 398 -6418 0
538 6418 0
-398 6418 0
538 -398 -7398 0
-538 7398 0
398 7398 0
5578 6558 0
5578 7538 0
-5578 -6558 -7538 0
-678 538 -6558 0
678 6558 0
-538 6558 0
678 -538 -7538 0
-678 7538 0
538 7538 0
5718 6698 0
5718 7678 0
-5718 -6698 -7678 0
-818 678 -6698 0
818 6698 0
-678 6698 0
818 -678 -7678 0
-818 7678 0
678 7678 0
5858 6838 0
5858 7818 0
-5858 -6838 -7818 0
-958 818 -6838 0
958 6838 0
-818 6838 0
958 -818 -7818 0
-958 7818 0
818 7818 0
1099 0
-1939 0
-2079 3059 0
-2079 4039 0
-2079 1099 0
-2079 -1239 0
2079 -3059 -4039 -1099 1239 0
-119 259 -3059 0
119 3059 0
-259 3059 0
119 -259 -4039 0
-119 4039 0
259 4039 0
-2219 3199 0
-2219 4179 0
-2219 1239 0
-2219 -1379 0
2219 -3199 -4179 -1239 1379 0
-259 399 -3199 0
259 3199 0
-399 3199 0
259 -399 -4179 0
-259 4179 0
399 4179 0
-2359 3339 0
-2359 4319 0
-2359 1379 0
-2359 -1519 0
2359 -3339 -4319 -1379 1519 0
-399 539 -3339 0
399 3339 0
-539 3339 0
399 -539 -4319 0
-399 4319 0
539 4319 0
-2499 3479 0
-2499 4459 0
-2499 1519 0
-2499 -1659 0
2499 -3479 -4459 -1519 1659 0
-539 679 -3479 0
539 3479 0
-679 3479 0
539 -679 -4459 0
-539 4459 0
679 4459 0
-2639 3619 0
-2639 4599 0
-2639 1659 0
-2639 -1799 0
2639 -3619 -4599 -1659 1799 0
-679 819 -3619 0
679 3619 0
-819 3619 0
679 -819 -4599 0
-679 4599 0
819 4599 0
-2779 3759 0
-2779 4739 0
-2779 1799 0
-2779 -1939 0
2779 -3759 -4739 -1799 1939 0
-819 959 -3759 0
819 3759 0
-959 3759 0
819 -959 -4739 0
-819 4739 0
959 4739 0
5159 6139 0
5159 7119 0
-5159 -6139 -7119 0
-259 119 -6139 0
259 6139 0
-119 6139 0
259 -119 -7119 0
-259 7119 0
119 7119 0
5299 6279 0
5299 7259 0
-5299 -6279 -7259 0
-399 259 -6279 0
399 6279 0
-259 6279 0
399 -259 -7259 0
-399 7259 0
259 7259 0
5439 6419 0
5439 7399 0
-5439 -6419 -7399 0
-539 399 -6419 0
539 6419 0
-399 6419 0
539 -399 -7399 0
-539 7399 0
399 7399 0
5579 6559 0
5579 7539 0
-5579 -6559 -7539 0
-679 539 -6559 0
679 6559 0
-539 6559 0
679 -539 -7539 0
-679 7539 0
539 7539 0
5719 6699 0
5719 7679 0
-5719 -6699 -7679 0
-819 679 -6699 0
819 6699 0
-679 6699 0
819 -679 -7679 0
-819 7679 0
679 7679 0
5859 6839 0
5859 7819 0
-5859 -6839 -7819 0
-959 819 -6839 0
959 6839 0
-819 6839 0
959 -819 -7819 0
-959 7819 0
819 7819 0
1100 0
-1940 0
-2080 3060 0
-2080 4040 0
-2080 1100 0
-2080 -1240 0
2080 -3060 -4040 -1100 1240 0
-120 260 -3060 0
120 3060 0
-260 3060 0
120 -260 -4040 0
-120 4040 0
260 4040 0
-2220 3200 0
-2220 4180 0
-2220 1240 0
-2220 -1380 0
2220 -3200 -4180 -1240 1380 0
-260 400 -3200 0
260 3200 0
-400 3200 0
260 -400 -4180 0
-260 4180 0
400 4180 0
-2360 3340 0
-2360 4320 0
-2360 1380 0
-2360 -1520 0
2360 -3340 -4320 -1380 1520 0
-400 540 -3340 0
400 3340 0
-540 3340 0
400 -540 -4320 0
-400 4320 0
540 4320 0
-2500 3480 0
-2500 4460 0
-2500 1520 0
-2500 -1660 0
2500 -3480 -4460 -1520 1660 0
-540 680 -3480 0
540 3480 0
-680 3480 0
540 -680 -4460 0
-540 4460 0
680 4460 0
-2640 3620 0
-2640 4600 0
-2640 1660 0
-2640 -1800 0
2640 -3620 -4600 -1660 1800 0
-680 820 -3620 0
680 3620 0
-820 3620 0
680 -820 -4600 0
-680 4600 0
820 4600 0
-2780 3760 0
-2780 4740 0
-2780 1800 0
-2780 -1940 0
2780 -3760 -4740 -1800 1940 0
-820 960 -3760 0
820 3760 0
-960 3760 0
820 -960 -4740 0
-820 4740 0
960 4740 0
5160 6140 0
5160 7120 0
-5160 -6140 -7120 0
-260 120 -6140 0
260 6140 0
-120 6140 0
260 -120 -7120 0
-260 7120 0
120 7120 0
5300 6280 0
5300 7260 0
-5300 -6280 -7260 0
-400 260 -6280 0
400 6280 0
-260 6280 0
400 -260 -7260 0
-400 7260 0
260 7260 0
5440 6420 0
5440 7400 0
-5440 -6420 -7400 0
-540 400 -6420 0
540 6420 0
-400 6420 0
540 -400 -7400 0
-540 7400 0
400 7400 0
5580 6560 0
5580 7540 0
-5580 -6560 -7540 0
-680 540 -6560 0
680 6560 0
-540 6560 0
680 -540 -7540 0
-680 7540 0
540 7540 0
5720 6700 0
5720 7680 0
-5720 -6700 -7680 0
-820 680 -6700 0
820 6700 0
-680 6700 0
820 -680 -7680 0
-820 7680 0
680 7680 0
5860 6840 0
5860 7820 0
-5860 -6840 -7820 0
-960 820 -6840 0
960 6840 0
-820 6840 0
960 -820 -7820 0
-960 7820 0
820 7820 0
1101 0
-1941 0
-2081 3061 0
-2081 4041 0
-2081 1101 0
-2081 -1241 0
2081 -3061 -4041 -1101 1241 0
-121 261 -3061 0
121 3061 0
-261 3061 0
121 -261 -4041 0
-121 4041 0
261 4041 0
-2221 3201 0
-2221 4181 0
-2221 1241 0
-2221 -1381 0
2221 -3201 -4181 -1241 1381 0
-261 401 -3201 0
261 3201 0
-401 3201 0
261 -401 -4181 0
-261 4181 0
401 4181 0
-2361 3341 0
-2361 4321 0
-2361 1381 0
-2361 -1521 0
2361 -3341 -4321 -1381 1521 0
-401 541 -3341 0
401 3341 0
-541 3341 0
401 -541 -4321 0
-401 4321 0
541 4321 0
-2501 3481 0
-2501 4461 0
-2501 1521 0
-2501 -1661 0
2501 -3481 -4461 -1521 1661 0
-541 681 -3481 0
541 3481 0
-681 3481 0
541 -681 -4461 0
-541 4461 0
681 4461 0
-2641 3621 0
-2641 4601 0
-2641 1661 0
-2641 -1801 0
2641 -3621 -4601 -1661 1801 0
-681 821 -3621 0
681 3621 0
-821 3621 0
681 -821 -4601 0
-681 4601 0
821 4601 0
-2781 3761 0
-2781 4741 0
-2781 1801 0
-2781 -1941 0
2781 -3761 -4741 -1801 1941 0
-821 961 -3761 0
821 3761 0
-961 3761 0
821 -961 -4741 0
-821 4741 0
961 4741 0
5161 6141 0
5161 7121 0
-5161 -6141 -7121 0
-261 121 -6141 0
261 6141 0
-121 6141 0
261 -121 -7121 0
-261 7121 0
121 7121 0
5301 6281 0
5301 7261 0
-5301 -6281 -7261 0
-401 261 -6281 0
401 6281 0
-261 6281 0
401 -261 -7261 0
-401 7261 0
261 7261 0
5441 6421 0
5441 7401 0
-5441 -6421 -7401 0
-541 401 -6421 0
541 6421 0
-401 6421 0
541 -401 -7401 0
-541 7401 0
401 7401 0
5581 6561 0
5581 7541 0
-5581 -6561 -7541 0
-681 541 -6561 0
681 6561 0
-541 6561 0
681 -541 -7541 0
-681 7541 0
541 7541 0
5721 6701 0
5721 7681 0
-5721 -6701 -7681 0
-821 681 -6701 0
821 6701 0
-681 6701 0
821 -681 -7681 0
-821 7681 0
681 7681 0
5861 6841 0
5861 7821 0
-5861 -6841 -7821 0
-961 821 -6841 0
961 6841 0
-821 6841 0
961 -821 -7821 0
-961 7821 0
821 7821 0
1102 0
-1942 0
-2082 3062 0
-2082 4042 0
-2082 1102 0
-2082 -1242 0
2082 -3062 -4042 -1102 1242 0
-122 262 -3062 0
122 3062 0
-262 3062 0
122 -262 -4042 0
-122 4042 0
262 4042 0
-2222 3202 0
-2222 4182 0
-2222 1242 0
-2222 -1382 0
2222 -3202 -4182 -1242 1382 0
-262 402 -3202 0
262 3202 0
-402 3202 0
262 -402 -4182 0
-262 4182 0
402 4182 0
-2362 3342 0
-2362 4322 0
-2362 1382 0
-2362 -1522 0
2362 -3342 -4322 -1382 1522 0
-402 542 -3342 0
402 3342 0
-542 3342 0
402 -542 -4322 0
-402 4322 0
542 4322 0
-2502 3482 0
-2502 4462 0
-2502 1522 0
-2502 -1662 0
2502 -3482 -4462 -1522 1662 0
-542 682 -3482 0
542 3482 0
-682 3482 0
542 -682 -4462 0
-542 4462 0
682 4462 0
-2642 3622 0
-2642 4602 0
-2642 1662 0
-2642 -1802 0
2642 -3622 -4602 -1662 1802 0
-682 822 -3622 0
682 3622 0
-822 3622 0
682 -822 -4602 0
-682 4602 0
822 4602 0
-2782 3762 0
-2782 4742 0
-2782 1802 0
-2782 -1942 0
2782 -3762 -4742 -1802 1942 0
-822 962 -3762 0
822 3762 0
-962 3762 0
822 -962 -4742 0
-822 4742 0
962 4742 0
5162 6142 0
5162 7122 0
-5162 -6142 -7122 0
-262 122 -6142 0
262 6142 0
-122 6142 0
262 -122 -7122 0
-262 7122 0
122 7122 0
5302 6282 0
5302 7262 0
-5302 -6282 -7262 0
-402 262 -6282 0
402 6282 0
-262 6282 0
402 -262 -7262 0
-402 7262 0
262 7262 0
5442 6422 0
5442 7402 0
-5442 -6422 -7402 0
-542 402 -6422 0
542 6422 0
-402 6422 0
542 -402 -7402 0
-542 7402 0
402 7402 0
5582 6562 0
5582 7542 0
-5582 -6562 -7542 0
-682 542 -6562 0
682 6562 0
-542 6562 0
682 -542 -7542 0
-682 7542 0
542 7542 0
5722 6702 0
5722 7682 0
-5722 -6702 -7682 0
-822 682 -6702 0
822 6702 0
-682 6702 0
822 -682 -7682 0
-822 7682 0
682 7682 0
5862 6842 0
5862 7822 0
-5862 -6842 -7822 0
-962 822 -6842 0
962 6842 0
-822 6842 0
962 -822 -7822 0
-962 7822 0
822 7822 0
1103 0
-1943 0
-2083 3063 0
-2083 4043 0
-2083 1103 0
-2083 -1243 0
2083 -3063 -4043 -1103 1243 0
-123 263 -3063 0
123 3063 0
-263 3063 0
123 -263 -4043 0
-123 4043 0
263 4043 0
-2223 3203 0
-2223 4183 0
-2223 1243 0
-2223 -1383 0
2223 -3203 -4183 -1243 1383 0
-263 403 -3203 0
263 3203 0
-403 3203 0
263 -403 -4183 0
-263 4183 0
403 4183 0
-2363 3343 0
-2363 4323 0
-2363 1383 0
-2363 -1523 0
2363 -3343 -4323 -1383 1523 0
-403 543 -3343 0
403 3343 0
-543 3343 0
403 -543 -4323 0
-403 4323 0
543 4323 0
-2503 3483 0
-2503 4463 0
-2503 1523 0
-2503 -1663 0
2503 -3483 -4463 -1523 1663 0
-543 683 -3483 0
543 3483 0
-683 3483 0
543 -683 -4463 0
-543 4463 0
683 4463 0
-2643 3623 0
-2643 4603 0
-2643 1663 0
-2643 -1803 0
2643 -3623 -4603 -1663 1803 0
-683 823 -3623 0
683 3623 0
-823 3623 0
683 -823 -4603 0
-683 4603 0
823 4603 0
-2783 3763 0
-2783 4743 0
-2783 1803 0
-2783 -1943 0
2783 -3763 -4743 -1803 1943 0
-823 963 -3763 0
823 3763 0
-963 3763 0
823 -963 -4743 0
-823 4743 0
963 4743 0
5163 6143 0
5163 7123 0
-5163 -6143 -7123 0
-263 123 -6143 0
263 6143 0
-123 6143 0
263 -123 -7123 0
-263 7123 0
123 7123 0
5303 6283 0
5303 7263 0
-5303 -6283 -7263 0
-403 263 -6283 0
403 6283 0
-263 6283 0
403 -263 -7263 0
-403 7263 0
263 7263 0
5443 6423 0
5443 7403 0
-5443 -6423 -7403 0
-543 403 -6423 0
543 6423 0
-403 6423 0
543 -403 -7403 0
-543 7403 0
403 7403 0
5583 6563 0
5583 7543 0
-5583 -6563 -7543 0
-683 543 -6563 0
683 6563 0
-543 6563 0
683 -543 -7543 0
-683 7543 0
543 7543 0
5723 6703 0
5723 7683 0
-5723 -6703 -7683 0
-823 683 -6703 0
823 6703 0
-683 6703 0
823 -683 -7683 0
-823 7683 0
683 7683 0
5863 6843 0
5863 7823 0
-5863 -6843 -7823 0
-963 823 -6843 0
963 6843 0
-823 6843 0
963 -823 -7823 0
-963 7823 0
823 7823 0
1104 0
-1944 0
-2084 3064 0
-2084 4044 0
-2084 1104 0
-2084 -1244 0
2084 -3064 -4044 -1104 1244 0
-124 264 -3064 0
124 3064 0
-264 3064 0
124 -264 -4044 0
-124 4044 0
264 4044 0
-2224 3204 0
-2224 4184 0
-2224 1244 0
-2224 -1384 0
2224 -3204 -4184 -1244 1384 0
-264 404 -3204 0
264 3204 0
-404 3204 0
264 -404 -4184 0
-264 4184 0
404 4184 0
-2364 3344 0
-2364 4324 0
-2364 1384 0
-2364 -1524 0
2364 -3344 -4324 -1384 1524 0
-404 544 -3344 0
404 3344 0
-544 3344 0
404 -544 -4324 0
-404 4324 0
544 4324 0
-2504 3484 0
-2504 4464 0
-2504 1524 0
-2504 -1664 0
2504 -3484 -4464 -1524 1664 0
-544 684 -3484 0
544 3484 0
-684 3484 0
544 -684 -4464 0
-544 4464 0
684 4464 0
-2644 3624 0
-2644 4604 0
-2644 1664 0
-2644 -1804 0
2644 -3624 -4604 -1664 1804 0
-684 824 -3624 0
684 3624 0
-824 3624 0
684 -824 -4604 0
-684 4604 0
824 4604 0
-2784 3764 0
-2784 4744 0
-2784 1804 0
-2784 -1944 0
2784 -3764 -4744 -1804 1944 0
-824 964 -3764 0
824 3764 0
-964 3764 0
824 -964 -4744 0
-824 4744 0
964 4744 0
5164 6144 0
5164 7124 0
-5164 -6144 -7124 0
-264 124 -6144 0
264 6144 0
-124 6144 0
264 -124 -7124 0
-264 7124 0
124 7124 0
5304 6284 0
5304 7264 0
-5304 -6284 -7264 0
-404 264 -6284 0
404 6284 0
-264 6284 0
404 -264 -7264 0
-404 7264 0
264 7264 0
5444 6424 0
5444 7404 0
-5444 -6424 -7404 0
-544 404 -6424 0
544 6424 0
-404 6424 0
544 -404 -7404 0
-544 7404 0
404 7404 0
5584 6564 0
5584 7544 0
-5584 -6564 -7544 0
-684 544 -6564 0
684 6564 0
-544 6564 0
684 -544 -7544 0
-684 7544 0
544 7544 0
5724 6704 0
5724 7684 0
-5724 -6704 -7684 0
-824 684 -6704 0
824 6704 0
-684 6704 0
824 -684 -7684 0
-824 7684 0
684 7684 0
5864 6844 0
5864 7824 0
-5864 -6844 -7824 0
-964 824 -6844 0
964 6844 0
-824 6844 0
964 -824 -7824 0
-964 7824 0
824 7824 0
1105 0
-1945 0
-2085 3065 0
-2085 4045 0
-2085 1105 0
-2085 -1245 0
2085 -3065 -4045 -1105 1245 0
-125 265 -3065 0
125 3065 0
-265 3065 0
125 -265 -4045 0
-125 4045 0
265 4045 0
-2225 3205 0
-2225 4185 0
-2225 1245 0
-2225 -1385 0
2225 -3205 -4185 -1245 1385 0
-265 405 -3205 0
265 3205 0
-405 3205 0
265 -405 -4185 0
-265 4185 0
405 4185 0
-2365 3345 0
-2365 4325 0
-2365 1385 0
-2365 -1525 0
2365 -3345 -4325 -1385 1525 0
-405 545 -3345 0
405 3345 0
-545 3345 0
405 -545 -4325 0
-405 4325 0
545 4325 0
-2505 3485 0
-2505 4465 0
-2505 1525 0
-2505 -1665 0
2505 -3485 -4465 -1525 1665 0
-545 685 -3485 0
545 3485 0
-685 3485 0
545 -685 -4465 0
-545 4465 0
685 4465 0
-2645 3625 0
-2645 4605 0
-2645 1665 0
-2645 -1805 0
2645 -3625 -4605 -1665 1805 0
-685 825 -3625 0
685 3625 0
-825 3625 0
685 -825 -4605 0
-685 4605 0
825 4605 0
-2785 3765 0
-2785 4745 0
-2785 1805 0
-2785 -1945 0
2785 -3765 -4745 -1805 1945 0
-825 965 -3765 0
825 3765 0
-965 3765 0
825 -965 -4745 0
-825 4745 0
965 4745 0
5165 6145 0
5165 7125 0
-5165 -6145 -7125 0
-265 125 -6145 0
265 6145 0
-125 6145 0
265 -125 -7125 0
-265 7125 0
125 7125 0
5305 6285 0
5305 7265 0
-5305 -6285 -7265 0
-405 265 -6285 0
405 6285 0
-265 6285 0
405 -265 -7265 0
-405 7265 0
265 7265 0
5445 6425 0
5445 7405 0
-5445 -6425 -7405 0
-545 405 -6425 0
545 6425 0
-405 6425 0
545 -405 -7405 0
-545 7405 0
405 7405 0
5585 6565 0
5585 7545 0
-5585 -6565 -7545 0
-685 545 -6565 0
685 6565 0
-545 6565 0
685 -545 -7545 0
-685 7545 0
545 7545 0
5725 6705 0
5725 7685 0
-5725 -6705 -7685 0
-825 685 -6705 0
825 6705 0
-685 6705 0
825 -685 -7685 0
-825 7685 0
685 7685 0
5865 6845 0
5865 7825 0
-5865 -6845 -7825 0
-965 825 -6845 0
965 6845 0
-825 6845 0
965 -825 -7825 0
-965 7825 0
825 7825 0
1106 0
-1946 0
-2086 3066 0
-2086 4046 0
-2086 1106 0
-2086 -1246 0
2086 -3066 -4046 -1106 1246 0
-126 266 -3066 0
126 3066 0
-266 3066 0
126 -266 -4046 0
-126 4046 0
266 4046 0
-2226 3206 0
-2226 4186 0
-2226 1246 0
-2226 -1386 0
2226 -3206 -4186 -1246 1386 0
-266 406 -3206 0
266 3206 0
-406 3206 0
266 -406 -4186 0
-266 4186 0
406 4186 0
-2366 3346 0
-2366 4326 0
-2366 1386 0
-2366 -1526 0
2366 -3346 -4326 -1386 1526 0
-406 546 -3346 0
406 3346 0
-546 3346 0
406 -546 -4326 0
-406 4326 0
546 4326 0
-2506 3486 0
-2506 4466 0
-2506 1526 0
-2506 -1666 0
2506 -3486 -4466 -1526 1666 0
-546 686 -3486 0
546 3486 0
-686 3486 0
546 -686 -4466 0
-546 4466 0
686 4466 0
-2646 3626 0
-2646 4606 0
-2646 1666 0
-2646 -1806 0
2646 -3626 -4606 -1666 1806 0
-686 826 -3626 0
686 3626 0
-826 3626 0
686 -826 -4606 0
-686 4606 0
826 4606 0
-2786 3766 0
-2786 4746 0
-2786 1806 0
-2786 -1946 0
2786 -3766 -4746 -1806 1946 0
-826 966 -3766 0
826 3766 0
-966 3766 0
826 -966 -4746 0
-826 4746 0
966 4746 0
5166 6146 0
5166 7126 0
-5166 -6146 -7126 0
-266 126 -6146 0
266 6146 0
-126 6146 0
266 -126 -7126 0
-266 7126 0
126 7126 0
5306 6286 0
5306 7266 0
-5306 -6286 -7266 0
-406 266 -6286 0
406 6286 0
-266 6286 0
406 -266 -7266 0
-406 7266 0
266 7266 0
5446 6426 0
5446 7406 0
-5446 -6426 -7406 0
-546 406 -6426 0
546 6426 0
-406 6426 0
546 -406 -7406 0
-546 7406 0
406 7406 0
5586 6566 0
5586 7546 0
-5586 -6566 -7546 0
-686 546 -6566 0
686 6566 0
-546 6566 0
686 -546 -7546 0
-686 7546 0
546 7546 0
5726 6706 0
5726 7686 0
-5726 -6706 -7686 0
-826 686 -6706 0
826 6706 0
-686 6706 0
826 -686 -7686 0
-826 7686 0
686 7686 0
5866 6846 0
5866 7826 0
-5866 -6846 -7826 0
-966 826 -6846 0
966 6846 0
-826 6846 0
966 -826 -7826 0
-966 7826 0
826 7826 0
1107 0
-1947 0
-2087 3067 0
-2087 4047 0
-2087 1107 0
-2087 -1247 0
2087 -3067 -4047 -1107 1247 0
-127 267 -3067 0
127 3067 0
-267 3067 0
127 -267 -4047 0
-127 4047 0
267 4047 0
-2227 3207 0
-2227 4187 0
-2227 1247 0
-2227 -1387 0
2227 -3207 -4187 -1247 1387 0
-267 407 -3207 0
267 3207 0
-407 3207 0
267 -407 -4187 0
-267 4187 0
407 4187 0
-2367 3347 0
-2367 4327 0
-2367 1387 0
-2367 -1527 0
2367 -3347 -4327 -1387 1527 0
-407 547 -3347 0
407 3347 0
-547 3347 0
407 -547 -4327 0
-407 4327 0
547 4327 0
-2507 3487 0
-2507 4467 0
-2507 1527 0
-2507 -1667 0
2507 -3487 -4467 -1527 1667 0
-547 687 -3487 0
547 3487 0
-687 3487 0
547 -687 -4467 0
-547 4467 0
687 4467 0
-2647 3627 0
-2647 4607 0
-2647 1667 0
-2647 -1807 0
2647 -3627 -4607 -1667 1807 0
-687 827 -3627 0
687 3627 0
-827 3627 0
687 -827 -4607 0
-687 4607 0
827 4607 0
-2787 3767 0
-2787 4747 0
-2787 1807 0
-2787 -1947 0
2787 -3767 -4747 -1807 1947 0
-827 967 -3767 0
827 3767 0
-967 3767 0
827 -967 -4747 0
-827 4747 0
967 4747 0
5167 6147 0
5167 7127 0
-5167 -6147 -7127 0
-267 127 -6147 0
267 6147 0
-127 6147 0
267 -127 -7127 0
-267 7127 0
127 7127 0
5307 6287 0
5307 7267 0
-5307 -6287 -7267 0
-407 267 -6287 0
407 6287 0
-267 6287 0
407 -267 -7267 0
-407 7267 0
267 7267 0
5447 6427 0
5447 7407 0
-5447 -6427 -7407 0
-547 407 -6427 0
547 6427 0
-407 6427 0
547 -407 -7407 0
-547 7407 0
407 7407 0
5587 6567 0
5587 7547 0
-5587 -6567 -7547 0
-687 547 -6567 0
687 6567 0
-547 6567 0
687 -547 -7547 0
-687 7547 0
547 7547 0
5727 6707 0
5727 7687 0
-5727 -6707 -7687 0
-827 687 -6707 0
827 6707 0
-687 6707 0
827 -687 -7687 0
-827 7687 0
687 7687 0
5867 6847 0
5867 7827 0
-5867 -6847 -7827 0
-967 827 -6847 0
967 6847 0
-827 6847 0
967 -827 -7827 0
-967 7827 0
827 7827 0
1108 0
-1948 0
-2088 3068 0
-2088 4048 0
-2088 1108 0
-2088 -1248 0
2088 -3068 -4048 -1108 1248 0
-128 268 -3068 0
128 3068 0
-268 3068 0
128 -268 -4048 0
-128 4048 0
268 4048 0
-2228 3208 0
-2228 4188 0
-2228 1248 0
-2228 -1388 0
2228 -3208 -4188 -1248 1388 0
-268 408 -3208 0
268 3208 0
-408 3208 0
268 -408 -4188 0
-268 4188 0
408 4188 0
-2368 3348 0
-2368 4328 0
-2368 1388 0
-2368 -1528 0
2368 -3348 -4328 -1388 1528 0
-408 548 -3348 0
408 3348 0
-548 3348 0
408 -548 -4328 0
-408 4328 0
548 4328 0
-2508 3488 0
-2508 4468 0
-2508 1528 0
-2508 -1668 0
2508 -3488 -4468 -1528 1668 0
-548 688 -3488 0
548 3488 0
-688 3488 0
548 -688 -4468 0
-548 4468 0
688 4468 0
-2648 3628 0
-2648 4608 0
-2648 1668 0
-2648 -1808 0
2648 -3628 -4608 -1668 1808 0
-688 828 -3628 0
688 3628 0
-828 3628 0
688 -828 -4608 0
-688 4608 0
828 4608 0
-2788 3768 0
-2788 4748 0
-2788 1808 0
-2788 -1948 0
2788 -3768 -4748 -1808 1948 0
-828 968 -3768 0
828 3768 0
-968 3768 0
828 -968 -4748 0
-828 4748 0
968 4748 0
5168 6148 0
5168 7128 0
-5168 -6148 -7128 0
-268 128 -6148 0
268 6148 0
-128 6148 0
268 -128 -7128 0
-268 7128 0
128 7128 0
5308 6288 0
5308 7268 0
-5308 -6288 -7268 0
-408 268 -6288 0
408 6288 0
-268 6288 0
408 -268 -7268 0
-408 7268 0
268 7268 0
5448 6428 0
5448 7408 0
-5448 -6428 -7408 0
-548 408 -6428 0
548 6428 0
-408 6428 0
548 -408 -7408 0
-548 7408 0
408 7408 0
5588 6568 0
5588 7548 0
-5588 -6568 -7548 0
-688 548 -6568 0
688 6568 0
-548 6568 0
688 -548 -7548 0
-688 7548 0
548 7548 0
5728 6708 0
5728 7688 0
-5728 -6708 -7688 0
-828 688 -6708 0
828 6708 0
-688 6708 0
828 -688 -7688 0
-828 7688 0
688 7688 0
5868 6848 0
5868 7828 0
-5868 -6848 -7828 0
-968 828 -6848 0
968 6848 0
-828 6848 0
968 -828 -7828 0
-968 7828 0
828 7828 0
1109 0
-1949 0
-2089 3069 0
-2089 4049 0
-2089 1109 0
-2089 -1249 0
2089 -3069 -4049 -1109 1249 0
-129 269 -3069 0
129 3069 0
-269 3069 0
129 -269 -4049 0
-129 4049 0
269 4049 0
-2229 3209 0
-2229 4189 0
-2229 1249 0
-2229 -1389 0
2229 -3209 -4189 -1249 1389 0
-269 409 -3209 0
269 3209 0
-409 3209 0
269 -409 -4189 0
-269 4189 0
409 4189 0
-2369 3349 0
-2369 4329 0
-2369 1389 0
-2369 -1529 0
2369 -3349 -4329 -1389 1529 0
-409 549 -3349 0
409 3349 0
-549 3349 0
409 -549 -4329 0
-409 4329 0
549 4329 0
-2509 3489 0
-2509 4469 0
-2509 1529 0
-2509 -1669 0
2509 -3489 -4469 -1529 1669 0
-549 689 -3489 0
549 3489 0
-689 3489 0
549 -689 -4469 0
-549 4469 0
689 4469 0
-2649 3629 0
-2649 4609 0
-2649 1669 0
-2649 -1809 0
2649 -3629 -4609 -1669 1809 0
-689 829 -3629 0
689 3629 0
-829 3629 0
689 -829 -4609 0
-689 4609 0
829 4609 0
-2789 3769 0
-2789 4749 0
-2789 1809 0
-2789 -1949 0
2789 -3769 -4749 -1809 1949 0
-829 969 -3769 0
829 3769 0
-969 3769 0
829 -969 -4749 0
-829 4749 0
969 4749 0
5169 6149 0
5169 7129 0
-5169 -6149 -7129 0
-269 129 -6149 0
269 6149 0
-129 6149 0
269 -129 -7129 0
-269 7129 0
129 7129 0
5309 6289 0
5309 7269 0
-5309 -6289 -7269 0
-409 269 -6289 0
409 6289 0
-269 6289 0
409 -269 -7269 0
-409 7269 0
269 7269 0
5449 6429 0
5449 7409 0
-5449 -6429 -7409 0
-549 409 -6429 0
549 6429 0
-409 6429 0
549 -409 -7409 0
-549 7409 0
409 7409 0
5589 6569 0
5589 7549 0
-5589 -6569 -7549 0
-689 549 -6569 0
689 6569 0
-549 6569 0
689 -549 -7549 0
-689 7549 0
549 7549 0
5729 6709 0
5729 7689 0
-5729 -6709 -7689 0
-829 689 -6709 0
829 6709 0
-689 6709 0
829 -689 -7689 0
-829 7689 0
689 7689 0
5869 6849 0
5869 7829 0
-5869 -6849 -7829 0
-969 829 -6849 0
969 6849 0
-829 6849 0
969 -829 -7829 0
-969 7829 0
829 7829 0
1110 0
-1950 0
-2090 3070 0
-2090 4050 0
-2090 1110 0
-2090 -1250 0
2090 -3070 -4050 -1110 1250 0
-130 270 -3070 0
130 3070 0
-270 3070 0
130 -270 -4050 0
-130 4050 0
270 4050 0
-2230 3210 0
-2230 4190 0
-2230 1250 0
-2230 -1390 0
2230 -3210 -4190 -1250 1390 0
-270 410 -3210 0
270 3210 0
-410 3210 0
270 -410 -4190 0
-270 4190 0
410 4190 0
-2370 3350 0
-2370 4330 0
-2370 1390 0
-2370 -1530 0
2370 -3350 -4330 -1390 1530 0
-410 550 -3350 0
410 3350 0
-550 3350 0
410 -550 -4330 0
-410 4330 0
550 4330 0
-2510 3490 0
-2510 4470 0
-2510 1530 0
-2510 -1670 0
2510 -3490 -4470 -1530 1670 0
-550 690 -3490 0
550 3490 0
-690 3490 0
550 -690 -4470 0
-550 4470 0
690 4470 0
-2650 3630 0
-2650 4610 0
-2650 1670 0
-2650 -1810 0
2650 -3630 -4610 -1670 1810 0
-690 830 -3630 0
690 3630 0
-830 3630 0
690 -830 -4610 0
-690 4610 0
830 4610 0
-2790 3770 0
-2790 4750 0
-2790 1810 0
-2790 -1950 0
2790 -3770 -4750 -1810 1950 0
-830 970 -3770 0
830 3770 0
-970 3770 0
830 -970 -4750 0
-830 4750 0
970 4750 0
5170 6150 0
5170 7130 0
-5170 -6150 -7130 0
-270 130 -6150 0
270 6150 0
-130 6150 0
270 -130 -7130 0
-270 7130 0
130 7130 0
5310 6290 0
5310 7270 0
-5310 -6290 -7270 0
-410 270 -6290 0
410 6290 0
-270 6290 0
410 -270 -7270 0
-410 7270 0
270 7270 0
5450 6430 0
5450 7410 0
-5450 -6430 -7410 0
-550 410 -6430 0
550 6430 0
-410 6430 0
550 -410 -7410 0
-550 7410 0
410 7410 0
5590 6570 0
5590 7550 0
-5590 -6570 -7550 0
-690 550 -6570 0
690 6570 0
-550 6570 0
690 -550 -7550 0
-690 7550 0
550 7550 0
5730 6710 0
5730 7690 0
-5730 -6710 -7690 0
-830 690 -6710 0
830 6710 0
-690 6710 0
830 -690 -7690 0
-830 7690 0
690 7690 0
5870 6850 0
5870 7830 0
-5870 -6850 -7830 0
-970 830 -6850 0
970 6850 0
-830 6850 0
970 -830 -7830 0
-970 7830 0
830 7830 0
1111 0
-1951 0
-2091 3071 0
-2091 4051 0
-2091 1111 0
-2091 -1251 0
2091 -3071 -4051 -1111 1251 0
-131 271 -3071 0
131 3071 0
-271 3071 0
131 -271 -4051 0
-131 4051 0
271 4051 0
-2231 3211 0
-2231 4191 0
-2231 1251 0
-2231 -1391 0
2231 -3211 -4191 -1251 1391 0
-271 411 -3211 0
271 3211 0
-411 3211 0
271 -411 -4191 0
-271 4191 0
411 4191 0
-2371 3351 0
-2371 4331 0
-2371 1391 0
-2371 -1531 0
2371 -3351 -4331 -1391 1531 0
-411 551 -3351 0
411 3351 0
-551 3351 0
411 -551 -4331 0
-411 4331 0
551 4331 0
-2511 3491 0
-2511 4471 0
-2511 1531 0
-2511 -1671 0
2511 -3491 -4471 -1531 1671 0
-551 691 -3491 0
551 3491 0
-691 3491 0
551 -691 -4471 0
-551 4471 0
691 4471 0
-2651 3631 0
-2651 4611 0
-2651 1671 0
-2651 -1811 0
2651 -3631 -4611 -1671 1811 0
-691 831 -3631 0
691 3631 0
-831 3631 0
691 -831 -4611 0
-691 4611 0
831 4611 0
-2791 3771 0
-2791 4751 0
-2791 1811 0
-2791 -1951 0
2791 -3771 -4751 -1811 1951 0
-831 971 -3771 0
831 3771 0
-971 3771 0
831 -971 -4751 0
-831 4751 0
971 4751 0
5171 6151 0
5171 7131 0
-5171 -6151 -7131 0
-271 131 -6151 0
271 6151 0
-131 6151 0
271 -131 -7131 0
-271 7131 0
131 7131 0
5311 6291 0
5311 7271 0
-5311 -6291 -7271 0
-411 271 -6291 0
411 6291 0
-271 6291 0
411 -271 -7271 0
-411 7271 0
271 7271 0
5451 6431 0
5451 7411 0
-5451 -6431 -7411 0
-551 411 -6431 0
551 6431 0
-411 6431 0
551 -411 -7411 0
-551 7411 0
411 7411 0
5591 6571 0
5591 7551 0
-5591 -6571 -7551 0
-691 551 -6571 0
691 6571 0
-551 6571 0
691 -551 -7551 0
-691 7551 0
551 7551 0
5731 6711 0
5731 7691 0
-5731 -6711 -7691 0
-831 691 -6711 0
831 6711 0
-691 6711 0
831 -691 -7691 0
-831 7691 0
691 7691 0
5871 6851 0
5871 7831 0
-5871 -6851 -7831 0
-971 831 -6851 0
971 6851 0
-831 6851 0
971 -831 -7831 0
-971 7831 0
831 7831 0
1112 0
-1952 0
-2092 3072 0
-2092 4052 0
-2092 1112 0
-2092 -1252 0
2092 -3072 -4052 -1112 1252 0
-132 272 -3072 0
132 3072 0
-272 3072 0
132 -272 -4052 0
-132 4052 0
272 4052 0
-2232 3212 0
-2232 4192 0
-2232 1252 0
-2232 -1392 0
2232 -3212 -4192 -1252 1392 0
-272 412 -3212 0
272 3212 0
-412 3212 0
272 -412 -4192 0
-272 4192 0
412 4192 0
-2372 3352 0
-2372 4332 0
-2372 1392 0
-2372 -1532 0
2372 -3352 -4332 -1392 1532 0
-412 552 -3352 0
412 3352 0
-552 3352 0
412 -552 -4332 0
-412 4332 0
552 4332 0
-2512 3492 0
-2512 4472 0
-2512 1532 0
-2512 -1672 0
2512 -3492 -4472 -1532 1672 0
-552 692 -3492 0
552 3492 0
-692 3492 0
552 -692 -4472 0
-552 4472 0
692 4472 0
-2652 3632 0
-2652 4612 0
-2652 1672 0
-2652 -1812 0
2652 -3632 -4612 -1672 1812 0
-692 832 -3632 0
692 3632 0
-832 3632 0
692 -832 -4612 0
-692 4612 0
832 4612 0
-2792 3772 0
-2792 4752 0
-2792 1812 0
-2792 -1952 0
2792 -3772 -4752 -1812 1952 0
-832 972 -3772 0
832 3772 0
-972 3772 0
832 -972 -4752 0
-832 4752 0
972 4752 0
5172 6152 0
5172 7132 0
-5172 -6152 -7132 0
-272 132 -6152 0
272 6152 0
-132 6152 0
272 -132 -7132 0
-272 7132 0
132 7132 0
5312 6292 0
5312 7272 0
-5312 -6292 -7272 0
-412 272 -6292 0
412 6292 0
-272 6292 0
412 -272 -7272 0
-412 7272 0
272 7272 0
5452 6432 0
5452 7412 0
-5452 -6432 -7412 0
-552 412 -6432 0
552 6432 0
-412 6432 0
552 -412 -7412 0
-552 7412 0
412 7412 0
5592 6572 0
5592 7552 0
-5592 -6572 -7552 0
-692 552 -6572 0
692 6572 0
-552 6572 0
692 -552 -7552 0
-692 7552 0
552 7552 0
5732 6712 0
5732 7692 0
-5732 -6712 -7692 0
-832 692 -6712 0
832 6712 0
-692 6712 0
832 -692 -7692 0
-832 7692 0
692 7692 0
5872 6852 0
5872 7832 0
-5872 -6852 -7832 0
-972 832 -6852 0
972 6852 0
-832 6852 0
972 -832 -7832 0
-972 7832 0
832 7832 0
1113 0
-1953 0
-2093 3073 0
-2093 4053 0
-2093 1113 0
-2093 -1253 0
2093 -3073 -4053 -1113 1253 0
-133 273 -3073 0
133 3073 0
-273 3073 0
133 -273 -4053 0
-133 4053 0
273 4053 0
-2233 3213 0
-2233 4193 0
-2233 1253 0
-2233 -1393 0
2233 -3213 -4193 -1253 1393 0
-273 413 -3213 0
273 3213 0
-413 3213 0
273 -413 -4193 0
-273 4193 0
413 4193 0
-2373 3353 0
-2373 4333 0
-2373 1393 0
-2373 -1533 0
2373 -3353 -4333 -1393 1533 0
-413 553 -3353 0
413 3353 0
-553 3353 0
413 -553 -4333 0
-413 4333 0
553 4333 0
-2513 3493 0
-2513 4473 0
-2513 1533 0
-2513 -1673 0
2513 -3493 -4473 -1533 1673 0
-553 693 -3493 0
553 3493 0
-693 3493 0
553 -693 -4473 0
-553 4473 0
693 4473 0
-2653 3633 0
-2653 4613 0
-2653 1673 0
-2653 -1813 0
2653 -3633 -4613 -1673 1813 0
-693 833 -3633 0
693 3633 0
-833 3633 0
693 -833 -4613 0
-693 4613 0
833 4613 0
-2793 3773 0
-2793 4753 0
-2793 1813 0
-2793 -1953 0
2793 -3773 -4753 -1813 1953 0
-833 973 -3773 0
833 3773 0
-973 3773 0
833 -973 -4753 0
-833 4753 0
973 4753 0
5173 6153 0
5173 7133 0
-5173 -6153 -7133 0
-273 133 -6153 0
273 6153 0
-133 6153 0
273 -133 -7133 0
-273 7133 0
133 7133 0
5313 6293 0
5313 7273 0
-5313 -6293 -7273 0
-413 273 -6293 0
413 6293 0
-273 6293 0
413 -273 -7273 0
-413 7273 0
273 7273 0
5453 6433 0
5453 7413 0
-5453 -6433 -7413 0
-553 413 -6433 0
553 6433 0
-413 6433 0
553 -413 -7413 0
-553 7413 0
413 7413 0
5593 6573 0
5593 7553 0
-5593 -6573 -7553 0
-693 553 -6573 0
693 6573 0
-553 6573 0
693 -553 -7553 0
-693 7553 0
553 7553 0
5733 6713 0
5733 7693 0
-5733 -6713 -7693 0
-833 693 -6713 0
833 6713 0
-693 6713 0
833 -693 -7693 0
-833 7693 0
693 7693 0
5873 6853 0
5873 7833 0
-5873 -6853 -7833 0
-973 833 -6853 0
973 6853 0
-833 6853 0
973 -833 -7833 0
-973 7833 0
833 7833 0
1114 0
-1954 0
-2094 3074 0
-2094 4054 0
-2094 1114 0
-2094 -1254 0
2094 -3074 -4054 -1114 1254 0
-134 274 -3074 0
134 3074 0
-274 3074 0
134 -274 -4054 0
-134 4054 0
274 4054 0
-2234 3214 0
-2234 4194 0
-2234 1254 0
-2234 -1394 0
2234 -3214 -4194 -1254 1394 0
-274 414 -3214 0
274 3214 0
-414 3214 0
274 -414 -4194 0
-274 4194 0
414 4194 0
-2374 3354 0
-2374 4334 0
-2374 1394 0
-2374 -1534 0
2374 -3354 -4334 -1394 1534 0
-414 554 -3354 0
414 3354 0
-554 3354 0
414 -554 -4334 0
-414 4334 0
554 4334 0
-2514 3494 0
-2514 4474 0
-2514 1534 0
-2514 -1674 0
2514 -3494 -4474 -1534 1674 0
-554 694 -3494 0
554 3494 0
-694 3494 0
554 -694 -4474 0
-554 4474 0
694 4474 0
-2654 3634 0
-2654 4614 0
-2654 1674 0
-2654 -1814 0
2654 -3634 -4614 -1674 1814 0
-694 834 -3634 0
694 3634 0
-834 3634 0
694 -834 -4614 0
-694 4614 0
834 4614 0
-2794 3774 0
-2794 4754 0
-2794 1814 0
-2794 -1954 0
2794 -3774 -4754 -1814 1954 0
-834 974 -3774 0
834 3774 0
-974 3774 0
834 -974 -4754 0
-834 4754 0
974 4754 0
5174 6154 0
5174 7134 0
-5174 -6154 -7134 0
-274 134 -6154 0
274 6154 0
-134 6154 0
274 -134 -7134 0
-274 7134 0
134 7134 0
5314 6294 0
5314 7274 0
-5314 -6294 -7274 0
-414 274 -6294 0
414 6294 0
-274 6294 0
414 -274 -7274 0
-414 7274 0
274 7274 0
5454 6434 0
5454 7414 0
-5454 -6434 -7414 0
-554 414 -6434 0
554 6434 0
-414 6434 0
554 -414 -7414 0
-554 7414 0
414 7414 0
5594 6574 0
5594 7554 0
-5594 -6574 -7554 0
-694 554 -6574 0
694 6574 0
-554 6574 0
694 -554 -7554 0
-694 7554 0
554 7554 0
5734 6714 0
5734 7694 0
-5734 -6714 -7694 0
-834 694 -6714 0
834 6714 0
-694 6714 0
834 -694 -7694 0
-834 7694 0
694 7694 0
5874 6854 0
5874 7834 0
-5874 -6854 -7834 0
-974 834 -6854 0
974 6854 0
-834 6854 0
974 -834 -7834 0
-974 7834 0
834 7834 0
1115 0
-1955 0
-2095 3075 0
-2095 4055 0
-2095 1115 0
-2095 -1255 0
2095 -3075 -4055 -1115 1255 0
-135 275 -3075 0
135 3075 0
-275 3075 0
135 -275 -4055 0
-135 4055 0
275 4055 0
-2235 3215 0
-2235 4195 0
-2235 1255 0
-2235 -1395 0
2235 -3215 -4195 -1255 1395 0
-275 415 -3215 0
275 3215 0
-415 3215 0
275 -415 -4195 0
-275 4195 0
415 4195 0
-2375 3355 0
-2375 4335 0
-2375 1395 0
-2375 -1535 0
2375 -3355 -4335 -1395 1535 0
-415 555 -3355 0
415 3355 0
-555 3355 0
415 -555 -4335 0
-415 4335 0
555 4335 0
-2515 3495 0
-2515 4475 0
-2515 1535 0
-2515 -1675 0
2515 -3495 -4475 -1535 1675 0
-555 695 -3495 0
555 3495 0
-695 3495 0
555 -695 -4475 0
-555 4475 0
695 4475 0
-2655 3635 0
-2655 4615 0
-2655 1675 0
-2655 -1815 0
2655 -3635 -4615 -1675 1815 0
-695 835 -3635 0
695 3635 0
-835 3635 0
695 -835 -4615 0
-695 4615 0
835 4615 0
-2795 3775 0
-2795 4755 0
-2795 1815 0
-2795 -1955 0
2795 -3775 -4755 -1815 1955 0
-835 975 -3775 0
835 3775 0
-975 3775 0
835 -975 -4755 0
-835 4755 0
975 4755 0
5175 6155 0
5175 7135 0
-5175 -6155 -7135 0
-275 135 -6155 0
275 6155 0
-135 6155 0
275 -135 -7135 0
-275 7135 0
135 7135 0
5315 6295 0
5315 7275 0
-5315 -6295 -7275 0
-415 275 -6295 0
415 6295 0
-275 6295 0
415 -275 -7275 0
-415 7275 0
275 7275 0
5455 6435 0
5455 7415 0
-5455 -6435 -7415 0
-555 415 -6435 0
555 6435 0
-415 6435 0
555 -415 -7415 0
-555 7415 0
415 7415 0
5595 6575 0
5595 7555 0
-5595 -6575 -7555 0
-695 555 -6575 0
695 6575 0
-555 6575 0
695 -555 -7555 0
-695 7555 0
555 7555 0
5735 6715 0
5735 7695 0
-5735 -6715 -7695 0
-835 695 -6715 0
835 6715 0
-695 6715 0
835 -695 -7695 0
-835 7695 0
695 7695 0
5875 6855 0
5875 7835 0
-5875 -6855 -7835 0
-975 835 -6855 0
975 6855 0
-835 6855 0
975 -835 -7835 0
-975 7835 0
835 7835 0
1116 0
-1956 0
-2096 3076 0
-2096 4056 0
-2096 1116 0
-2096 -1256 0
2096 -3076 -4056 -1116 1256 0
-136 276 -3076 0
136 3076 0
-276 3076 0
136 -276 -4056 0
-136 4056 0
276 4056 0
-2236 3216 0
-2236 4196 0
-2236 1256 0
-2236 -1396 0
2236 -3216 -4196 -1256 1396 0
-276 416 -3216 0
276 3216 0
-416 3216 0
276 -416 -4196 0
-276 4196 0
416 4196 0
-2376 3356 0
-2376 4336 0
-2376 1396 0
-2376 -1536 0
2376 -3356 -4336 -1396 1536 0
-416 556 -3356 0
416 3356 0
-556 3356 0
416 -556 -4336 0
-416 4336 0
556 4336 0
-2516 3496 0
-2516 4476 0
-2516 1536 0
-2516 -1676 0
2516 -3496 -4476 -1536 1676 0
-556 696 -3496 0
556 3496 0
-696 3496 0
556 -696 -4476 0
-556 4476 0
696 4476 0
-2656 3636 0
-2656 4616 0
-2656 1676 0
-2656 -1816 0
2656 -3636 -4616 -1676 1816 0
-696 836 -3636 0
696 3636 0
-836 3636 0
696 -836 -4616 0
-696 4616 0
836 4616 0
-2796 3776 0
-2796 4756 0
-2796 1816 0
-2796 -1956 0
2796 -3776 -4756 -1816 1956 0
-836 976 -3776 0
836 3776 0
-976 3776 0
836 -976 -4756 0
-836 4756 0
976 4756 0
5176 6156 0
5176 7136 0
-5176 -6156 -7136 0
-276 136 -6156 0
276 6156 0
-136 6156 0
276 -136 -7136 0
-276 7136 0
136 7136 0
5316 6296 0
5316 7276 0
-5316 -6296 -7276 0
-416 276 -6296 0
416 6296 0
-276 6296 0
416 -276 -7276 0
-416 7276 0
276 7276 0
5456 6436 0
5456 7416 0
-5456 -6436 -7416 0
-556 416 -6436 0
556 6436 0
-416 6436 0
556 -416 -7416 0
-556 7416 0
416 7416 0
5596 6576 0
5596 7556 0
-5596 -6576 -7556 0
-696 556 -6576 0
696 6576 0
-556 6576 0
696 -556 -7556 0
-696 7556 0
556 7556 0
5736 6716 0
5736 7696 0
-5736 -6716 -7696 0
-836 696 -6716 0
836 6716 0
-696 6716 0
836 -696 -7696 0
-836 7696 0
696 7696 0
5876 6856 0
5876 7836 0
-5876 -6856 -7836 0
-976 836 -6856 0
976 6856 0
-836 6856 0
976 -836 -7836 0
-976 7836 0
836 7836 0
1117 0
-1957 0
-2097 3077 0
-2097 4057 0
-2097 1117 0
-2097 -1257 0
2097 -3077 -4057 -1117 1257 0
-137 277 -3077 0
137 3077 0
-277 3077 0
137 -277 -4057 0
-137 4057 0
277 4057 0
-2237 3217 0
-2237 4197 0
-2237 1257 0
-2237 -1397 0
2237 -3217 -4197 -1257 1397 0
-277 417 -3217 0
277 3217 0
-417 3217 0
277 -417 -4197 0
-277 4197 0
417 4197 0
-2377 3357 0
-2377 4337 0
-2377 1397 0
-2377 -1537 0
2377 -3357 -4337 -1397 1537 0
-417 557 -3357 0
417 3357 0
-557 3357 0
417 -557 -4337 0
-417 4337 0
557 4337 0
-2517 3497 0
-2517 4477 0
-2517 1537 0
-2517 -1677 0
2517 -3497 -4477 -1537 1677 0
-557 697 -3497 0
557 3497 0
-697 3497 0
557 -697 -4477 0
-557 4477 0
697 4477 0
-2657 3637 0
-2657 4617 0
-2657 1677 0
-2657 -1817 0
2657 -3637 -4617 -1677 1817 0
-697 837 -3637 0
697 3637 0
-837 3637 0
697 -837 -4617 0
-697 4617 0
837 4617 0
-2797 3777 0
-2797 4757 0
-2797 1817 0
-2797 -1957 0
2797 -3777 -4757 -1817 1957 0
-837 977 -3777 0
837 3777 0
-977 3777 0
837 -977 -4757 0
-837 4757 0
977 4757 0
5177 6157 0
5177 7137 0
-5177 -6157 -7137 0
-277 137 -6157 0
277 6157 0
-137 6157 0
277 -137 -7137 0
-277 7137 0
137 7137 0
5317 6297 0
5317 7277 0
-5317 -6297 -7277 0
-417 277 -6297 0
417 6297 0
-277 6297 0
417 -277 -7277 0
-417 7277 0
277 7277 0
5457 6437 0
5457 7417 0
-5457 -6437 -7417 0
-557 417 -6437 0
557 6437 0
-417 6437 0
557 -417 -7417 0
-557 7417 0
417 7417 0
5597 6577 0
5597 7557 0
-5597 -6577 -7557 0
-697 557 -6577 0
697 6577 0
-557 6577 0
697 -557 -7557 0
-697 7557 0
557 7557 0
5737 6717 0
5737 7697 0
-5737 -6717 -7697 0
-837 697 -6717 0
837 6717 0
-697 6717 0
837 -697 -7697 0
-837 7697 0
697 7697 0
5877 6857 0
5877 7837 0
-5877 -6857 -7837 0
-977 837 -6857 0
977 6857 0
-837 6857 0
977 -837 -7837 0
-977 7837 0
837 7837 0
1118 0
-1958 0
-2098 3078 0
-2098 4058 0
-2098 1118 0
-2098 -1258 0
2098 -3078 -4058 -1118 1258 0
-138 278 -3078 0
138 3078 0
-278 3078 0
138 -278 -4058 0
-138 4058 0
278 4058 0
-2238 3218 0
-2238 4198 0
-2238 1258 0
-2238 -1398 0
2238 -3218 -4198 -1258 1398 0
-278 418 -3218 0
278 3218 0
-418 3218 0
278 -418 -4198 0
-278 4198 0
418 4198 0
-2378 3358 0
-2378 4338 0
-2378 1398 0
-2378 -1538 0
2378 -3358 -4338 -1398 1538 0
-418 558 -3358 0
418 3358 0
-558 3358 0
418 -558 -4338 0
-418 4338 0
558 4338 0
-2518 3498 0
-2518 4478 0
-2518 1538 0
-2518 -1678 0
2518 -3498 -4478 -1538 1678 0
-558 698 -3498 0
558 3498 0
-698 3498 0
558 -698 -4478 0
-558 4478 0
698 4478 0
-2658 3638 0
-2658 4618 0
-2658 1678 0
-2658 -1818 0
2658 -3638 -4618 -1678 1818 0
-698 838 -3638 0
698 3638 0
-838 3638 0
698 -838 -4618 0
-698 4618 0
838 4618 0
-2798 3778 0
-2798 4758 0
-2798 1818 0
-2798 -1958 0
2798 -3778 -4758 -1818 1958 0
-838 978 -3778 0
838 3778 0
-978 3778 0
838 -978 -4758 0
-838 4758 0
978 4758 0
5178 6158 0
5178 7138 0
-5178 -6158 -7138 0
-278 138 -6158 0
278 6158 0
-138 6158 0
278 -138 -7138 0
-278 7138 0
138 7138 0
5318 6298 0
5318 7278 0
-5318 -6298 -7278 0
-418 278 -6298 0
418 6298 0
-278 6298 0
418 -278 -7278 0
-418 7278 0
278 7278 0
5458 6438 0
5458 7418 0
-5458 -6438 -7418 0
-558 418 -6438 0
558 6438 0
-418 6438 0
558 -418 -7418 0
-558 7418 0
418 7418 0
5598 6578 0
5598 7558 0
-5598 -6578 -7558 0
-698 558 -6578 0
698 6578 0
-558 6578 0
698 -558 -7558 0
-698 7558 0
558 7558 0
5738 6718 0
5738 7698 0
-5738 -6718 -7698 0
-838 698 -6718 0
838 6718 0
-698 6718 0
838 -698 -7698 0
-838 7698 0
698 7698 0
5878 6858 0
5878 7838 0
-5878 -6858 -7838 0
-978 838 -6858 0
978 6858 0
-838 6858 0
978 -838 -7838 0
-978 7838 0
838 7838 0
1119 0
-1959 0
-2099 3079 0
-2099 4059 0
-2099 1119 0
-2099 -1259 0
2099 -3079 -4059 -1119 1259 0
-139 279 -3079 0
139 3079 0
-279 3079 0
139 -279 -4059 0
-139 4059 0
279 4059 0
-2239 3219 0
-2239 4199 0
-2239 1259 0
-2239 -1399 0
2239 -3219 -4199 -1259 1399 0
-279 419 -3219 0
279 3219 0
-419 3219 0
279 -419 -4199 0
-279 4199 0
419 4199 0
-2379 3359 0
-2379 4339 0
-2379 1399 0
-2379 -1539 0
2379 -3359 -4339 -1399 1539 0
-419 559 -3359 0
419 3359 0
-559 3359 0
419 -559 -4339 0
-419 4339 0
559 4339 0
-2519 3499 0
-2519 4479 0
-2519 1539 0
-2519 -1679 0
2519 -3499 -4479 -1539 1679 0
-559 699 -3499 0
559 3499 0
-699 3499 0
559 -699 -4479 0
-559 4479 0
699 4479 0
-2659 3639 0
-2659 4619 0
-2659 1679 0
-2659 -1819 0
2659 -3639 -4619 -1679 1819 0
-699 839 -3639 0
699 3639 0
-839 3639 0
699 -839 -4619 0
-699 4619 0
839 4619 0
-2799 3779 0
-2799 4759 0
-2799 1819 0
-2799 -1959 0
2799 -3779 -4759 -1819 1959 0
-839 979 -3779 0
839 3779 0
-979 3779 0
839 -979 -4759 0
-839 4759 0
979 4759 0
5179 6159 0
5179 7139 0
-5179 -6159 -7139 0
-279 139 -6159 0
279 6159 0
-139 6159 0
279 -139 -7139 0
-279 7139 0
139 7139 0
5319 6299 0
5319 7279 0
-5319 -6299 -7279 0
-419 279 -6299 0
419 6299 0
-279 6299 0
419 -279 -7279 0
-419 7279 0
279 7279 0
5459 6439 0
5459 7419 0
-5459 -6439 -7419 0
-559 419 -6439 0
559 6439 0
-419 6439 0
559 -419 -7419 0
-559 7419 0
419 7419 0
5599 6579 0
5599 7559 0
-5599 -6579 -7559 0
-699 559 -6579 0
699 6579 0
-559 6579 0
699 -559 -7559 0
-699 7559 0
559 7559 0
5739 6719 0
5739 7699 0
-5739 -6719 -7699 0
-839 699 -6719 0
839 6719 0
-699 6719 0
839 -699 -7699 0
-839 7699 0
699 7699 0
5879 6859 0
5879 7839 0
-5879 -6859 -7839 0
-979 839 -6859 0
979 6859 0
-839 6859 0
979 -839 -7839 0
-979 7839 0
839 7839 0
1120 0
-1960 0
-2100 3080 0
-2100 4060 0
-2100 1120 0
-2100 -1260 0
2100 -3080 -4060 -1120 1260 0
-140 280 -3080 0
140 3080 0
-280 3080 0
140 -280 -4060 0
-140 4060 0
280 4060 0
-2240 3220 0
-2240 4200 0
-2240 1260 0
-2240 -1400 0
2240 -3220 -4200 -1260 1400 0
-280 420 -3220 0
280 3220 0
-420 3220 0
280 -420 -4200 0
-280 4200 0
420 4200 0
-2380 3360 0
-2380 4340 0
-2380 1400 0
-2380 -1540 0
2380 -3360 -4340 -1400 1540 0
-420 560 -3360 0
420 3360 0
-560 3360 0
420 -560 -4340 0
-420 4340 0
560 4340 0
-2520 3500 0
-2520 4480 0
-2520 1540 0
-2520 -1680 0
2520 -3500 -4480 -1540 1680 0
-560 700 -3500 0
560 3500 0
-700 3500 0
560 -700 -4480 0
-560 4480 0
700 4480 0
-2660 3640 0
-2660 4620 0
-2660 1680 0
-2660 -1820 0
2660 -3640 -4620 -1680 1820 0
-700 840 -3640 0
700 3640 0
-840 3640 0
700 -840 -4620 0
-700 4620 0
840 4620 0
-2800 3780 0
-2800 4760 0
-2800 1820 0
-2800 -1960 0
2800 -3780 -4760 -1820 1960 0
-840 980 -3780 0
840 3780 0
-980 3780 0
840 -980 -4760 0
-840 4760 0
980 4760 0
5180 6160 0
5180 7140 0
-5180 -6160 -7140 0
-280 140 -6160 0
280 6160 0
-140 6160 0
280 -140 -7140 0
-280 7140 0
140 7140 0
5320 6300 0
5320 7280 0
-5320 -6300 -7280 0
-420 280 -6300 0
420 6300 0
-280 6300 0
420 -280 -7280 0
-420 7280 0
280 7280 0
5460 6440 0
5460 7420 0
-5460 -6440 -7420 0
-560 420 -6440 0
560 6440 0
-420 6440 0
560 -420 -7420 0
-560 7420 0
420 7420 0
5600 6580 0
5600 7560 0
-5600 -6580 -7560 0
-700 560 -6580 0
700 6580 0
-560 6580 0
700 -560 -7560 0
-700 7560 0
560 7560 0
5740 6720 0
5740 7700 0
-5740 -6720 -7700 0
-840 700 -6720 0
840 6720 0
-700 6720 0
840 -700 -7700 0
-840 7700 0
700 7700 0
5880 6860 0
5880 7840 0
-5880 -6860 -7840 0
-980 840 -6860 0
980 6860 0
-840 6860 0
980 -840 -7840 0
-980 7840 0
840 7840 0
-10641 5741 0
10641 -5741 0
-9801 1961 0
9801 -1961 0
-10642 5742 0
10642 -5742 0
-9802 1962 0
9802 -1962 0
-10643 5743 0
10643 -5743 0
-9803 1963 0
9803 -1963 0
-10644 5744 0
10644 -5744 0
-9804 1964 0
9804 -1964 0
-10645 5745 0
10645 -5745 0
-9805 1965 0
9805 -1965 0
-10646 5746 0
10646 -5746 0
-9806 1966 0
9806 -1966 0
-10647 5747 0
10647 -5747 0
-9807 1967 0
9807 -1967 0
-10648 5748 0
10648 -5748 0
-9808 1968 0
9808 -1968 0
-10649 5749 0
10649 -5749 0
-9809 1969 0
9809 -1969 0
-10650 5750 0
10650 -5750 0
-9810 1970 0
9810 -1970 0
-10651 5751 0
10651 -5751 0
-9811 1971 0
9811 -1971 0
-10652 5752 0
10652 -5752 0
-9812 1972 0
9812 -1972 0
-10653 5753 0
10653 -5753 0
-9813 1973 0
9813 -1973 0
-10654 5754 0
10654 -5754 0
-9814 1974 0
9814 -1974 0
-10655 5755 0
10655 -5755 0
-9815 1975 0
9815 -1975 0
-10656 5756 0
10656 -5756 0
-9816 1976 0
9816 -1976 0
-10657 5757 0
10657 -5757 0
-9817 1977 0
9817 -1977 0
-10658 5758 0
10658 -5758 0
-9818 1978 0
9818 -1978 0
-10659 5759 0
10659 -5759 0
-9819 1979 0
9819 -1979 0
-10660 5760 0
10660 -5760 0
-9820 1980 0
9820 -1980 0
-10661 5761 0
10661 -5761 0
-9821 1981 0
9821 -1981 0
-10662 5762 0
10662 -5762 0
-9822 1982 0
9822 -1982 0
-10663 5763 0
10663 -5763 0
-9823 1983 0
9823 -1983 0
-10664 5764 0
10664 -5764 0
-9824 1984 0
9824 -1984 0
-10665 5765 0
10665 -5765 0
-9825 1985 0
9825 -1985 0
-10666 5766 0
10666 -5766 0
-9826 1986 0
9826 -1986 0
-10667 5767 0
10667 -5767 0
-9827 1987 0
9827 -1987 0
-10668 5768 0
10668 -5768 0
-9828 1988 0
9828 -1988 0
-10669 5769 0
10669 -5769 0
-9829 1989 0
9829 -1989 0
-10670 5770 0
10670 -5770 0
-9830 1990 0
9830 -1990 0
-10671 5771 0
10671 -5771 0
-9831 1991 0
9831 -1991 0
-10672 5772 0
10672 -5772 0
-9832 1992 0
9832 -1992 0
-10673 5773 0
10673 -5773 0
-9833 1993 0
9833 -1993 0
-10674 5774 0
10674 -5774 0
-9834 1994 0
9834 -1994 0
-10675 5775 0
10675 -5775 0
-9835 1995 0
9835 -1995 0
-10676 5776 0
10676 -5776 0
-9836 1996 0
9836 -1996 0
-10677 5777 0
10677 -5777 0
-9837 1997 0
9837 -1997 0
-10678 5778 0
10678 -5778 0
-9838 1998 0
9838 -1998 0
-10679 5779 0
10679 -5779 0
-9839 1999 0
9839 -1999 0
-10680 5780 0
10680 -5780 0
-9840 2000 0
9840 -2000 0
-10681 5781 0
10681 -5781 0
-9841 2001 0
9841 -2001 0
-10682 5782 0
10682 -5782 0
-9842 2002 0
9842 -2002 0
-10683 5783 0
10683 -5783 0
-9843 2003 0
9843 -2003 0
-10684 5784 0
10684 -5784 0
-9844 2004 0
9844 -2004 0
-10685 5785 0
10685 -5785 0
-9845 2005 0
9845 -2005 0
-10686 5786 0
10686 -5786 0
-9846 2006 0
9846 -2006 0
-10687 5787 0
10687 -5787 0
-9847 2007 0
9847 -2007 0
-10688 5788 0
10688 -5788 0
-9848 2008 0
9848 -2008 0
-10689 5789 0
10689 -5789 0
-9849 2009 0
9849 -2009 0
-10690 5790 0
10690 -5790 0
-9850 2010 0
9850 -2010 0
-10691 5791 0
10691 -5791 0
-9851 2011 0
9851 -2011 0
-10692 5792 0
10692 -5792 0
-9852 2012 0
9852 -2012 0
-10693 5793 0
10693 -5793 0
-9853 2013 0
9853 -2013 0
-10694 5794 0
10694 -5794 0
-9854 2014 0
9854 -2014 0
-10695 5795 0
10695 -5795 0
-9855 2015 0
9855 -2015 0
-10696 5796 0
10696 -5796 0
-9856 2016 0
9856 -2016 0
-10697 5797 0
10697 -5797 0
-9857 2017 0
9857 -2017 0
-10698 5798 0
10698 -5798 0
-9858 2018 0
9858 -2018 0
-10699 5799 0
10699 -5799 0
-9859 2019 0
9859 -2019 0
-10700 5800 0
10700 -5800 0
-9860 2020 0
9860 -2020 0
-10701 5801 0
10701 -5801 0
-9861 2021 0
9861 -2021 0
-10702 5802 0
10702 -5802 0
-9862 2022 0
9862 -2022 0
-10703 5803 0
10703 -5803 0
-9863 2023 0
9863 -2023 0
-10704 5804 0
10704 -5804 0
-9864 2024 0
9864 -2024 0
-10705 5805 0
10705 -5805 0
-9865 2025 0
9865 -2025 0
-10706 5806 0
10706 -5806 0
-9866 2026 0
9866 -2026 0
-10707 5807 0
10707 -5807 0
-9867 2027 0
9867 -2027 0
-10708 5808 0
10708 -5808 0
-9868 2028 0
9868 -2028 0
-10709 5809 0
10709 -5809 0
-9869 2029 0
9869 -2029 0
-10710 5810 0
10710 -5810 0
-9870 2030 0
9870 -2030 0
-10711 5811 0
10711 -5811 0
-9871 2031 0
9871 -2031 0
-10712 5812 0
10712 -5812 0
-9872 2032 0
9872 -2032 0
-10713 5813 0
10713 -5813 0
-9873 2033 0
9873 -2033 0
-10714 5814 0
10714 -5814 0
-9874 2034 0
9874 -2034 0
-10715 5815 0
10715 -5815 0
-9875 2035 0
9875 -2035 0
-10716 5816 0
10716 -5816 0
-9876 2036 0
9876 -2036 0
-10717 5817 0
10717 -5817 0
-9877 2037 0
9877 -2037 0
-10718 5818 0
10718 -5818 0
-9878 2038 0
9878 -2038 0
-10719 5819 0
10719 -5819 0
-9879 2039 0
9879 -2039 0
-10720 5820 0
10720 -5820 0
-9880 2040 0
9880 -2040 0
-10721 5821 0
10721 -5821 0
-9881 2041 0
9881 -2041 0
-10722 5822 0
10722 -5822 0
-9882 2042 0
9882 -2042 0
-10723 5823 0
10723 -5823 0
-9883 2043 0
9883 -2043 0
-10724 5824 0
10724 -5824 0
-9884 2044 0
9884 -2044 0
-10725 5825 0
10725 -5825 0
-9885 2045 0
9885 -2045 0
-10726 5826 0
10726 -5826 0
-9886 2046 0
9886 -2046 0
-10727 5827 0
10727 -5827 0
-9887 2047 0
9887 -2047 0
-10728 5828 0
10728 -5828 0
-9888 2048 0
9888 -2048 0
-10729 5829 0
10729 -5829 0
-9889 2049 0
9889 -2049 0
-10730 5830 0
10730 -5830 0
-9890 2050 0
9890 -2050 0
-10731 5831 0
10731 -5831 0
-9891 2051 0
9891 -2051 0
-10732 5832 0
10732 -5832 0
-9892 2052 0
9892 -2052 0
-10733 5833 0
10733 -5833 0
-9893 2053 0
9893 -2053 0
-10734 5834 0
10734 -5834 0
-9894 2054 0
9894 -2054 0
-10735 5835 0
10735 -5835 0
-9895 2055 0
9895 -2055 0
-10736 5836 0
10736 -5836 0
-9896 2056 0
9896 -2056 0
-10737 5837 0
10737 -5837 0
-9897 2057 0
9897 -2057 0
-10738 5838 0
10738 -5838 0
-9898 2058 0
9898 -2058 0
-10739 5839 0
10739 -5839 0
-9899 2059 0
9899 -2059 0
-10740 5840 0
10740 -5840 0
-9900 2060 0
9900 -2060 0
-10741 5841 0
10741 -5841 0
-9901 2061 0
9901 -2061 0
-10742 5842 0
10742 -5842 0
-9902 2062 0
9902 -2062 0
-10743 5843 0
10743 -5843 0
-9903 2063 0
9903 -2063 0
-10744 5844 0
10744 -5844 0
-9904 2064 0
9904 -2064 0
-10745 5845 0
10745 -5845 0
-9905 2065 0
9905 -2065 0
-10746 5846 0
10746 -5846 0
-9906 2066 0
9906 -2066 0
-10747 5847 0
10747 -5847 0
-9907 2067 0
9907 -2067 0
-10748 5848 0
10748 -5848 0
-9908 2068 0
9908 -2068 0
-10749 5849 0
10749 -5849 0
-9909 2069 0
9909 -2069 0
-10750 5850 0
10750 -5850 0
-9910 2070 0
9910 -2070 0
-10751 5851 0
10751 -5851 0
-9911 2071 0
9911 -2071 0
-10752 5852 0
10752 -5852 0
-9912 2072 0
9912 -2072 0
-10753 5853 0
10753 -5853 0
-9913 2073 0
9913 -2073 0
-10754 5854 0
10754 -5854 0
-9914 2074 0
9914 -2074 0
-10755 5855 0
10755 -5855 0
-9915 2075 0
9915 -2075 0
-10756 5856 0
10756 -5856 0
-9916 2076 0
9916 -2076 0
-10757 5857 0
10757 -5857 0
-9917 2077 0
9917 -2077 0
-10758 5858 0
10758 -5858 0
-9918 2078 0
9918 -2078 0
-10759 5859 0
10759 -5859 0
-9919 2079 0
9919 -2079 0
-10760 5860 0
10760 -5860 0
-9920 2080 0
9920 -2080 0
-10761 5861 0
10761 -5861 0
-9921 2081 0
9921 -2081 0
-10762 5862 0
10762 -5862 0
-9922 2082 0
9922 -2082 0
-10763 5863 0
10763 -5863 0
-9923 2083 0
9923 -2083 0
-10764 5864 0
10764 -5864 0
-9924 2084 0
9924 -2084 0
-10765 5865 0
10765 -5865 0
-9925 2085 0
9925 -2085 0
-10766 5866 0
10766 -5866 0
-9926 2086 0
9926 -2086 0
-10767 5867 0
10767 -5867 0
-9927 2087 0
9927 -2087 0
-10768 5868 0
10768 -5868 0
-9928 2088 0
9928 -2088 0
-10769 5869 0
10769 -5869 0
-9929 2089 0
9929 -2089 0
-10770 5870 0
10770 -5870 0
-9930 2090 0
9930 -2090 0
-10771 5871 0
10771 -5871 0
-9931 2091 0
9931 -2091 0
-10772 5872 0
10772 -5872 0
-9932 2092 0
9932 -2092 0
-10773 5873 0
10773 -5873 0
-9933 2093 0
9933 -2093 0
-10774 5874 0
10774 -5874 0
-9934 2094 0
9934 -2094 0
-10775 5875 0
10775 -5875 0
-9935 2095 0
9935 -2095 0
-10776 5876 0
10776 -5876 0
-9936 2096 0
9936 -2096 0
-10777 5877 0
10777 -5877 0
-9937 2097 0
9937 -2097 0
-10778 5878 0
10778 -5878 0
-9938 2098 0
9938 -2098 0
-10779 5879 0
10779 -5879 0
-9939 2099 0
9939 -2099 0
-10780 5880 0
10780 -5880 0
-9940 2100 0
9940 -2100 0
-9941 5041 2101 0
9941 -5041 0
9941 -2101 0
-9942 5042 2102 0
9942 -5042 0
9942 -2102 0
-9943 5043 2103 0
9943 -5043 0
9943 -2103 0
-9944 5044 2104 0
9944 -5044 0
9944 -2104 0
-9945 5045 2105 0
9945 -5045 0
9945 -2105 0
-9946 5046 2106 0
9946 -5046 0
9946 -2106 0
-9947 5047 2107 0
9947 -5047 0
9947 -2107 0
-9948 5048 2108 0
9948 -5048 0
9948 -2108 0
-9949 5049 2109 0
9949 -5049 0
9949 -2109 0
-9950 5050 2110 0
9950 -5050 0
9950 -2110 0
-9951 5051 2111 0
9951 -5051 0
9951 -2111 0
-9952 5052 2112 0
9952 -5052 0
9952 -2112 0
-9953 5053 2113 0
9953 -5053 0
9953 -2113 0
-9954 5054 2114 0
9954 -5054 0
9954 -2114 0
-9955 5055 2115 0
9955 -5055 0
9955 -2115 0
-9956 5056 2116 0
9956 -5056 0
9956 -2116 0
-9957 5057 2117 0
9957 -5057 0
9957 -2117 0
-9958 5058 2118 0
9958 -5058 0
9958 -2118 0
-9959 5059 2119 0
9959 -5059 0
9959 -2119 0
-9960 5060 2120 0
9960 -5060 0
9960 -2120 0
-9961 5061 2121 0
9961 -5061 0
9961 -2121 0
-9962 5062 2122 0
9962 -5062 0
9962 -2122 0
-9963 5063 2123 0
9963 -5063 0
9963 -2123 0
-9964 5064 2124 0
9964 -5064 0
9964 -2124 0
-9965 5065 2125 0
9965 -5065 0
9965 -2125 0
-9966 5066 2126 0
9966 -5066 0
9966 -2126 0
-9967 5067 2127 0
9967 -5067 0
9967 -2127 0
-9968 5068 2128 0
9968 -5068 0
9968 -2128 0
-9969 5069 2129 0
9969 -5069 0
9969 -2129 0
-9970 5070 2130 0
9970 -5070 0
9970 -2130 0
-9971 5071 2131 0
9971 -5071 0
9971 -2131 0
-9972 5072 2132 0
9972 -5072 0
9972 -2132 0
-9973 5073 2133 0
9973 -5073 0
9973 -2133 0
-9974 5074 2134 0
9974 -5074 0
9974 -2134 0
-9975 5075 2135 0
9975 -5075 0
9975 -2135 0
-9976 5076 2136 0
9976 -5076 0
9976 -2136 0
-9977 5077 2137 0
9977 -5077 0
9977 -2137 0
-9978 5078 2138 0
9978 -5078 0
9978 -2138 0
-9979 5079 2139 0
9979 -5079 0
9979 -2139 0
-9980 5080 2140 0
9980 -5080 0
9980 -2140 0
-9981 5081 2141 0
9981 -5081 0
9981 -2141 0
-9982 5082 2142 0
9982 -5082 0
9982 -2142 0
-9983 5083 2143 0
9983 -5083 0
9983 -2143 0
-9984 5084 2144 0
9984 -5084 0
9984 -2144 0
-9985 5085 2145 0
9985 -5085 0
9985 -2145 0
-9986 5086 2146 0
9986 -5086 0
9986 -2146 0
-9987 5087 2147 0
9987 -5087 0
9987 -2147 0
-9988 5088 2148 0
9988 -5088 0
9988 -2148 0
-9989 5089 2149 0
9989 -5089 0
9989 -2149 0
-9990 5090 2150 0
9990 -5090 0
9990 -2150 0
-9991 5091 2151 0
9991 -5091 0
9991 -2151 0
-9992 5092 2152 0
9992 -5092 0
9992 -2152 0
-9993 5093 2153 0
9993 -5093 0
9993 -2153 0
-9994 5094 2154 0
9994 -5094 0
9994 -2154 0
-9995 5095 2155 0
9995 -5095 0
9995 -2155 0
-9996 5096 2156 0
9996 -5096 0
9996 -2156 0
-9997 5097 2157 0
9997 -5097 0
9997 -2157 0
-9998 5098 2158 0
9998 -5098 0
9998 -2158 0
-9999 5099 2159 0
9999 -5099 0
9999 -2159 0
-10000 5100 2160 0
10000 -5100 0
10000 -2160 0
-10001 5101 2161 0
10001 -5101 0
10001 -2161 0
-10002 5102 2162 0
10002 -5102 0
10002 -2162 0
-10003 5103 2163 0
10003 -5103 0
10003 -2163 0
-10004 5104 2164 0
10004 -5104 0
10004 -2164 0
-10005 5105 2165 0
10005 -5105 0
10005 -2165 0
-10006 5106 2166 0
10006 -5106 0
10006 -2166 0
-10007 5107 2167 0
10007 -5107 0
10007 -2167 0
-10008 5108 2168 0
10008 -5108 0
10008 -2168 0
-10009 5109 2169 0
10009 -5109 0
10009 -2169 0
-10010 5110 2170 0
10010 -5110 0
10010 -2170 0
-10011 5111 2171 0
10011 -5111 0
10011 -2171 0
-10012 5112 2172 0
10012 -5112 0
10012 -2172 0
-10013 5113 2173 0
10013 -5113 0
10013 -2173 0
-10014 5114 2174 0
10014 -5114 0
10014 -2174 0
-10015 5115 2175 0
10015 -5115 0
10015 -2175 0
-10016 5116 2176 0
10016 -5116 0
10016 -2176 0
-10017 5117 2177 0
10017 -5117 0
10017 -2177 0
-10018 5118 2178 0
10018 -5118 0
10018 -2178 0
-10019 5119 2179 0
10019 -5119 0
10019 -2179 0
-10020 5120 2180 0
10020 -5120 0
10020 -2180 0
-10021 5121 2181 0
10021 -5121 0
10021 -2181 0
-10022 5122 2182 0
10022 -5122 0
10022 -2182 0
-10023 5123 2183 0
10023 -5123 0
10023 -2183 0
-10024 5124 2184 0
10024 -5124 0
10024 -2184 0
-10025 5125 2185 0
10025 -5125 0
10025 -2185 0
-10026 5126 2186 0
10026 -5126 0
10026 -2186 0
-10027 5127 2187 0
10027 -5127 0
10027 -2187 0
-10028 5128 2188 0
10028 -5128 0
10028 -2188 0
-10029 5129 2189 0
10029 -5129 0
10029 -2189 0
-10030 5130 2190 0
10030 -5130 0
10030 -2190 0
-10031 5131 2191 0
10031 -5131 0
10031 -2191 0
-10032 5132 2192 0
10032 -5132 0
10032 -2192 0
-10033 5133 2193 0
10033 -5133 0
10033 -2193 0
-10034 5134 2194 0
10034 -5134 0
10034 -2194 0
-10035 5135 2195 0
10035 -5135 0
10035 -2195 0
-10036 5136 2196 0
10036 -5136 0
10036 -2196 0
-10037 5137 2197 0
10037 -5137 0
10037 -2197 0
-10038 5138 2198 0
10038 -5138 0
10038 -2198 0
-10039 5139 2199 0
10039 -5139 0
10039 -2199 0
-10040 5140 2200 0
10040 -5140 0
10040 -2200 0
-10041 5141 2201 0
10041 -5141 0
10041 -2201 0
-10042 5142 2202 0
10042 -5142 0
10042 -2202 0
-10043 5143 2203 0
10043 -5143 0
10043 -2203 0
-10044 5144 2204 0
10044 -5144 0
10044 -2204 0
-10045 5145 2205 0
10045 -5145 0
10045 -2205 0
-10046 5146 2206 0
10046 -5146 0
10046 -2206 0
-10047 5147 2207 0
10047 -5147 0
10047 -2207 0
-10048 5148 2208 0
10048 -5148 0
10048 -2208 0
-10049 5149 2209 0
10049 -5149 0
10049 -2209 0
-10050 5150 2210 0
10050 -5150 0
10050 -2210 0
-10051 5151 2211 0
10051 -5151 0
10051 -2211 0
-10052 5152 2212 0
10052 -5152 0
10052 -2212 0
-10053 5153 2213 0
10053 -5153 0
10053 -2213 0
-10054 5154 2214 0
10054 -5154 0
10054 -2214 0
-10055 5155 2215 0
10055 -5155 0
10055 -2215 0
-10056 5156 2216 0
10056 -5156 0
10056 -2216 0
-10057 5157 2217 0
10057 -5157 0
10057 -2217 0
-10058 5158 2218 0
10058 -5158 0
10058 -2218 0
-10059 5159 2219 0
10059 -5159 0
10059 -2219 0
-10060 5160 2220 0
10060 -5160 0
10060 -2220 0
-10061 5161 2221 0
10061 -5161 0
10061 -2221 0
-10062 5162 2222 0
10062 -5162 0
10062 -2222 0
-10063 5163 2223 0
10063 -5163 0
10063 -2223 0
-10064 5164 2224 0
10064 -5164 0
10064 -2224 0
-10065 5165 2225 0
10065 -5165 0
10065 -2225 0
-10066 5166 2226 0
10066 -5166 0
10066 -2226 0
-10067 5167 2227 0
10067 -5167 0
10067 -2227 0
-10068 5168 2228 0
10068 -5168 0
10068 -2228 0
-10069 5169 2229 0
10069 -5169 0
10069 -2229 0
-10070 5170 2230 0
10070 -5170 0
10070 -2230 0
-10071 5171 2231 0
10071 -5171 0
10071 -2231 0
-10072 5172 2232 0
10072 -5172 0
10072 -2232 0
-10073 5173 2233 0
10073 -5173 0
10073 -2233 0
-10074 5174 2234 0
10074 -5174 0
10074 -2234 0
-10075 5175 2235 0
10075 -5175 0
10075 -2235 0
-10076 5176 2236 0
10076 -5176 0
10076 -2236 0
-10077 5177 2237 0
10077 -5177 0
10077 -2237 0
-10078 5178 2238 0
10078 -5178 0
10078 -2238 0
-10079 5179 2239 0
10079 -5179 0
10079 -2239 0
-10080 5180 2240 0
10080 -5180 0
10080 -2240 0
-10081 5181 2241 0
10081 -5181 0
10081 -2241 0
-10082 5182 2242 0
10082 -5182 0
10082 -2242 0
-10083 5183 2243 0
10083 -5183 0
10083 -2243 0
-10084 5184 2244 0
10084 -5184 0
10084 -2244 0
-10085 5185 2245 0
10085 -5185 0
10085 -2245 0
-10086 5186 2246 0
10086 -5186 0
10086 -2246 0
-10087 5187 2247 0
10087 -5187 0
10087 -2247 0
-10088 5188 2248 0
10088 -5188 0
10088 -2248 0
-10089 5189 2249 0
10089 -5189 0
10089 -2249 0
-10090 5190 2250 0
10090 -5190 0
10090 -2250 0
-10091 5191 2251 0
10091 -5191 0
10091 -2251 0
-10092 5192 2252 0
10092 -5192 0
10092 -2252 0
-10093 5193 2253 0
10093 -5193 0
10093 -2253 0
-10094 5194 2254 0
10094 -5194 0
10094 -2254 0
-10095 5195 2255 0
10095 -5195 0
10095 -2255 0
-10096 5196 2256 0
10096 -5196 0
10096 -2256 0
-10097 5197 2257 0
10097 -5197 0
10097 -2257 0
-10098 5198 2258 0
10098 -5198 0
10098 -2258 0
-10099 5199 2259 0
10099 -5199 0
10099 -2259 0
-10100 5200 2260 0
10100 -5200 0
10100 -2260 0
-10101 5201 2261 0
10101 -5201 0
10101 -2261 0
-10102 5202 2262 0
10102 -5202 0
10102 -2262 0
-10103 5203 2263 0
10103 -5203 0
10103 -2263 0
-10104 5204 2264 0
10104 -5204 0
10104 -2264 0
-10105 5205 2265 0
10105 -5205 0
10105 -2265 0
-10106 5206 2266 0
10106 -5206 0
10106 -2266 0
-10107 5207 2267 0
10107 -5207 0
10107 -2267 0
-10108 5208 2268 0
10108 -5208 0
10108 -2268 0
-10109 5209 2269 0
10109 -5209 0
10109 -2269 0
-10110 5210 2270 0
10110 -5210 0
10110 -2270 0
-10111 5211 2271 0
10111 -5211 0
10111 -2271 0
-10112 5212 2272 0
10112 -5212 0
10112 -2272 0
-10113 5213 2273 0
10113 -5213 0
10113 -2273 0
-10114 5214 2274 0
10114 -5214 0
10114 -2274 0
-10115 5215 2275 0
10115 -5215 0
10115 -2275 0
-10116 5216 2276 0
10116 -5216 0
10116 -2276 0
-10117 5217 2277 0
10117 -5217 0
10117 -2277 0
-10118 5218 2278 0
10118 -5218 0
10118 -2278 0
-10119 5219 2279 0
10119 -5219 0
10119 -2279 0
-10120 5220 2280 0
10120 -5220 0
10120 -2280 0
-10121 5221 2281 0
10121 -5221 0
10121 -2281 0
-10122 5222 2282 0
10122 -5222 0
10122 -2282 0
-10123 5223 2283 0
10123 -5223 0
10123 -2283 0
-10124 5224 2284 0
10124 -5224 0
10124 -2284 0
-10125 5225 2285 0
10125 -5225 0
10125 -2285 0
-10126 5226 2286 0
10126 -5226 0
10126 -2286 0
-10127 5227 2287 0
10127 -5227 0
10127 -2287 0
-10128 5228 2288 0
10128 -5228 0
10128 -2288 0
-10129 5229 2289 0
10129 -5229 0
10129 -2289 0
-10130 5230 2290 0
10130 -5230 0
10130 -2290 0
-10131 5231 2291 0
10131 -5231 0
10131 -2291 0
-10132 5232 2292 0
10132 -5232 0
10132 -2292 0
-10133 5233 2293 0
10133 -5233 0
10133 -2293 0
-10134 5234 2294 0
10134 -5234 0
10134 -2294 0
-10135 5235 2295 0
10135 -5235 0
10135 -2295 0
-10136 5236 2296 0
10136 -5236 0
10136 -2296 0
-10137 5237 2297 0
10137 -5237 0
10137 -2297 0
-10138 5238 2298 0
10138 -5238 0
10138 -2298 0
-10139 5239 2299 0
10139 -5239 0
10139 -2299 0
-10140 5240 2300 0
10140 -5240 0
10140 -2300 0
-10141 5241 2301 0
10141 -5241 0
10141 -2301 0
-10142 5242 2302 0
10142 -5242 0
10142 -2302 0
-10143 5243 2303 0
10143 -5243 0
10143 -2303 0
-10144 5244 2304 0
10144 -5244 0
10144 -2304 0
-10145 5245 2305 0
10145 -5245 0
10145 -2305 0
-10146 5246 2306 0
10146 -5246 0
10146 -2306 0
-10147 5247 2307 0
10147 -5247 0
10147 -2307 0
-10148 5248 2308 0
10148 -5248 0
10148 -2308 0
-10149 5249 2309 0
10149 -5249 0
10149 -2309 0
-10150 5250 2310 0
10150 -5250 0
10150 -2310 0
-10151 5251 2311 0
10151 -5251 0
10151 -2311 0
-10152 5252 2312 0
10152 -5252 0
10152 -2312 0
-10153 5253 2313 0
10153 -5253 0
10153 -2313 0
-10154 5254 2314 0
10154 -5254 0
10154 -2314 0
-10155 5255 2315 0
10155 -5255 0
10155 -2315 0
-10156 5256 2316 0
10156 -5256 0
10156 -2316 0
-10157 5257 2317 0
10157 -5257 0
10157 -2317 0
-10158 5258 2318 0
10158 -5258 0
10158 -2318 0
-10159 5259 2319 0
10159 -5259 0
10159 -2319 0
-10160 5260 2320 0
10160 -5260 0
10160 -2320 0
-10161 5261 2321 0
10161 -5261 0
10161 -2321 0
-10162 5262 2322 0
10162 -5262 0
10162 -2322 0
-10163 5263 2323 0
10163 -5263 0
10163 -2323 0
-10164 5264 2324 0
10164 -5264 0
10164 -2324 0
-10165 5265 2325 0
10165 -5265 0
10165 -2325 0
-10166 5266 2326 0
10166 -5266 0
10166 -2326 0
-10167 5267 2327 0
10167 -5267 0
10167 -2327 0
-10168 5268 2328 0
10168 -5268 0
10168 -2328 0
-10169 5269 2329 0
10169 -5269 0
10169 -2329 0
-10170 5270 2330 0
10170 -5270 0
10170 -2330 0
-10171 5271 2331 0
10171 -5271 0
10171 -2331 0
-10172 5272 2332 0
10172 -5272 0
10172 -2332 0
-10173 5273 2333 0
10173 -5273 0
10173 -2333 0
-10174 5274 2334 0
10174 -5274 0
10174 -2334 0
-10175 5275 2335 0
10175 -5275 0
10175 -2335 0
-10176 5276 2336 0
10176 -5276 0
10176 -2336 0
-10177 5277 2337 0
10177 -5277 0
10177 -2337 0
-10178 5278 2338 0
10178 -5278 0
10178 -2338 0
-10179 5279 2339 0
10179 -5279 0
10179 -2339 0
-10180 5280 2340 0
10180 -5280 0
10180 -2340 0
-10181 5281 2341 0
10181 -5281 0
10181 -2341 0
-10182 5282 2342 0
10182 -5282 0
10182 -2342 0
-10183 5283 2343 0
10183 -5283 0
10183 -2343 0
-10184 5284 2344 0
10184 -5284 0
10184 -2344 0
-10185 5285 2345 0
10185 -5285 0
10185 -2345 0
-10186 5286 2346 0
10186 -5286 0
10186 -2346 0
-10187 5287 2347 0
10187 -5287 0
10187 -2347 0
-10188 5288 2348 0
10188 -5288 0
10188 -2348 0
-10189 5289 2349 0
10189 -5289 0
10189 -2349 0
-10190 5290 2350 0
10190 -5290 0
10190 -2350 0
-10191 5291 2351 0
10191 -5291 0
10191 -2351 0
-10192 5292 2352 0
10192 -5292 0
10192 -2352 0
-10193 5293 2353 0
10193 -5293 0
10193 -2353 0
-10194 5294 2354 0
10194 -5294 0
10194 -2354 0
-10195 5295 2355 0
10195 -5295 0
10195 -2355 0
-10196 5296 2356 0
10196 -5296 0
10196 -2356 0
-10197 5297 2357 0
10197 -5297 0
10197 -2357 0
-10198 5298 2358 0
10198 -5298 0
10198 -2358 0
-10199 5299 2359 0
10199 -5299 0
10199 -2359 0
-10200 5300 2360 0
10200 -5300 0
10200 -2360 0
-10201 5301 2361 0
10201 -5301 0
10201 -2361 0
-10202 5302 2362 0
10202 -5302 0
10202 -2362 0
-10203 5303 2363 0
10203 -5303 0
10203 -2363 0
-10204 5304 2364 0
10204 -5304 0
10204 -2364 0
-10205 5305 2365 0
10205 -5305 0
10205 -2365 0
-10206 5306 2366 0
10206 -5306 0
10206 -2366 0
-10207 5307 2367 0
10207 -5307 0
10207 -2367 0
-10208 5308 2368 0
10208 -5308 0
10208 -2368 0
-10209 5309 2369 0
10209 -5309 0
10209 -2369 0
-10210 5310 2370 0
10210 -5310 0
10210 -2370 0
-10211 5311 2371 0
10211 -5311 0
10211 -2371 0
-10212 5312 2372 0
10212 -5312 0
10212 -2372 0
-10213 5313 2373 0
10213 -5313 0
10213 -2373 0
-10214 5314 2374 0
10214 -5314 0
10214 -2374 0
-10215 5315 2375 0
10215 -5315 0
10215 -2375 0
-10216 5316 2376 0
10216 -5316 0
10216 -2376 0
-10217 5317 2377 0
10217 -5317 0
10217 -2377 0
-10218 5318 2378 0
10218 -5318 0
10218 -2378 0
-10219 5319 2379 0
10219 -5319 0
10219 -2379 0
-10220 5320 2380 0
10220 -5320 0
10220 -2380 0
-10221 5321 2381 0
10221 -5321 0
10221 -2381 0
-10222 5322 2382 0
10222 -5322 0
10222 -2382 0
-10223 5323 2383 0
10223 -5323 0
10223 -2383 0
-10224 5324 2384 0
10224 -5324 0
10224 -2384 0
-10225 5325 2385 0
10225 -5325 0
10225 -2385 0
-10226 5326 2386 0
10226 -5326 0
10226 -2386 0
-10227 5327 2387 0
10227 -5327 0
10227 -2387 0
-10228 5328 2388 0
10228 -5328 0
10228 -2388 0
-10229 5329 2389 0
10229 -5329 0
10229 -2389 0
-10230 5330 2390 0
10230 -5330 0
10230 -2390 0
-10231 5331 2391 0
10231 -5331 0
10231 -2391 0
-10232 5332 2392 0
10232 -5332 0
10232 -2392 0
-10233 5333 2393 0
10233 -5333 0
10233 -2393 0
-10234 5334 2394 0
10234 -5334 0
10234 -2394 0
-10235 5335 2395 0
10235 -5335 0
10235 -2395 0
-10236 5336 2396 0
10236 -5336 0
10236 -2396 0
-10237 5337 2397 0
10237 -5337 0
10237 -2397 0
-10238 5338 2398 0
10238 -5338 0
10238 -2398 0
-10239 5339 2399 0
10239 -5339 0
10239 -2399 0
-10240 5340 2400 0
10240 -5340 0
10240 -2400 0
-10241 5341 2401 0
10241 -5341 0
10241 -2401 0
-10242 5342 2402 0
10242 -5342 0
10242 -2402 0
-10243 5343 2403 0
10243 -5343 0
10243 -2403 0
-10244 5344 2404 0
10244 -5344 0
10244 -2404 0
-10245 5345 2405 0
10245 -5345 0
10245 -2405 0
-10246 5346 2406 0
10246 -5346 0
10246 -2406 0
-10247 5347 2407 0
10247 -5347 0
10247 -2407 0
-10248 5348 2408 0
10248 -5348 0
10248 -2408 0
-10249 5349 2409 0
10249 -5349 0
10249 -2409 0
-10250 5350 2410 0
10250 -5350 0
10250 -2410 0
-10251 5351 2411 0
10251 -5351 0
10251 -2411 0
-10252 5352 2412 0
10252 -5352 0
10252 -2412 0
-10253 5353 2413 0
10253 -5353 0
10253 -2413 0
-10254 5354 2414 0
10254 -5354 0
10254 -2414 0
-10255 5355 2415 0
10255 -5355 0
10255 -2415 0
-10256 5356 2416 0
10256 -5356 0
10256 -2416 0
-10257 5357 2417 0
10257 -5357 0
10257 -2417 0
-10258 5358 2418 0
10258 -5358 0
10258 -2418 0
-10259 5359 2419 0
10259 -5359 0
10259 -2419 0
-10260 5360 2420 0
10260 -5360 0
10260 -2420 0
-10261 5361 2421 0
10261 -5361 0
10261 -2421 0
-10262 5362 2422 0
10262 -5362 0
10262 -2422 0
-10263 5363 2423 0
10263 -5363 0
10263 -2423 0
-10264 5364 2424 0
10264 -5364 0
10264 -2424 0
-10265 5365 2425 0
10265 -5365 0
10265 -2425 0
-10266 5366 2426 0
10266 -5366 0
10266 -2426 0
-10267 5367 2427 0
10267 -5367 0
10267 -2427 0
-10268 5368 2428 0
10268 -5368 0
10268 -2428 0
-10269 5369 2429 0
10269 -5369 0
10269 -2429 0
-10270 5370 2430 0
10270 -5370 0
10270 -2430 0
-10271 5371 2431 0
10271 -5371 0
10271 -2431 0
-10272 5372 2432 0
10272 -5372 0
10272 -2432 0
-10273 5373 2433 0
10273 -5373 0
10273 -2433 0
-10274 5374 2434 0
10274 -5374 0
10274 -2434 0
-10275 5375 2435 0
10275 -5375 0
10275 -2435 0
-10276 5376 2436 0
10276 -5376 0
10276 -2436 0
-10277 5377 2437 0
10277 -5377 0
10277 -2437 0
-10278 5378 2438 0
10278 -5378 0
10278 -2438 0
-10279 5379 2439 0
10279 -5379 0
10279 -2439 0
-10280 5380 2440 0
10280 -5380 0
10280 -2440 0
-10281 5381 2441 0
10281 -5381 0
10281 -2441 0
-10282 5382 2442 0
10282 -5382 0
10282 -2442 0
-10283 5383 2443 0
10283 -5383 0
10283 -2443 0
-10284 5384 2444 0
10284 -5384 0
10284 -2444 0
-10285 5385 2445 0
10285 -5385 0
10285 -2445 0
-10286 5386 2446 0
10286 -5386 0
10286 -2446 0
-10287 5387 2447 0
10287 -5387 0
10287 -2447 0
-10288 5388 2448 0
10288 -5388 0
10288 -2448 0
-10289 5389 2449 0
10289 -5389 0
10289 -2449 0
-10290 5390 2450 0
10290 -5390 0
10290 -2450 0
-10291 5391 2451 0
10291 -5391 0
10291 -2451 0
-10292 5392 2452 0
10292 -5392 0
10292 -2452 0
-10293 5393 2453 0
10293 -5393 0
10293 -2453 0
-10294 5394 2454 0
10294 -5394 0
10294 -2454 0
-10295 5395 2455 0
10295 -5395 0
10295 -2455 0
-10296 5396 2456 0
10296 -5396 0
10296 -2456 0
-10297 5397 2457 0
10297 -5397 0
10297 -2457 0
-10298 5398 2458 0
10298 -5398 0
10298 -2458 0
-10299 5399 2459 0
10299 -5399 0
10299 -2459 0
-10300 5400 2460 0
10300 -5400 0
10300 -2460 0
-10301 5401 2461 0
10301 -5401 0
10301 -2461 0
-10302 5402 2462 0
10302 -5402 0
10302 -2462 0
-10303 5403 2463 0
10303 -5403 0
10303 -2463 0
-10304 5404 2464 0
10304 -5404 0
10304 -2464 0
-10305 5405 2465 0
10305 -5405 0
10305 -2465 0
-10306 5406 2466 0
10306 -5406 0
10306 -2466 0
-10307 5407 2467 0
10307 -5407 0
10307 -2467 0
-10308 5408 2468 0
10308 -5408 0
10308 -2468 0
-10309 5409 2469 0
10309 -5409 0
10309 -2469 0
-10310 5410 2470 0
10310 -5410 0
10310 -2470 0
-10311 5411 2471 0
10311 -5411 0
10311 -2471 0
-10312 5412 2472 0
10312 -5412 0
10312 -2472 0
-10313 5413 2473 0
10313 -5413 0
10313 -2473 0
-10314 5414 2474 0
10314 -5414 0
10314 -2474 0
-10315 5415 2475 0
10315 -5415 0
10315 -2475 0
-10316 5416 2476 0
10316 -5416 0
10316 -2476 0
-10317 5417 2477 0
10317 -5417 0
10317 -2477 0
-10318 5418 2478 0
10318 -5418 0
10318 -2478 0
-10319 5419 2479 0
10319 -5419 0
10319 -2479 0
-10320 5420 2480 0
10320 -5420 0
10320 -2480 0
-10321 5421 2481 0
10321 -5421 0
10321 -2481 0
-10322 5422 2482 0
10322 -5422 0
10322 -2482 0
-10323 5423 2483 0
10323 -5423 0
10323 -2483 0
-10324 5424 2484 0
10324 -5424 0
10324 -2484 0
-10325 5425 2485 0
10325 -5425 0
10325 -2485 0
-10326 5426 2486 0
10326 -5426 0
10326 -2486 0
-10327 5427 2487 0
10327 -5427 0
10327 -2487 0
-10328 5428 2488 0
10328 -5428 0
10328 -2488 0
-10329 5429 2489 0
10329 -5429 0
10329 -2489 0
-10330 5430 2490 0
10330 -5430 0
10330 -2490 0
-10331 5431 2491 0
10331 -5431 0
10331 -2491 0
-10332 5432 2492 0
10332 -5432 0
10332 -2492 0
-10333 5433 2493 0
10333 -5433 0
10333 -2493 0
-10334 5434 2494 0
10334 -5434 0
10334 -2494 0
-10335 5435 2495 0
10335 -5435 0
10335 -2495 0
-10336 5436 2496 0
10336 -5436 0
10336 -2496 0
-10337 5437 2497 0
10337 -5437 0
10337 -2497 0
-10338 5438 2498 0
10338 -5438 0
10338 -2498 0
-10339 5439 2499 0
10339 -5439 0
10339 -2499 0
-10340 5440 2500 0
10340 -5440 0
10340 -2500 0
-10341 5441 2501 0
10341 -5441 0
10341 -2501 0
-10342 5442 2502 0
10342 -5442 0
10342 -2502 0
-10343 5443 2503 0
10343 -5443 0
10343 -2503 0
-10344 5444 2504 0
10344 -5444 0
10344 -2504 0
-10345 5445 2505 0
10345 -5445 0
10345 -2505 0
-10346 5446 2506 0
10346 -5446 0
10346 -2506 0
-10347 5447 2507 0
10347 -5447 0
10347 -2507 0
-10348 5448 2508 0
10348 -5448 0
10348 -2508 0
-10349 5449 2509 0
10349 -5449 0
10349 -2509 0
-10350 5450 2510 0
10350 -5450 0
10350 -2510 0
-10351 5451 2511 0
10351 -5451 0
10351 -2511 0
-10352 5452 2512 0
10352 -5452 0
10352 -2512 0
-10353 5453 2513 0
10353 -5453 0
10353 -2513 0
-10354 5454 2514 0
10354 -5454 0
10354 -2514 0
-10355 5455 2515 0
10355 -5455 0
10355 -2515 0
-10356 5456 2516 0
10356 -5456 0
10356 -2516 0
-10357 5457 2517 0
10357 -5457 0
10357 -2517 0
-10358 5458 2518 0
10358 -5458 0
10358 -2518 0
-10359 5459 2519 0
10359 -5459 0
10359 -2519 0
-10360 5460 2520 0
10360 -5460 0
10360 -2520 0
-10361 5461 2521 0
10361 -5461 0
10361 -2521 0
-10362 5462 2522 0
10362 -5462 0
10362 -2522 0
-10363 5463 2523 0
10363 -5463 0
10363 -2523 0
-10364 5464 2524 0
10364 -5464 0
10364 -2524 0
-10365 5465 2525 0
10365 -5465 0
10365 -2525 0
-10366 5466 2526 0
10366 -5466 0
10366 -2526 0
-10367 5467 2527 0
10367 -5467 0
10367 -2527 0
-10368 5468 2528 0
10368 -5468 0
10368 -2528 0
-10369 5469 2529 0
10369 -5469 0
10369 -2529 0
-10370 5470 2530 0
10370 -5470 0
10370 -2530 0
-10371 5471 2531 0
10371 -5471 0
10371 -2531 0
-10372 5472 2532 0
10372 -5472 0
10372 -2532 0
-10373 5473 2533 0
10373 -5473 0
10373 -2533 0
-10374 5474 2534 0
10374 -5474 0
10374 -2534 0
-10375 5475 2535 0
10375 -5475 0
10375 -2535 0
-10376 5476 2536 0
10376 -5476 0
10376 -2536 0
-10377 5477 2537 0
10377 -5477 0
10377 -2537 0
-10378 5478 2538 0
10378 -5478 0
10378 -2538 0
-10379 5479 2539 0
10379 -5479 0
10379 -2539 0
-10380 5480 2540 0
10380 -5480 0
10380 -2540 0
-10381 5481 2541 0
10381 -5481 0
10381 -2541 0
-10382 5482 2542 0
10382 -5482 0
10382 -2542 0
-10383 5483 2543 0
10383 -5483 0
10383 -2543 0
-10384 5484 2544 0
10384 -5484 0
10384 -2544 0
-10385 5485 2545 0
10385 -5485 0
10385 -2545 0
-10386 5486 2546 0
10386 -5486 0
10386 -2546 0
-10387 5487 2547 0
10387 -5487 0
10387 -2547 0
-10388 5488 2548 0
10388 -5488 0
10388 -2548 0
-10389 5489 2549 0
10389 -5489 0
10389 -2549 0
-10390 5490 2550 0
10390 -5490 0
10390 -2550 0
-10391 5491 2551 0
10391 -5491 0
10391 -2551 0
-10392 5492 2552 0
10392 -5492 0
10392 -2552 0
-10393 5493 2553 0
10393 -5493 0
10393 -2553 0
-10394 5494 2554 0
10394 -5494 0
10394 -2554 0
-10395 5495 2555 0
10395 -5495 0
10395 -2555 0
-10396 5496 2556 0
10396 -5496 0
10396 -2556 0
-10397 5497 2557 0
10397 -5497 0
10397 -2557 0
-10398 5498 2558 0
10398 -5498 0
10398 -2558 0
-10399 5499 2559 0
10399 -5499 0
10399 -2559 0
-10400 5500 2560 0
10400 -5500 0
10400 -2560 0
-10401 5501 2561 0
10401 -5501 0
10401 -2561 0
-10402 5502 2562 0
10402 -5502 0
10402 -2562 0
-10403 5503 2563 0
10403 -5503 0
10403 -2563 0
-10404 5504 2564 0
10404 -5504 0
10404 -2564 0
-10405 5505 2565 0
10405 -5505 0
10405 -2565 0
-10406 5506 2566 0
10406 -5506 0
10406 -2566 0
-10407 5507 2567 0
10407 -5507 0
10407 -2567 0
-10408 5508 2568 0
10408 -5508 0
10408 -2568 0
-10409 5509 2569 0
10409 -5509 0
10409 -2569 0
-10410 5510 2570 0
10410 -5510 0
10410 -2570 0
-10411 5511 2571 0
10411 -5511 0
10411 -2571 0
-10412 5512 2572 0
10412 -5512 0
10412 -2572 0
-10413 5513 2573 0
10413 -5513 0
10413 -2573 0
-10414 5514 2574 0
10414 -5514 0
10414 -2574 0
-10415 5515 2575 0
10415 -5515 0
10415 -2575 0
-10416 5516 2576 0
10416 -5516 0
10416 -2576 0
-10417 5517 2577 0
10417 -5517 0
10417 -2577 0
-10418 5518 2578 0
10418 -5518 0
10418 -2578 0
-10419 5519 2579 0
10419 -5519 0
10419 -2579 0
-10420 5520 2580 0
10420 -5520 0
10420 -2580 0
-10421 5521 2581 0
10421 -5521 0
10421 -2581 0
-10422 5522 2582 0
10422 -5522 0
10422 -2582 0
-10423 5523 2583 0
10423 -5523 0
10423 -2583 0
-10424 5524 2584 0
10424 -5524 0
10424 -2584 0
-10425 5525 2585 0
10425 -5525 0
10425 -2585 0
-10426 5526 2586 0
10426 -5526 0
10426 -2586 0
-10427 5527 2587 0
10427 -5527 0
10427 -2587 0
-10428 5528 2588 0
10428 -5528 0
10428 -2588 0
-10429 5529 2589 0
10429 -5529 0
10429 -2589 0
-10430 5530 2590 0
10430 -5530 0
10430 -2590 0
-10431 5531 2591 0
10431 -5531 0
10431 -2591 0
-10432 5532 2592 0
10432 -5532 0
10432 -2592 0
-10433 5533 2593 0
10433 -5533 0
10433 -2593 0
-10434 5534 2594 0
10434 -5534 0
10434 -2594 0
-10435 5535 2595 0
10435 -5535 0
10435 -2595 0
-10436 5536 2596 0
10436 -5536 0
10436 -2596 0
-10437 5537 2597 0
10437 -5537 0
10437 -2597 0
-10438 5538 2598 0
10438 -5538 0
10438 -2598 0
-10439 5539 2599 0
10439 -5539 0
10439 -2599 0
-10440 5540 2600 0
10440 -5540 0
10440 -2600 0
-10441 5541 2601 0
10441 -5541 0
10441 -2601 0
-10442 5542 2602 0
10442 -5542 0
10442 -2602 0
-10443 5543 2603 0
10443 -5543 0
10443 -2603 0
-10444 5544 2604 0
10444 -5544 0
10444 -2604 0
-10445 5545 2605 0
10445 -5545 0
10445 -2605 0
-10446 5546 2606 0
10446 -5546 0
10446 -2606 0
-10447 5547 2607 0
10447 -5547 0
10447 -2607 0
-10448 5548 2608 0
10448 -5548 0
10448 -2608 0
-10449 5549 2609 0
10449 -5549 0
10449 -2609 0
-10450 5550 2610 0
10450 -5550 0
10450 -2610 0
-10451 5551 2611 0
10451 -5551 0
10451 -2611 0
-10452 5552 2612 0
10452 -5552 0
10452 -2612 0
-10453 5553 2613 0
10453 -5553 0
10453 -2613 0
-10454 5554 2614 0
10454 -5554 0
10454 -2614 0
-10455 5555 2615 0
10455 -5555 0
10455 -2615 0
-10456 5556 2616 0
10456 -5556 0
10456 -2616 0
-10457 5557 2617 0
10457 -5557 0
10457 -2617 0
-10458 5558 2618 0
10458 -5558 0
10458 -2618 0
-10459 5559 2619 0
10459 -5559 0
10459 -2619 0
-10460 5560 2620 0
10460 -5560 0
10460 -2620 0
-10461 5561 2621 0
10461 -5561 0
10461 -2621 0
-10462 5562 2622 0
10462 -5562 0
10462 -2622 0
-10463 5563 2623 0
10463 -5563 0
10463 -2623 0
-10464 5564 2624 0
10464 -5564 0
10464 -2624 0
-10465 5565 2625 0
10465 -5565 0
10465 -2625 0
-10466 5566 2626 0
10466 -5566 0
10466 -2626 0
-10467 5567 2627 0
10467 -5567 0
10467 -2627 0
-10468 5568 2628 0
10468 -5568 0
10468 -2628 0
-10469 5569 2629 0
10469 -5569 0
10469 -2629 0
-10470 5570 2630 0
10470 -5570 0
10470 -2630 0
-10471 5571 2631 0
10471 -5571 0
10471 -2631 0
-10472 5572 2632 0
10472 -5572 0
10472 -2632 0
-10473 5573 2633 0
10473 -5573 0
10473 -2633 0
-10474 5574 2634 0
10474 -5574 0
10474 -2634 0
-10475 5575 2635 0
10475 -5575 0
10475 -2635 0
-10476 5576 2636 0
10476 -5576 0
10476 -2636 0
-10477 5577 2637 0
10477 -5577 0
10477 -2637 0
-10478 5578 2638 0
10478 -5578 0
10478 -2638 0
-10479 5579 2639 0
10479 -5579 0
10479 -2639 0
-10480 5580 2640 0
10480 -5580 0
10480 -2640 0
-10481 5581 2641 0
10481 -5581 0
10481 -2641 0
-10482 5582 2642 0
10482 -5582 0
10482 -2642 0
-10483 5583 2643 0
10483 -5583 0
10483 -2643 0
-10484 5584 2644 0
10484 -5584 0
10484 -2644 0
-10485 5585 2645 0
10485 -5585 0
10485 -2645 0
-10486 5586 2646 0
10486 -5586 0
10486 -2646 0
-10487 5587 2647 0
10487 -5587 0
10487 -2647 0
-10488 5588 2648 0
10488 -5588 0
10488 -2648 0
-10489 5589 2649 0
10489 -5589 0
10489 -2649 0
-10490 5590 2650 0
10490 -5590 0
10490 -2650 0
-10491 5591 2651 0
10491 -5591 0
10491 -2651 0
-10492 5592 2652 0
10492 -5592 0
10492 -2652 0
-10493 5593 2653 0
10493 -5593 0
10493 -2653 0
-10494 5594 2654 0
10494 -5594 0
10494 -2654 0
-10495 5595 2655 0
10495 -5595 0
10495 -2655 0
-10496 5596 2656 0
10496 -5596 0
10496 -2656 0
-10497 5597 2657 0
10497 -5597 0
10497 -2657 0
-10498 5598 2658 0
10498 -5598 0
10498 -2658 0
-10499 5599 2659 0
10499 -5599 0
10499 -2659 0
-10500 5600 2660 0
10500 -5600 0
10500 -2660 0
-10501 5601 2661 0
10501 -5601 0
10501 -2661 0
-10502 5602 2662 0
10502 -5602 0
10502 -2662 0
-10503 5603 2663 0
10503 -5603 0
10503 -2663 0
-10504 5604 2664 0
10504 -5604 0
10504 -2664 0
-10505 5605 2665 0
10505 -5605 0
10505 -2665 0
-10506 5606 2666 0
10506 -5606 0
10506 -2666 0
-10507 5607 2667 0
10507 -5607 0
10507 -2667 0
-10508 5608 2668 0
10508 -5608 0
10508 -2668 0
-10509 5609 2669 0
10509 -5609 0
10509 -2669 0
-10510 5610 2670 0
10510 -5610 0
10510 -2670 0
-10511 5611 2671 0
10511 -5611 0
10511 -2671 0
-10512 5612 2672 0
10512 -5612 0
10512 -2672 0
-10513 5613 2673 0
10513 -5613 0
10513 -2673 0
-10514 5614 2674 0
10514 -5614 0
10514 -2674 0
-10515 5615 2675 0
10515 -5615 0
10515 -2675 0
-10516 5616 2676 0
10516 -5616 0
10516 -2676 0
-10517 5617 2677 0
10517 -5617 0
10517 -2677 0
-10518 5618 2678 0
10518 -5618 0
10518 -2678 0
-10519 5619 2679 0
10519 -5619 0
10519 -2679 0
-10520 5620 2680 0
10520 -5620 0
10520 -2680 0
-10521 5621 2681 0
10521 -5621 0
10521 -2681 0
-10522 5622 2682 0
10522 -5622 0
10522 -2682 0
-10523 5623 2683 0
10523 -5623 0
10523 -2683 0
-10524 5624 2684 0
10524 -5624 0
10524 -2684 0
-10525 5625 2685 0
10525 -5625 0
10525 -2685 0
-10526 5626 2686 0
10526 -5626 0
10526 -2686 0
-10527 5627 2687 0
10527 -5627 0
10527 -2687 0
-10528 5628 2688 0
10528 -5628 0
10528 -2688 0
-10529 5629 2689 0
10529 -5629 0
10529 -2689 0
-10530 5630 2690 0
10530 -5630 0
10530 -2690 0
-10531 5631 2691 0
10531 -5631 0
10531 -2691 0
-10532 5632 2692 0
10532 -5632 0
10532 -2692 0
-10533 5633 2693 0
10533 -5633 0
10533 -2693 0
-10534 5634 2694 0
10534 -5634 0
10534 -2694 0
-10535 5635 2695 0
10535 -5635 0
10535 -2695 0
-10536 5636 2696 0
10536 -5636 0
10536 -2696 0
-10537 5637 2697 0
10537 -5637 0
10537 -2697 0
-10538 5638 2698 0
10538 -5638 0
10538 -2698 0
-10539 5639 2699 0
10539 -5639 0
10539 -2699 0
-10540 5640 2700 0
10540 -5640 0
10540 -2700 0
-10541 5641 2701 0
10541 -5641 0
10541 -2701 0
-10542 5642 2702 0
10542 -5642 0
10542 -2702 0
-10543 5643 2703 0
10543 -5643 0
10543 -2703 0
-10544 5644 2704 0
10544 -5644 0
10544 -2704 0
-10545 5645 2705 0
10545 -5645 0
10545 -2705 0
-10546 5646 2706 0
10546 -5646 0
10546 -2706 0
-10547 5647 2707 0
10547 -5647 0
10547 -2707 0
-10548 5648 2708 0
10548 -5648 0
10548 -2708 0
-10549 5649 2709 0
10549 -5649 0
10549 -2709 0
-10550 5650 2710 0
10550 -5650 0
10550 -2710 0
-10551 5651 2711 0
10551 -5651 0
10551 -2711 0
-10552 5652 2712 0
10552 -5652 0
10552 -2712 0
-10553 5653 2713 0
10553 -5653 0
10553 -2713 0
-10554 5654 2714 0
10554 -5654 0
10554 -2714 0
-10555 5655 2715 0
10555 -5655 0
10555 -2715 0
-10556 5656 2716 0
10556 -5656 0
10556 -2716 0
-10557 5657 2717 0
10557 -5657 0
10557 -2717 0
-10558 5658 2718 0
10558 -5658 0
10558 -2718 0
-10559 5659 2719 0
10559 -5659 0
10559 -2719 0
-10560 5660 2720 0
10560 -5660 0
10560 -2720 0
-10561 5661 2721 0
10561 -5661 0
10561 -2721 0
-10562 5662 2722 0
10562 -5662 0
10562 -2722 0
-10563 5663 2723 0
10563 -5663 0
10563 -2723 0
-10564 5664 2724 0
10564 -5664 0
10564 -2724 0
-10565 5665 2725 0
10565 -5665 0
10565 -2725 0
-10566 5666 2726 0
10566 -5666 0
10566 -2726 0
-10567 5667 2727 0
10567 -5667 0
10567 -2727 0
-10568 5668 2728 0
10568 -5668 0
10568 -2728 0
-10569 5669 2729 0
10569 -5669 0
10569 -2729 0
-10570 5670 2730 0
10570 -5670 0
10570 -2730 0
-10571 5671 2731 0
10571 -5671 0
10571 -2731 0
-10572 5672 2732 0
10572 -5672 0
10572 -2732 0
-10573 5673 2733 0
10573 -5673 0
10573 -2733 0
-10574 5674 2734 0
10574 -5674 0
10574 -2734 0
-10575 5675 2735 0
10575 -5675 0
10575 -2735 0
-10576 5676 2736 0
10576 -5676 0
10576 -2736 0
-10577 5677 2737 0
10577 -5677 0
10577 -2737 0
-10578 5678 2738 0
10578 -5678 0
10578 -2738 0
-10579 5679 2739 0
10579 -5679 0
10579 -2739 0
-10580 5680 2740 0
10580 -5680 0
10580 -2740 0
-10581 5681 2741 0
10581 -5681 0
10581 -2741 0
-10582 5682 2742 0
10582 -5682 0
10582 -2742 0
-10583 5683 2743 0
10583 -5683 0
10583 -2743 0
-10584 5684 2744 0
10584 -5684 0
10584 -2744 0
-10585 5685 2745 0
10585 -5685 0
10585 -2745 0
-10586 5686 2746 0
10586 -5686 0
10586 -2746 0
-10587 5687 2747 0
10587 -5687 0
10587 -2747 0
-10588 5688 2748 0
10588 -5688 0
10588 -2748 0
-10589 5689 2749 0
10589 -5689 0
10589 -2749 0
-10590 5690 2750 0
10590 -5690 0
10590 -2750 0
-10591 5691 2751 0
10591 -5691 0
10591 -2751 0
-10592 5692 2752 0
10592 -5692 0
10592 -2752 0
-10593 5693 2753 0
10593 -5693 0
10593 -2753 0
-10594 5694 2754 0
10594 -5694 0
10594 -2754 0
-10595 5695 2755 0
10595 -5695 0
10595 -2755 0
-10596 5696 2756 0
10596 -5696 0
10596 -2756 0
-10597 5697 2757 0
10597 -5697 0
10597 -2757 0
-10598 5698 2758 0
10598 -5698 0
10598 -2758 0
-10599 5699 2759 0
10599 -5699 0
10599 -2759 0
-10600 5700 2760 0
10600 -5700 0
10600 -2760 0
-10601 5701 2761 0
10601 -5701 0
10601 -2761 0
-10602 5702 2762 0
10602 -5702 0
10602 -2762 0
-10603 5703 2763 0
10603 -5703 0
10603 -2763 0
-10604 5704 2764 0
10604 -5704 0
10604 -2764 0
-10605 5705 2765 0
10605 -5705 0
10605 -2765 0
-10606 5706 2766 0
10606 -5706 0
10606 -2766 0
-10607 5707 2767 0
10607 -5707 0
10607 -2767 0
-10608 5708 2768 0
10608 -5708 0
10608 -2768 0
-10609 5709 2769 0
10609 -5709 0
10609 -2769 0
-10610 5710 2770 0
10610 -5710 0
10610 -2770 0
-10611 5711 2771 0
10611 -5711 0
10611 -2771 0
-10612 5712 2772 0
10612 -5712 0
10612 -2772 0
-10613 5713 2773 0
10613 -5713 0
10613 -2773 0
-10614 5714 2774 0
10614 -5714 0
10614 -2774 0
-10615 5715 2775 0
10615 -5715 0
10615 -2775 0
-10616 5716 2776 0
10616 -5716 0
10616 -2776 0
-10617 5717 2777 0
10617 -5717 0
10617 -2777 0
-10618 5718 2778 0
10618 -5718 0
10618 -2778 0
-10619 5719 2779 0
10619 -5719 0
10619 -2779 0
-10620 5720 2780 0
10620 -5720 0
10620 -2780 0
-10621 5721 2781 0
10621 -5721 0
10621 -2781 0
-10622 5722 2782 0
10622 -5722 0
10622 -2782 0
-10623 5723 2783 0
10623 -5723 0
10623 -2783 0
-10624 5724 2784 0
10624 -5724 0
10624 -2784 0
-10625 5725 2785 0
10625 -5725 0
10625 -2785 0
-10626 5726 2786 0
10626 -5726 0
10626 -2786 0
-10627 5727 2787 0
10627 -5727 0
10627 -2787 0
-10628 5728 2788 0
10628 -5728 0
10628 -2788 0
-10629 5729 2789 0
10629 -5729 0
10629 -2789 0
-10630 5730 2790 0
10630 -5730 0
10630 -2790 0
-10631 5731 2791 0
10631 -5731 0
10631 -2791 0
-10632 5732 2792 0
10632 -5732 0
10632 -2792 0
-10633 5733 2793 0
10633 -5733 0
10633 -2793 0
-10634 5734 2794 0
10634 -5734 0
10634 -2794 0
-10635 5735 2795 0
10635 -5735 0
10635 -2795 0
-10636 5736 2796 0
10636 -5736 0
10636 -2796 0
-10637 5737 2797 0
10637 -5737 0
10637 -2797 0
-10638 5738 2798 0
10638 -5738 0
10638 -2798 0
-10639 5739 2799 0
10639 -5739 0
10639 -2799 0
-10640 5740 2800 0
10640 -5740 0
10640 -2800 0
10781 10921 11061 11201 11341 11481 11621 0
-7841 1961 0
-7981 2101 0
-8121 2241 0
-8261 2381 0
-8401 2521 0
-8541 2661 0
-8961 5041 0
-9101 5181 0
-9241 5321 0
-9381 5461 0
-9521 5601 0
-9661 5741 0
-8961 -7981 0
-10921 8961 7981 0
10921 -8961 0
10921 -7981 0
-9101 -8121 0
-11061 9101 8121 0
11061 -9101 0
11061 -8121 0
-9241 -8261 0
-11201 9241 8261 0
11201 -9241 0
11201 -8261 0
-9381 -8401 0
-11341 9381 8401 0
11341 -9381 0
11341 -8401 0
-9521 -8541 0
-11481 9521 8541 0
11481 -9521 0
11481 -8541 0
-11621 9661 0
11621 -9661 0
-10781 7841 0
10781 -7841 0
10782 10922 11062 11202 11342 11482 11622 0
-7842 1962 0
-7982 2102 0
-8122 2242 0
-8262 2382 0
-8402 2522 0
-8542 2662 0
-8962 5042 0
-9102 5182 0
-9242 5322 0
-9382 5462 0
-9522 5602 0
-9662 5742 0
-8962 -7982 0
-10922 8962 7982 0
10922 -8962 0
10922 -7982 0
-9102 -8122 0
-11062 9102 8122 0
11062 -9102 0
11062 -8122 0
-9242 -8262 0
-11202 9242 8262 0
11202 -9242 0
11202 -8262 0
-9382 -8402 0
-11342 9382 8402 0
11342 -9382 0
11342 -8402 0
-9522 -8542 0
-11482 9522 8542 0
11482 -9522 0
11482 -8542 0
-11622 9662 0
11622 -9662 0
-10782 7842 0
10782 -7842 0
10783 10923 11063 11203 11343 11483 11623 0
-7843 1963 0
-7983 2103 0
-8123 2243 0
-8263 2383 0
-8403 2523 0
-8543 2663 0
-8963 5043 0
-9103 5183 0
-9243 5323 0
-9383 5463 0
-9523 5603 0
-9663 5743 0
-8963 -7983 0
-10923 8963 7983 0
10923 -8963 0
10923 -7983 0
-9103 -8123 0
-11063 9103 8123 0
11063 -9103 0
11063 -8123 0
-9243 -8263 0
-11203 9243 8263 0
11203 -9243 0
11203 -8263 0
-9383 -8403 0
-11343 9383 8403 0
11343 -9383 0
11343 -8403 0
-9523 -8543 0
-11483 9523 8543 0
11483 -9523 0
11483 -8543 0
-11623 9663 0
11623 -9663 0
-10783 7843 0
10783 -7843 0
10784 10924 11064 11204 11344 11484 11624 0
-7844 1964 0
-7984 2104 0
-8124 2244 0
-8264 2384 0
-8404 2524 0
-8544 2664 0
-8964 5044 0
-9104 5184 0
-9244 5324 0
-9384 5464 0
-9524 5604 0
-9664 5744 0
-8964 -7984 0
-10924 8964 7984 0
10924 -8964 0
10924 -7984 0
-9104 -8124 0
-11064 9104 8124 0
11064 -9104 0
11064 -8124 0
-9244 -8264 0
-11204 9244 8264 0
11204 -9244 0
11204 -8264 0
-9384 -8404 0
-11344 9384 8404 0
11344 -9384 0
11344 -8404 0
-9524 -8544 0
-11484 9524 8544 0
11484 -9524 0
11484 -8544 0
-11624 9664 0
11624 -9664 0
-10784 7844 0
10784 -7844 0
10785 10925 11065 11205 11345 11485 11625 0
-7845 1965 0
-7985 2105 0
-8125 2245 0
-8265 2385 0
-8405 2525 0
-8545 2665 0
-8965 5045 0
-9105 5185 0
-9245 5325 0
-9385 5465 0
-9525 5605 0
-9665 5745 0
-8965 -7985 0
-10925 8965 7985 0
10925 -8965 0
10925 -7985 0
-9105 -8125 0
-11065 9105 8125 0
11065 -9105 0
11065 -8125 0
-9245 -8265 0
-11205 9245 8265 0
11205 -9245 0
11205 -8265 0
-9385 -8405 0
-11345 9385 8405 0
11345 -9385 0
11345 -8405 0
-9525 -8545 0
-11485 9525 8545 0
11485 -9525 0
11485 -8545 0
-11625 9665 0
11625 -9665 0
-10785 7845 0
10785 -7845 0
10786 10926 11066 11206 11346 11486 11626 0
-7846 1966 0
-7986 2106 0
-8126 2246 0
-8266 2386 0
-8406 2526 0
-8546 2666 0
-8966 5046 0
-9106 5186 0
-9246 5326 0
-9386 5466 0
-9526 5606 0
-9666 5746 0
-8966 -7986 0
-10926 8966 7986 0
10926 -8966 0
10926 -7986 0
-9106 -8126 0
-11066 9106 8126 0
11066 -9106 0
11066 -8126 0
-9246 -8266 0
-11206 9246 8266 0
11206 -9246 0
11206 -8266 0
-9386 -8406 0
-11346 9386 8406 0
11346 -9386 0
11346 -8406 0
-9526 -8546 0
-11486 9526 8546 0
11486 -9526 0
11486 -8546 0
-11626 9666 0
11626 -9666 0
-10786 7846 0
10786 -7846 0
10787 10927 11067 11207 11347 11487 11627 0
-7847 1967 0
-7987 2107 0
-8127 2247 0
-8267 2387 0
-8407 2527 0
-8547 2667 0
-8967 5047 0
-9107 5187 0
-9247 5327 0
-9387 5467 0
-9527 5607 0
-9667 5747 0
-8967 -7987 0
-10927 8967 7987 0
10927 -8967 0
10927 -7987 0
-9107 -8127 0
-11067 9107 8127 0
11067 -9107 0
11067 -8127 0
-9247 -8267 0
-11207 9247 8267 0
11207 -9247 0
11207 -8267 0
-9387 -8407 0
-11347 9387 8407 0
11347 -9387 0
11347 -8407 0
-9527 -8547 0
-11487 9527 8547 0
11487 -9527 0
11487 -8547 0
-11627 9667 0
11627 -9667 0
-10787 7847 0
10787 -7847 0
10788 10928 11068 11208 11348 11488 11628 0
-7848 1968 0
-7988 2108 0
-8128 2248 0
-8268 2388 0
-8408 2528 0
-8548 2668 0
-8968 5048 0
-9108 5188 0
-9248 5328 0
-9388 5468 0
-9528 5608 0
-9668 5748 0
-8968 -7988 0
-10928 8968 7988 0
10928 -8968 0
10928 -7988 0
-9108 -8128 0
-11068 9108 8128 0
11068 -9108 0
11068 -8128 0
-9248 -8268 0
-11208 9248 8268 0
11208 -9248 0
11208 -8268 0
-9388 -8408 0
-11348 9388 8408 0
11348 -9388 0
11348 -8408 0
-9528 -8548 0
-11488 9528 8548 0
11488 -9528 0
11488 -8548 0
-11628 9668 0
11628 -9668 0
-10788 7848 0
10788 -7848 0
10789 10929 11069 11209 11349 11489 11629 0
-7849 1969 0
-7989 2109 0
-8129 2249 0
-8269 2389 0
-8409 2529 0
-8549 2669 0
-8969 5049 0
-9109 5189 0
-9249 5329 0
-9389 5469 0
-9529 5609 0
-9669 5749 0
-8969 -7989 0
-10929 8969 7989 0
10929 -8969 0
10929 -7989 0
-9109 -8129 0
-11069 9109 8129 0
11069 -9109 0
11069 -8129 0
-9249 -8269 0
-11209 9249 8269 0
11209 -9249 0
11209 -8269 0
-9389 -8409 0
-11349 9389 8409 0
11349 -9389 0
11349 -8409 0
-9529 -8549 0
-11489 9529 8549 0
11489 -9529 0
11489 -8549 0
-11629 9669 0
11629 -9669 0
-10789 7849 0
10789 -7849 0
10790 10930 11070 11210 11350 11490 11630 0
-7850 1970 0
-7990 2110 0
-8130 2250 0
-8270 2390 0
-8410 2530 0
-8550 2670 0
-8970 5050 0
-9110 5190 0
-9250 5330 0
-9390 5470 0
-9530 5610 0
-9670 5750 0
-8970 -7990 0
-10930 8970 7990 0
10930 -8970 0
10930 -7990 0
-9110 -8130 0
-11070 9110 8130 0
11070 -9110 0
11070 -8130 0
-9250 -8270 0
-11210 9250 8270 0
11210 -9250 0
11210 -8270 0
-9390 -8410 0
-11350 9390 8410 0
11350 -9390 0
11350 -8410 0
-9530 -8550 0
-11490 9530 8550 0
11490 -9530 0
11490 -8550 0
-11630 9670 0
11630 -9670 0
-10790 7850 0
10790 -7850 0
10791 10931 11071 11211 11351 11491 11631 0
-7851 1971 0
-7991 2111 0
-8131 2251 0
-8271 2391 0
-8411 2531 0
-8551 2671 0
-8971 5051 0
-9111 5191 0
-9251 5331 0
-9391 5471 0
-9531 5611 0
-9671 5751 0
-8971 -7991 0
-10931 8971 7991 0
10931 -8971 0
10931 -7991 0
-9111 -8131 0
-11071 9111 8131 0
11071 -9111 0
11071 -8131 0
-9251 -8271 0
-11211 9251 8271 0
11211 -9251 0
11211 -8271 0
-9391 -8411 0
-11351 9391 8411 0
11351 -9391 0
11351 -8411 0
-9531 -8551 0
-11491 9531 8551 0
11491 -9531 0
11491 -8551 0
-11631 9671 0
11631 -9671 0
-10791 7851 0
10791 -7851 0
10792 10932 11072 11212 11352 11492 11632 0
-7852 1972 0
-7992 2112 0
-8132 2252 0
-8272 2392 0
-8412 2532 0
-8552 2672 0
-8972 5052 0
-9112 5192 0
-9252 5332 0
-9392 5472 0
-9532 5612 0
-9672 5752 0
-8972 -7992 0
-10932 8972 7992 0
10932 -8972 0
10932 -7992 0
-9112 -8132 0
-11072 9112 8132 0
11072 -9112 0
11072 -8132 0
-9252 -8272 0
-11212 9252 8272 0
11212 -9252 0
11212 -8272 0
-9392 -8412 0
-11352 9392 8412 0
11352 -9392 0
11352 -8412 0
-9532 -8552 0
-11492 9532 8552 0
11492 -9532 0
11492 -8552 0
-11632 9672 0
11632 -9672 0
-10792 7852 0
10792 -7852 0
10793 10933 11073 11213 11353 11493 11633 0
-7853 1973 0
-7993 2113 0
-8133 2253 0
-8273 2393 0
-8413 2533 0
-8553 2673 0
-8973 5053 0
-9113 5193 0
-9253 5333 0
-9393 5473 0
-9533 5613 0
-9673 5753 0
-8973 -7993 0
-10933 8973 7993 0
10933 -8973 0
10933 -7993 0
-9113 -8133 0
-11073 9113 8133 0
11073 -9113 0
11073 -8133 0
-9253 -8273 0
-11213 9253 8273 0
11213 -9253 0
11213 -8273 0
-9393 -8413 0
-11353 9393 8413 0
11353 -9393 0
11353 -8413 0
-9533 -8553 0
-11493 9533 8553 0
11493 -9533 0
11493 -8553 0
-11633 9673 0
11633 -9673 0
-10793 7853 0
10793 -7853 0
10794 10934 11074 11214 11354 11494 11634 0
-7854 1974 0
-7994 2114 0
-8134 2254 0
-8274 2394 0
-8414 2534 0
-8554 2674 0
-8974 5054 0
-9114 5194 0
-9254 5334 0
-9394 5474 0
-9534 5614 0
-9674 5754 0
-8974 -7994 0
-10934 8974 7994 0
10934 -8974 0
10934 -7994 0
-9114 -8134 0
-11074 9114 8134 0
11074 -9114 0
11074 -8134 0
-9254 -8274 0
-11214 9254 8274 0
11214 -9254 0
11214 -8274 0
-9394 -8414 0
-11354 9394 8414 0
11354 -9394 0
11354 -8414 0
-9534 -8554 0
-11494 9534 8554 0
11494 -9534 0
11494 -8554 0
-11634 9674 0
11634 -9674 0
-10794 7854 0
10794 -7854 0
10795 10935 11075 11215 11355 11495 11635 0
-7855 1975 0
-7995 2115 0
-8135 2255 0
-8275 2395 0
-8415 2535 0
-8555 2675 0
-8975 5055 0
-9115 5195 0
-9255 5335 0
-9395 5475 0
-9535 5615 0
-9675 5755 0
-8975 -7995 0
-10935 8975 7995 0
10935 -8975 0
10935 -7995 0
-9115 -8135 0
-11075 9115 8135 0
11075 -9115 0
11075 -8135 0
-9255 -8275 0
-11215 9255 8275 0
11215 -9255 0
11215 -8275 0
-9395 -8415 0
-11355 9395 8415 0
11355 -9395 0
11355 -8415 0
-9535 -8555 0
-11495 9535 8555 0
11495 -9535 0
11495 -8555 0
-11635 9675 0
11635 -9675 0
-10795 7855 0
10795 -7855 0
10796 10936 11076 11216 11356 11496 11636 0
-7856 1976 0
-7996 2116 0
-8136 2256 0
-8276 2396 0
-8416 2536 0
-8556 2676 0
-8976 5056 0
-9116 5196 0
-9256 5336 0
-9396 5476 0
-9536 5616 0
-9676 5756 0
-8976 -7996 0
-10936 8976 7996 0
10936 -8976 0
10936 -7996 0
-9116 -8136 0
-11076 9116 8136 0
11076 -9116 0
11076 -8136 0
-9256 -8276 0
-11216 9256 8276 0
11216 -9256 0
11216 -8276 0
-9396 -8416 0
-11356 9396 8416 0
11356 -9396 0
11356 -8416 0
-9536 -8556 0
-11496 9536 8556 0
11496 -9536 0
11496 -8556 0
-11636 9676 0
11636 -9676 0
-10796 7856 0
10796 -7856 0
10797 10937 11077 11217 11357 11497 11637 0
-7857 1977 0
-7997 2117 0
-8137 2257 0
-8277 2397 0
-8417 2537 0
-8557 2677 0
-8977 5057 0
-9117 5197 0
-9257 5337 0
-9397 5477 0
-9537 5617 0
-9677 5757 0
-8977 -7997 0
-10937 8977 7997 0
10937 -8977 0
10937 -7997 0
-9117 -8137 0
-11077 9117 8137 0
11077 -9117 0
11077 -8137 0
-9257 -8277 0
-11217 9257 8277 0
11217 -9257 0
11217 -8277 0
-9397 -8417 0
-11357 9397 8417 0
11357 -9397 0
11357 -8417 0
-9537 -8557 0
-11497 9537 8557 0
11497 -9537 0
11497 -8557 0
-11637 9677 0
11637 -9677 0
-10797 7857 0
10797 -7857 0
10798 10938 11078 11218 11358 11498 11638 0
-7858 1978 0
-7998 2118 0
-8138 2258 0
-8278 2398 0
-8418 2538 0
-8558 2678 0
-8978 5058 0
-9118 5198 0
-9258 5338 0
-9398 5478 0
-9538 5618 0
-9678 5758 0
-8978 -7998 0
-10938 8978 7998 0
10938 -8978 0
10938 -7998 0
-9118 -8138 0
-11078 9118 8138 0
11078 -9118 0
11078 -8138 0
-9258 -8278 0
-11218 9258 8278 0
11218 -9258 0
11218 -8278 0
-9398 -8418 0
-11358 9398 8418 0
11358 -9398 0
11358 -8418 0
-9538 -8558 0
-11498 9538 8558 0
11498 -9538 0
11498 -8558 0
-11638 9678 0
11638 -9678 0
-10798 7858 0
10798 -7858 0
10799 10939 11079 11219 11359 11499 11639 0
-7859 1979 0
-7999 2119 0
-8139 2259 0
-8279 2399 0
-8419 2539 0
-8559 2679 0
-8979 5059 0
-9119 5199 0
-9259 5339 0
-9399 5479 0
-9539 5619 0
-9679 5759 0
-8979 -7999 0
-10939 8979 7999 0
10939 -8979 0
10939 -7999 0
-9119 -8139 0
-11079 9119 8139 0
11079 -9119 0
11079 -8139 0
-9259 -8279 0
-11219 9259 8279 0
11219 -9259 0
11219 -8279 0
-9399 -8419 0
-11359 9399 8419 0
11359 -9399 0
11359 -8419 0
-9539 -8559 0
-11499 9539 8559 0
11499 -9539 0
11499 -8559 0
-11639 9679 0
11639 -9679 0
-10799 7859 0
10799 -7859 0
10800 10940 11080 11220 11360 11500 11640 0
-7860 1980 0
-8000 2120 0
-8140 2260 0
-8280 2400 0
-8420 2540 0
-8560 2680 0
-8980 5060 0
-9120 5200 0
-9260 5340 0
-9400 5480 0
-9540 5620 0
-9680 5760 0
-8980 -8000 0
-10940 8980 8000 0
10940 -8980 0
10940 -8000 0
-9120 -8140 0
-11080 9120 8140 0
11080 -9120 0
11080 -8140 0
-9260 -8280 0
-11220 9260 8280 0
11220 -9260 0
11220 -8280 0
-9400 -8420 0
-11360 9400 8420 0
11360 -9400 0
11360 -8420 0
-9540 -8560 0
-11500 9540 8560 0
11500 -9540 0
11500 -8560 0
-11640 9680 0
11640 -9680 0
-10800 7860 0
10800 -7860 0
10801 10941 11081 11221 11361 11501 11641 0
-7861 1981 0
-8001 2121 0
-8141 2261 0
-8281 2401 0
-8421 2541 0
-8561 2681 0
-8981 5061 0
-9121 5201 0
-9261 5341 0
-9401 5481 0
-9541 5621 0
-9681 5761 0
-8981 -8001 0
-10941 8981 8001 0
10941 -8981 0
10941 -8001 0
-9121 -8141 0
-11081 9121 8141 0
11081 -9121 0
11081 -8141 0
-9261 -8281 0
-11221 9261 8281 0
11221 -9261 0
11221 -8281 0
-9401 -8421 0
-11361 9401 8421 0
11361 -9401 0
11361 -8421 0
-9541 -8561 0
-11501 9541 8561 0
11501 -9541 0
11501 -8561 0
-11641 9681 0
11641 -9681 0
-10801 7861 0
10801 -7861 0
10802 10942 11082 11222 11362 11502 11642 0
-7862 1982 0
-8002 2122 0
-8142 2262 0
-8282 2402 0
-8422 2542 0
-8562 2682 0
-8982 5062 0
-9122 5202 0
-9262 5342 0
-9402 5482 0
-9542 5622 0
-9682 5762 0
-8982 -8002 0
-10942 8982 8002 0
10942 -8982 0
10942 -8002 0
-9122 -8142 0
-11082 9122 8142 0
11082 -9122 0
11082 -8142 0
-9262 -8282 0
-11222 9262 8282 0
11222 -9262 0
11222 -8282 0
-9402 -8422 0
-11362 9402 8422 0
11362 -9402 0
11362 -8422 0
-9542 -8562 0
-11502 9542 8562 0
11502 -9542 0
11502 -8562 0
-11642 9682 0
11642 -9682 0
-10802 7862 0
10802 -7862 0
10803 10943 11083 11223 11363 11503 11643 0
-7863 1983 0
-8003 2123 0
-8143 2263 0
-8283 2403 0
-8423 2543 0
-8563 2683 0
-8983 5063 0
-9123 5203 0
-9263 5343 0
-9403 5483 0
-9543 5623 0
-9683 5763 0
-8983 -8003 0
-10943 8983 8003 0
10943 -8983 0
10943 -8003 0
-9123 -8143 0
-11083 9123 8143 0
11083 -9123 0
11083 -8143 0
-9263 -8283 0
-11223 9263 8283 0
11223 -9263 0
11223 -8283 0
-9403 -8423 0
-11363 9403 8423 0
11363 -9403 0
11363 -8423 0
-9543 -8563 0
-11503 9543 8563 0
11503 -9543 0
11503 -8563 0
-11643 9683 0
11643 -9683 0
-10803 7863 0
10803 -7863 0
10804 10944 11084 11224 11364 11504 11644 0
-7864 1984 0
-8004 2124 0
-8144 2264 0
-8284 2404 0
-8424 2544 0
-8564 2684 0
-8984 5064 0
-9124 5204 0
-9264 5344 0
-9404 5484 0
-9544 5624 0
-9684 5764 0
-8984 -8004 0
-10944 8984 8004 0
10944 -8984 0
10944 -8004 0
-9124 -8144 0
-11084 9124 8144 0
11084 -9124 0
11084 -8144 0
-9264 -8284 0
-11224 9264 8284 0
11224 -9264 0
11224 -8284 0
-9404 -8424 0
-11364 9404 8424 0
11364 -9404 0
11364 -8424 0
-9544 -8564 0
-11504 9544 8564 0
11504 -9544 0
11504 -8564 0
-11644 9684 0
11644 -9684 0
-10804 7864 0
10804 -7864 0
10805 10945 11085 11225 11365 11505 11645 0
-7865 1985 0
-8005 2125 0
-8145 2265 0
-8285 2405 0
-8425 2545 0
-8565 2685 0
-8985 5065 0
-9125 5205 0
-9265 5345 0
-9405 5485 0
-9545 5625 0
-9685 5765 0
-8985 -8005 0
-10945 8985 8005 0
10945 -8985 0
10945 -8005 0
-9125 -8145 0
-11085 9125 8145 0
11085 -9125 0
11085 -8145 0
-9265 -8285 0
-11225 9265 8285 0
11225 -9265 0
11225 -8285 0
-9405 -8425 0
-11365 9405 8425 0
11365 -9405 0
11365 -8425 0
-9545 -8565 0
-11505 9545 8565 0
11505 -9545 0
11505 -8565 0
-11645 9685 0
11645 -9685 0
-10805 7865 0
10805 -7865 0
10806 10946 11086 11226 11366 11506 11646 0
-7866 1986 0
-8006 2126 0
-8146 2266 0
-8286 2406 0
-8426 2546 0
-8566 2686 0
-8986 5066 0
-9126 5206 0
-9266 5346 0
-9406 5486 0
-9546 5626 0
-9686 5766 0
-8986 -8006 0
-10946 8986 8006 0
10946 -8986 0
10946 -8006 0
-9126 -8146 0
-11086 9126 8146 0
11086 -9126 0
11086 -8146 0
-9266 -8286 0
-11226 9266 8286 0
11226 -9266 0
11226 -8286 0
-9406 -8426 0
-11366 9406 8426 0
11366 -9406 0
11366 -8426 0
-9546 -8566 0
-11506 9546 8566 0
11506 -9546 0
11506 -8566 0
-11646 9686 0
11646 -9686 0
-10806 7866 0
10806 -7866 0
10807 10947 11087 11227 11367 11507 11647 0
-7867 1987 0
-8007 2127 0
-8147 2267 0
-8287 2407 0
-8427 2547 0
-8567 2687 0
-8987 5067 0
-9127 5207 0
-9267 5347 0
-9407 5487 0
-9547 5627 0
-9687 5767 0
-8987 -8007 0
-10947 8987 8007 0
10947 -8987 0
10947 -8007 0
-9127 -8147 0
-11087 9127 8147 0
11087 -9127 0
11087 -8147 0
-9267 -8287 0
-11227 9267 8287 0
11227 -9267 0
11227 -8287 0
-9407 -8427 0
-11367 9407 8427 0
11367 -9407 0
11367 -8427 0
-9547 -8567 0
-11507 9547 8567 0
11507 -9547 0
11507 -8567 0
-11647 9687 0
11647 -9687 0
-10807 7867 0
10807 -7867 0
10808 10948 11088 11228 11368 11508 11648 0
-7868 1988 0
-8008 2128 0
-8148 2268 0
-8288 2408 0
-8428 2548 0
-8568 2688 0
-8988 5068 0
-9128 5208 0
-9268 5348 0
-9408 5488 0
-9548 5628 0
-9688 5768 0
-8988 -8008 0
-10948 8988 8008 0
10948 -8988 0
10948 -8008 0
-9128 -8148 0
-11088 9128 8148 0
11088 -9128 0
11088 -8148 0
-9268 -8288 0
-11228 9268 8288 0
11228 -9268 0
11228 -8288 0
-9408 -8428 0
-11368 9408 8428 0
11368 -9408 0
11368 -8428 0
-9548 -8568 0
-11508 9548 8568 0
11508 -9548 0
11508 -8568 0
-11648 9688 0
11648 -9688 0
-10808 7868 0
10808 -7868 0
10809 10949 11089 11229 11369 11509 11649 0
-7869 1989 0
-8009 2129 0
-8149 2269 0
-8289 2409 0
-8429 2549 0
-8569 2689 0
-8989 5069 0
-9129 5209 0
-9269 5349 0
-9409 5489 0
-9549 5629 0
-9689 5769 0
-8989 -8009 0
-10949 8989 8009 0
10949 -8989 0
10949 -8009 0
-9129 -8149 0
-11089 9129 8149 0
11089 -9129 0
11089 -8149 0
-9269 -8289 0
-11229 9269 8289 0
11229 -9269 0
11229 -8289 0
-9409 -8429 0
-11369 9409 8429 0
11369 -9409 0
11369 -8429 0
-9549 -8569 0
-11509 9549 8569 0
11509 -9549 0
11509 -8569 0
-11649 9689 0
11649 -9689 0
-10809 7869 0
10809 -7869 0
10810 10950 11090 11230 11370 11510 11650 0
-7870 1990 0
-8010 2130 0
-8150 2270 0
-8290 2410 0
-8430 2550 0
-8570 2690 0
-8990 5070 0
-9130 5210 0
-9270 5350 0
-9410 5490 0
-9550 5630 0
-9690 5770 0
-8990 -8010 0
-10950 8990 8010 0
10950 -8990 0
10950 -8010 0
-9130 -8150 0
-11090 9130 8150 0
11090 -9130 0
11090 -8150 0
-9270 -8290 0
-11230 9270 8290 0
11230 -9270 0
11230 -8290 0
-9410 -8430 0
-11370 9410 8430 0
11370 -9410 0
11370 -8430 0
-9550 -8570 0
-11510 9550 8570 0
11510 -9550 0
11510 -8570 0
-11650 9690 0
11650 -9690 0
-10810 7870 0
10810 -7870 0
10811 10951 11091 11231 11371 11511 11651 0
-7871 1991 0
-8011 2131 0
-8151 2271 0
-8291 2411 0
-8431 2551 0
-8571 2691 0
-8991 5071 0
-9131 5211 0
-9271 5351 0
-9411 5491 0
-9551 5631 0
-9691 5771 0
-8991 -8011 0
-10951 8991 8011 0
10951 -8991 0
10951 -8011 0
-9131 -8151 0
-11091 9131 8151 0
11091 -9131 0
11091 -8151 0
-9271 -8291 0
-11231 9271 8291 0
11231 -9271 0
11231 -8291 0
-9411 -8431 0
-11371 9411 8431 0
11371 -9411 0
11371 -8431 0
-9551 -8571 0
-11511 9551 8571 0
11511 -9551 0
11511 -8571 0
-11651 9691 0
11651 -9691 0
-10811 7871 0
10811 -7871 0
10812 10952 11092 11232 11372 11512 11652 0
-7872 1992 0
-8012 2132 0
-8152 2272 0
-8292 2412 0
-8432 2552 0
-8572 2692 0
-8992 5072 0
-9132 5212 0
-9272 5352 0
-9412 5492 0
-9552 5632 0
-9692 5772 0
-8992 -8012 0
-10952 8992 8012 0
10952 -8992 0
10952 -8012 0
-9132 -8152 0
-11092 9132 8152 0
11092 -9132 0
11092 -8152 0
-9272 -8292 0
-11232 9272 8292 0
11232 -9272 0
11232 -8292 0
-9412 -8432 0
-11372 9412 8432 0
11372 -9412 0
11372 -8432 0
-9552 -8572 0
-11512 9552 8572 0
11512 -9552 0
11512 -8572 0
-11652 9692 0
11652 -9692 0
-10812 7872 0
10812 -7872 0
10813 10953 11093 11233 11373 11513 11653 0
-7873 1993 0
-8013 2133 0
-8153 2273 0
-8293 2413 0
-8433 2553 0
-8573 2693 0
-8993 5073 0
-9133 5213 0
-9273 5353 0
-9413 5493 0
-9553 5633 0
-9693 5773 0
-8993 -8013 0
-10953 8993 8013 0
10953 -8993 0
10953 -8013 0
-9133 -8153 0
-11093 9133 8153 0
11093 -9133 0
11093 -8153 0
-9273 -8293 0
-11233 9273 8293 0
11233 -9273 0
11233 -8293 0
-9413 -8433 0
-11373 9413 8433 0
11373 -9413 0
11373 -8433 0
-9553 -8573 0
-11513 9553 8573 0
11513 -9553 0
11513 -8573 0
-11653 9693 0
11653 -9693 0
-10813 7873 0
10813 -7873 0
10814 10954 11094 11234 11374 11514 11654 0
-7874 1994 0
-8014 2134 0
-8154 2274 0
-8294 2414 0
-8434 2554 0
-8574 2694 0
-8994 5074 0
-9134 5214 0
-9274 5354 0
-9414 5494 0
-9554 5634 0
-9694 5774 0
-8994 -8014 0
-10954 8994 8014 0
10954 -8994 0
10954 -8014 0
-9134 -8154 0
-11094 9134 8154 0
11094 -9134 0
11094 -8154 0
-9274 -8294 0
-11234 9274 8294 0
11234 -9274 0
11234 -8294 0
-9414 -8434 0
-11374 9414 8434 0
11374 -9414 0
11374 -8434 0
-9554 -8574 0
-11514 9554 8574 0
11514 -9554 0
11514 -8574 0
-11654 9694 0
11654 -9694 0
-10814 7874 0
10814 -7874 0
10815 10955 11095 11235 11375 11515 11655 0
-7875 1995 0
-8015 2135 0
-8155 2275 0
-8295 2415 0
-8435 2555 0
-8575 2695 0
-8995 5075 0
-9135 5215 0
-9275 5355 0
-9415 5495 0
-9555 5635 0
-9695 5775 0
-8995 -8015 0
-10955 8995 8015 0
10955 -8995 0
10955 -8015 0
-9135 -8155 0
-11095 9135 8155 0
11095 -9135 0
11095 -8155 0
-9275 -8295 0
-11235 9275 8295 0
11235 -9275 0
11235 -8295 0
-9415 -8435 0
-11375 9415 8435 0
11375 -9415 0
11375 -8435 0
-9555 -8575 0
-11515 9555 8575 0
11515 -9555 0
11515 -8575 0
-11655 9695 0
11655 -9695 0
-10815 7875 0
10815 -7875 0
10816 10956 11096 11236 11376 11516 11656 0
-7876 1996 0
-8016 2136 0
-8156 2276 0
-8296 2416 0
-8436 2556 0
-8576 2696 0
-8996 5076 0
-9136 5216 0
-9276 5356 0
-9416 5496 0
-9556 5636 0
-9696 5776 0
-8996 -8016 0
-10956 8996 8016 0
10956 -8996 0
10956 -8016 0
-9136 -8156 0
-11096 9136 8156 0
11096 -9136 0
11096 -8156 0
-9276 -8296 0
-11236 9276 8296 0
11236 -9276 0
11236 -8296 0
-9416 -8436 0
-11376 9416 8436 0
11376 -9416 0
11376 -8436 0
-9556 -8576 0
-11516 9556 8576 0
11516 -9556 0
11516 -8576 0
-11656 9696 0
11656 -9696 0
-10816 7876 0
10816 -7876 0
10817 10957 11097 11237 11377 11517 11657 0
-7877 1997 0
-8017 2137 0
-8157 2277 0
-8297 2417 0
-8437 2557 0
-8577 2697 0
-8997 5077 0
-9137 5217 0
-9277 5357 0
-9417 5497 0
-9557 5637 0
-9697 5777 0
-8997 -8017 0
-10957 8997 8017 0
10957 -8997 0
10957 -8017 0
-9137 -8157 0
-11097 9137 8157 0
11097 -9137 0
11097 -8157 0
-9277 -8297 0
-11237 9277 8297 0
11237 -9277 0
11237 -8297 0
-9417 -8437 0
-11377 9417 8437 0
11377 -9417 0
11377 -8437 0
-9557 -8577 0
-11517 9557 8577 0
11517 -9557 0
11517 -8577 0
-11657 9697 0
11657 -9697 0
-10817 7877 0
10817 -7877 0
10818 10958 11098 11238 11378 11518 11658 0
-7878 1998 0
-8018 2138 0
-8158 2278 0
-8298 2418 0
-8438 2558 0
-8578 2698 0
-8998 5078 0
-9138 5218 0
-9278 5358 0
-9418 5498 0
-9558 5638 0
-9698 5778 0
-8998 -8018 0
-10958 8998 8018 0
10958 -8998 0
10958 -8018 0
-9138 -8158 0
-11098 9138 8158 0
11098 -9138 0
11098 -8158 0
-9278 -8298 0
-11238 9278 8298 0
11238 -9278 0
11238 -8298 0
-9418 -8438 0
-11378 9418 8438 0
11378 -9418 0
11378 -8438 0
-9558 -8578 0
-11518 9558 8578 0
11518 -9558 0
11518 -8578 0
-11658 9698 0
11658 -9698 0
-10818 7878 0
10818 -7878 0
10819 10959 11099 11239 11379 11519 11659 0
-7879 1999 0
-8019 2139 0
-8159 2279 0
-8299 2419 0
-8439 2559 0
-8579 2699 0
-8999 5079 0
-9139 5219 0
-9279 5359 0
-9419 5499 0
-9559 5639 0
-9699 5779 0
-8999 -8019 0
-10959 8999 8019 0
10959 -8999 0
10959 -8019 0
-9139 -8159 0
-11099 9139 8159 0
11099 -9139 0
11099 -8159 0
-9279 -8299 0
-11239 9279 8299 0
11239 -9279 0
11239 -8299 0
-9419 -8439 0
-11379 9419 8439 0
11379 -9419 0
11379 -8439 0
-9559 -8579 0
-11519 9559 8579 0
11519 -9559 0
11519 -8579 0
-11659 9699 0
11659 -9699 0
-10819 7879 0
10819 -7879 0
10820 10960 11100 11240 11380 11520 11660 0
-7880 2000 0
-8020 2140 0
-8160 2280 0
-8300 2420 0
-8440 2560 0
-8580 2700 0
-9000 5080 0
-9140 5220 0
-9280 5360 0
-9420 5500 0
-9560 5640 0
-9700 5780 0
-9000 -8020 0
-10960 9000 8020 0
10960 -9000 0
10960 -8020 0
-9140 -8160 0
-11100 9140 8160 0
11100 -9140 0
11100 -8160 0
-9280 -8300 0
-11240 9280 8300 0
11240 -9280 0
11240 -8300 0
-9420 -8440 0
-11380 9420 8440 0
11380 -9420 0
11380 -8440 0
-9560 -8580 0
-11520 9560 8580 0
11520 -9560 0
11520 -8580 0
-11660 9700 0
11660 -9700 0
-10820 7880 0
10820 -7880 0
10821 10961 11101 11241 11381 11521 11661 0
-7881 2001 0
-8021 2141 0
-8161 2281 0
-8301 2421 0
-8441 2561 0
-8581 2701 0
-9001 5081 0
-9141 5221 0
-9281 5361 0
-9421 5501 0
-9561 5641 0
-9701 5781 0
-9001 -8021 0
-10961 9001 8021 0
10961 -9001 0
10961 -8021 0
-9141 -8161 0
-11101 9141 8161 0
11101 -9141 0
11101 -8161 0
-9281 -8301 0
-11241 9281 8301 0
11241 -9281 0
11241 -8301 0
-9421 -8441 0
-11381 9421 8441 0
11381 -9421 0
11381 -8441 0
-9561 -8581 0
-11521 9561 8581 0
11521 -9561 0
11521 -8581 0
-11661 9701 0
11661 -9701 0
-10821 7881 0
10821 -7881 0
10822 10962 11102 11242 11382 11522 11662 0
-7882 2002 0
-8022 2142 0
-8162 2282 0
-8302 2422 0
-8442 2562 0
-8582 2702 0
-9002 5082 0
-9142 5222 0
-9282 5362 0
-9422 5502 0
-9562 5642 0
-9702 5782 0
-9002 -8022 0
-10962 9002 8022 0
10962 -9002 0
10962 -8022 0
-9142 -8162 0
-11102 9142 8162 0
11102 -9142 0
11102 -8162 0
-9282 -8302 0
-11242 9282 8302 0
11242 -9282 0
11242 -8302 0
-9422 -8442 0
-11382 9422 8442 0
11382 -9422 0
11382 -8442 0
-9562 -8582 0
-11522 9562 8582 0
11522 -9562 0
11522 -8582 0
-11662 9702 0
11662 -9702 0
-10822 7882 0
10822 -7882 0
10823 10963 11103 11243 11383 11523 11663 0
-7883 2003 0
-8023 2143 0
-8163 2283 0
-8303 2423 0
-8443 2563 0
-8583 2703 0
-9003 5083 0
-9143 5223 0
-9283 5363 0
-9423 5503 0
-9563 5643 0
-9703 5783 0
-9003 -8023 0
-10963 9003 8023 0
10963 -9003 0
10963 -8023 0
-9143 -8163 0
-11103 9143 8163 0
11103 -9143 0
11103 -8163 0
-9283 -8303 0
-11243 9283 8303 0
11243 -9283 0
11243 -8303 0
-9423 -8443 0
-11383 9423 8443 0
11383 -9423 0
11383 -8443 0
-9563 -8583 0
-11523 9563 8583 0
11523 -9563 0
11523 -8583 0
-11663 9703 0
11663 -9703 0
-10823 7883 0
10823 -7883 0
10824 10964 11104 11244 11384 11524 11664 0
-7884 2004 0
-8024 2144 0
-8164 2284 0
-8304 2424 0
-8444 2564 0
-8584 2704 0
-9004 5084 0
-9144 5224 0
-9284 5364 0
-9424 5504 0
-9564 5644 0
-9704 5784 0
-9004 -8024 0
-10964 9004 8024 0
10964 -9004 0
10964 -8024 0
-9144 -8164 0
-11104 9144 8164 0
11104 -9144 0
11104 -8164 0
-9284 -8304 0
-11244 9284 8304 0
11244 -9284 0
11244 -8304 0
-9424 -8444 0
-11384 9424 8444 0
11384 -9424 0
11384 -8444 0
-9564 -8584 0
-11524 9564 8584 0
11524 -9564 0
11524 -8584 0
-11664 9704 0
11664 -9704 0
-10824 7884 0
10824 -7884 0
10825 10965 11105 11245 11385 11525 11665 0
-7885 2005 0
-8025 2145 0
-8165 2285 0
-8305 2425 0
-8445 2565 0
-8585 2705 0
-9005 5085 0
-9145 5225 0
-9285 5365 0
-9425 5505 0
-9565 5645 0
-9705 5785 0
-9005 -8025 0
-10965 9005 8025 0
10965 -9005 0
10965 -8025 0
-9145 -8165 0
-11105 9145 8165 0
11105 -9145 0
11105 -8165 0
-9285 -8305 0
-11245 9285 8305 0
11245 -9285 0
11245 -8305 0
-9425 -8445 0
-11385 9425 8445 0
11385 -9425 0
11385 -8445 0
-9565 -8585 0
-11525 9565 8585 0
11525 -9565 0
11525 -8585 0
-11665 9705 0
11665 -9705 0
-10825 7885 0
10825 -7885 0
10826 10966 11106 11246 11386 11526 11666 0
-7886 2006 0
-8026 2146 0
-8166 2286 0
-8306 2426 0
-8446 2566 0
-8586 2706 0
-9006 5086 0
-9146 5226 0
-9286 5366 0
-9426 5506 0
-9566 5646 0
-9706 5786 0
-9006 -8026 0
-10966 9006 8026 0
10966 -9006 0
10966 -8026 0
-9146 -8166 0
-11106 9146 8166 0
11106 -9146 0
11106 -8166 0
-9286 -8306 0
-11246 9286 8306 0
11246 -9286 0
11246 -8306 0
-9426 -8446 0
-11386 9426 8446 0
11386 -9426 0
11386 -8446 0
-9566 -8586 0
-11526 9566 8586 0
11526 -9566 0
11526 -8586 0
-11666 9706 0
11666 -9706 0
-10826 7886 0
10826 -7886 0
10827 10967 11107 11247 11387 11527 11667 0
-7887 2007 0
-8027 2147 0
-8167 2287 0
-8307 2427 0
-8447 2567 0
-8587 2707 0
-9007 5087 0
-9147 5227 0
-9287 5367 0
-9427 5507 0
-9567 5647 0
-9707 5787 0
-9007 -8027 0
-10967 9007 8027 0
10967 -9007 0
10967 -8027 0
-9147 -8167 0
-11107 9147 8167 0
11107 -9147 0
11107 -8167 0
-9287 -8307 0
-11247 9287 8307 0
11247 -9287 0
11247 -8307 0
-9427 -8447 0
-11387 9427 8447 0
11387 -9427 0
11387 -8447 0
-9567 -8587 0
-11527 9567 8587 0
11527 -9567 0
11527 -8587 0
-11667 9707 0
11667 -9707 0
-10827 7887 0
10827 -7887 0
10828 10968 11108 11248 11388 11528 11668 0
-7888 2008 0
-8028 2148 0
-8168 2288 0
-8308 2428 0
-8448 2568 0
-8588 2708 0
-9008 5088 0
-9148 5228 0
-9288 5368 0
-9428 5508 0
-9568 5648 0
-9708 5788 0
-9008 -8028 0
-10968 9008 8028 0
10968 -9008 0
10968 -8028 0
-9148 -8168 0
-11108 9148 8168 0
11108 -9148 0
11108 -8168 0
-9288 -8308 0
-11248 9288 8308 0
11248 -9288 0
11248 -8308 0
-9428 -8448 0
-11388 9428 8448 0
11388 -9428 0
11388 -8448 0
-9568 -8588 0
-11528 9568 8588 0
11528 -9568 0
11528 -8588 0
-11668 9708 0
11668 -9708 0
-10828 7888 0
10828 -7888 0
10829 10969 11109 11249 11389 11529 11669 0
-7889 2009 0
-8029 2149 0
-8169 2289 0
-8309 2429 0
-8449 2569 0
-8589 2709 0
-9009 5089 0
-9149 5229 0
-9289 5369 0
-9429 5509 0
-9569 5649 0
-9709 5789 0
-9009 -8029 0
-10969 9009 8029 0
10969 -9009 0
10969 -8029 0
-9149 -8169 0
-11109 9149 8169 0
11109 -9149 0
11109 -8169 0
-9289 -8309 0
-11249 9289 8309 0
11249 -9289 0
11249 -8309 0
-9429 -8449 0
-11389 9429 8449 0
11389 -9429 0
11389 -8449 0
-9569 -8589 0
-11529 9569 8589 0
11529 -9569 0
11529 -8589 0
-11669 9709 0
11669 -9709 0
-10829 7889 0
10829 -7889 0
10830 10970 11110 11250 11390 11530 11670 0
-7890 2010 0
-8030 2150 0
-8170 2290 0
-8310 2430 0
-8450 2570 0
-8590 2710 0
-9010 5090 0
-9150 5230 0
-9290 5370 0
-9430 5510 0
-9570 5650 0
-9710 5790 0
-9010 -8030 0
-10970 9010 8030 0
10970 -9010 0
10970 -8030 0
-9150 -8170 0
-11110 9150 8170 0
11110 -9150 0
11110 -8170 0
-9290 -8310 0
-11250 9290 8310 0
11250 -9290 0
11250 -8310 0
-9430 -8450 0
-11390 9430 8450 0
11390 -9430 0
11390 -8450 0
-9570 -8590 0
-11530 9570 8590 0
11530 -9570 0
11530 -8590 0
-11670 9710 0
11670 -9710 0
-10830 7890 0
10830 -7890 0
10831 10971 11111 11251 11391 11531 11671 0
-7891 2011 0
-8031 2151 0
-8171 2291 0
-8311 2431 0
-8451 2571 0
-8591 2711 0
-9011 5091 0
-9151 5231 0
-9291 5371 0
-9431 5511 0
-9571 5651 0
-9711 5791 0
-9011 -8031 0
-10971 9011 8031 0
10971 -9011 0
10971 -8031 0
-9151 -8171 0
-11111 9151 8171 0
11111 -9151 0
11111 -8171 0
-9291 -8311 0
-11251 9291 8311 0
11251 -9291 0
11251 -8311 0
-9431 -8451 0
-11391 9431 8451 0
11391 -9431 0
11391 -8451 0
-9571 -8591 0
-11531 9571 8591 0
11531 -9571 0
11531 -8591 0
-11671 9711 0
11671 -9711 0
-10831 7891 0
10831 -7891 0
10832 10972 11112 11252 11392 11532 11672 0
-7892 2012 0
-8032 2152 0
-8172 2292 0
-8312 2432 0
-8452 2572 0
-8592 2712 0
-9012 5092 0
-9152 5232 0
-9292 5372 0
-9432 5512 0
-9572 5652 0
-9712 5792 0
-9012 -8032 0
-10972 9012 8032 0
10972 -9012 0
10972 -8032 0
-9152 -8172 0
-11112 9152 8172 0
11112 -9152 0
11112 -8172 0
-9292 -8312 0
-11252 9292 8312 0
11252 -9292 0
11252 -8312 0
-9432 -8452 0
-11392 9432 8452 0
11392 -9432 0
11392 -8452 0
-9572 -8592 0
-11532 9572 8592 0
11532 -9572 0
11532 -8592 0
-11672 9712 0
11672 -9712 0
-10832 7892 0
10832 -7892 0
10833 10973 11113 11253 11393 11533 11673 0
-7893 2013 0
-8033 2153 0
-8173 2293 0
-8313 2433 0
-8453 2573 0
-8593 2713 0
-9013 5093 0
-9153 5233 0
-9293 5373 0
-9433 5513 0
-9573 5653 0
-9713 5793 0
-9013 -8033 0
-10973 9013 8033 0
10973 -9013 0
10973 -8033 0
-9153 -8173 0
-11113 9153 8173 0
11113 -9153 0
11113 -8173 0
-9293 -8313 0
-11253 9293 8313 0
11253 -9293 0
11253 -8313 0
-9433 -8453 0
-11393 9433 8453 0
11393 -9433 0
11393 -8453 0
-9573 -8593 0
-11533 9573 8593 0
11533 -9573 0
11533 -8593 0
-11673 9713 0
11673 -9713 0
-10833 7893 0
10833 -7893 0
10834 10974 11114 11254 11394 11534 11674 0
-7894 2014 0
-8034 2154 0
-8174 2294 0
-8314 2434 0
-8454 2574 0
-8594 2714 0
-9014 5094 0
-9154 5234 0
-9294 5374 0
-9434 5514 0
-9574 5654 0
-9714 5794 0
-9014 -8034 0
-10974 9014 8034 0
10974 -9014 0
10974 -8034 0
-9154 -8174 0
-11114 9154 8174 0
11114 -9154 0
11114 -8174 0
-9294 -8314 0
-11254 9294 8314 0
11254 -9294 0
11254 -8314 0
-9434 -8454 0
-11394 9434 8454 0
11394 -9434 0
11394 -8454 0
-9574 -8594 0
-11534 9574 8594 0
11534 -9574 0
11534 -8594 0
-11674 9714 0
11674 -9714 0
-10834 7894 0
10834 -7894 0
10835 10975 11115 11255 11395 11535 11675 0
-7895 2015 0
-8035 2155 0
-8175 2295 0
-8315 2435 0
-8455 2575 0
-8595 2715 0
-9015 5095 0
-9155 5235 0
-9295 5375 0
-9435 5515 0
-9575 5655 0
-9715 5795 0
-9015 -8035 0
-10975 9015 8035 0
10975 -9015 0
10975 -8035 0
-9155 -8175 0
-11115 9155 8175 0
11115 -9155 0
11115 -8175 0
-9295 -8315 0
-11255 9295 8315 0
11255 -9295 0
11255 -8315 0
-9435 -8455 0
-11395 9435 8455 0
11395 -9435 0
11395 -8455 0
-9575 -8595 0
-11535 9575 8595 0
11535 -9575 0
11535 -8595 0
-11675 9715 0
11675 -9715 0
-10835 7895 0
10835 -7895 0
10836 10976 11116 11256 11396 11536 11676 0
-7896 2016 0
-8036 2156 0
-8176 2296 0
-8316 2436 0
-8456 2576 0
-8596 2716 0
-9016 5096 0
-9156 5236 0
-9296 5376 0
-9436 5516 0
-9576 5656 0
-9716 5796 0
-9016 -8036 0
-10976 9016 8036 0
10976 -9016 0
10976 -8036 0
-9156 -8176 0
-11116 9156 8176 0
11116 -9156 0
11116 -8176 0
-9296 -8316 0
-11256 9296 8316 0
11256 -9296 0
11256 -8316 0
-9436 -8456 0
-11396 9436 8456 0
11396 -9436 0
11396 -8456 0
-9576 -8596 0
-11536 9576 8596 0
11536 -9576 0
11536 -8596 0
-11676 9716 0
11676 -9716 0
-10836 7896 0
10836 -7896 0
10837 10977 11117 11257 11397 11537 11677 0
-7897 2017 0
-8037 2157 0
-8177 2297 0
-8317 2437 0
-8457 2577 0
-8597 2717 0
-9017 5097 0
-9157 5237 0
-9297 5377 0
-9437 5517 0
-9577 5657 0
-9717 5797 0
-9017 -8037 0
-10977 9017 8037 0
10977 -9017 0
10977 -8037 0
-9157 -8177 0
-11117 9157 8177 0
11117 -9157 0
11117 -8177 0
-9297 -8317 0
-11257 9297 8317 0
11257 -9297 0
11257 -8317 0
-9437 -8457 0
-11397 9437 8457 0
11397 -9437 0
11397 -8457 0
-9577 -8597 0
-11537 9577 8597 0
11537 -9577 0
11537 -8597 0
-11677 9717 0
11677 -9717 0
-10837 7897 0
10837 -7897 0
10838 10978 11118 11258 11398 11538 11678 0
-7898 2018 0
-8038 2158 0
-8178 2298 0
-8318 2438 0
-8458 2578 0
-8598 2718 0
-9018 5098 0
-9158 5238 0
-9298 5378 0
-9438 5518 0
-9578 5658 0
-9718 5798 0
-9018 -8038 0
-10978 9018 8038 0
10978 -9018 0
10978 -8038 0
-9158 -8178 0
-11118 9158 8178 0
11118 -9158 0
11118 -8178 0
-9298 -8318 0
-11258 9298 8318 0
11258 -9298 0
11258 -8318 0
-9438 -8458 0
-11398 9438 8458 0
11398 -9438 0
11398 -8458 0
-9578 -8598 0
-11538 9578 8598 0
11538 -9578 0
11538 -8598 0
-11678 9718 0
11678 -9718 0
-10838 7898 0
10838 -7898 0
10839 10979 11119 11259 11399 11539 11679 0
-7899 2019 0
-8039 2159 0
-8179 2299 0
-8319 2439 0
-8459 2579 0
-8599 2719 0
-9019 5099 0
-9159 5239 0
-9299 5379 0
-9439 5519 0
-9579 5659 0
-9719 5799 0
-9019 -8039 0
-10979 9019 8039 0
10979 -9019 0
10979 -8039 0
-9159 -8179 0
-11119 9159 8179 0
11119 -9159 0
11119 -8179 0
-9299 -8319 0
-11259 9299 8319 0
11259 -9299 0
11259 -8319 0
-9439 -8459 0
-11399 9439 8459 0
11399 -9439 0
11399 -8459 0
-9579 -8599 0
-11539 9579 8599 0
11539 -9579 0
11539 -8599 0
-11679 9719 0
11679 -9719 0
-10839 7899 0
10839 -7899 0
10840 10980 11120 11260 11400 11540 11680 0
-7900 2020 0
-8040 2160 0
-8180 2300 0
-8320 2440 0
-8460 2580 0
-8600 2720 0
-9020 5100 0
-9160 5240 0
-9300 5380 0
-9440 5520 0
-9580 5660 0
-9720 5800 0
-9020 -8040 0
-10980 9020 8040 0
10980 -9020 0
10980 -8040 0
-9160 -8180 0
-11120 9160 8180 0
11120 -9160 0
11120 -8180 0
-9300 -8320 0
-11260 9300 8320 0
11260 -9300 0
11260 -8320 0
-9440 -8460 0
-11400 9440 8460 0
11400 -9440 0
11400 -8460 0
-9580 -8600 0
-11540 9580 8600 0
11540 -9580 0
11540 -8600 0
-11680 9720 0
11680 -9720 0
-10840 7900 0
10840 -7900 0
10841 10981 11121 11261 11401 11541 11681 0
-7901 2021 0
-8041 2161 0
-8181 2301 0
-8321 2441 0
-8461 2581 0
-8601 2721 0
-9021 5101 0
-9161 5241 0
-9301 5381 0
-9441 5521 0
-9581 5661 0
-9721 5801 0
-9021 -8041 0
-10981 9021 8041 0
10981 -9021 0
10981 -8041 0
-9161 -8181 0
-11121 9161 8181 0
11121 -9161 0
11121 -8181 0
-9301 -8321 0
-11261 9301 8321 0
11261 -9301 0
11261 -8321 0
-9441 -8461 0
-11401 9441 8461 0
11401 -9441 0
11401 -8461 0
-9581 -8601 0
-11541 9581 8601 0
11541 -9581 0
11541 -8601 0
-11681 9721 0
11681 -9721 0
-10841 7901 0
10841 -7901 0
10842 10982 11122 11262 11402 11542 11682 0
-7902 2022 0
-8042 2162 0
-8182 2302 0
-8322 2442 0
-8462 2582 0
-8602 2722 0
-9022 5102 0
-9162 5242 0
-9302 5382 0
-9442 5522 0
-9582 5662 0
-9722 5802 0
-9022 -8042 0
-10982 9022 8042 0
10982 -9022 0
10982 -8042 0
-9162 -8182 0
-11122 9162 8182 0
11122 -9162 0
11122 -8182 0
-9302 -8322 0
-11262 9302 8322 0
11262 -9302 0
11262 -8322 0
-9442 -8462 0
-11402 9442 8462 0
11402 -9442 0
11402 -8462 0
-9582 -8602 0
-11542 9582 8602 0
11542 -9582 0
11542 -8602 0
-11682 9722 0
11682 -9722 0
-10842 7902 0
10842 -7902 0
10843 10983 11123 11263 11403 11543 11683 0
-7903 2023 0
-8043 2163 0
-8183 2303 0
-8323 2443 0
-8463 2583 0
-8603 2723 0
-9023 5103 0
-9163 5243 0
-9303 5383 0
-9443 5523 0
-9583 5663 0
-9723 5803 0
-9023 -8043 0
-10983 9023 8043 0
10983 -9023 0
10983 -8043 0
-9163 -8183 0
-11123 9163 8183 0
11123 -9163 0
11123 -8183 0
-9303 -8323 0
-11263 9303 8323 0
11263 -9303 0
11263 -8323 0
-9443 -8463 0
-11403 9443 8463 0
11403 -9443 0
11403 -8463 0
-9583 -8603 0
-11543 9583 8603 0
11543 -9583 0
11543 -8603 0
-11683 9723 0
11683 -9723 0
-10843 7903 0
10843 -7903 0
10844 10984 11124 11264 11404 11544 11684 0
-7904 2024 0
-8044 2164 0
-8184 2304 0
-8324 2444 0
-8464 2584 0
-8604 2724 0
-9024 5104 0
-9164 5244 0
-9304 5384 0
-9444 5524 0
-9584 5664 0
-9724 5804 0
-9024 -8044 0
-10984 9024 8044 0
10984 -9024 0
10984 -8044 0
-9164 -8184 0
-11124 9164 8184 0
11124 -9164 0
11124 -8184 0
-9304 -8324 0
-11264 9304 8324 0
11264 -9304 0
11264 -8324 0
-9444 -8464 0
-11404 9444 8464 0
11404 -9444 0
11404 -8464 0
-9584 -8604 0
-11544 9584 8604 0
11544 -9584 0
11544 -8604 0
-11684 9724 0
11684 -9724 0
-10844 7904 0
10844 -7904 0
10845 10985 11125 11265 11405 11545 11685 0
-7905 2025 0
-8045 2165 0
-8185 2305 0
-8325 2445 0
-8465 2585 0
-8605 2725 0
-9025 5105 0
-9165 5245 0
-9305 5385 0
-9445 5525 0
-9585 5665 0
-9725 5805 0
-9025 -8045 0
-10985 9025 8045 0
10985 -9025 0
10985 -8045 0
-9165 -8185 0
-11125 9165 8185 0
11125 -9165 0
11125 -8185 0
-9305 -8325 0
-11265 9305 8325 0
11265 -9305 0
11265 -8325 0
-9445 -8465 0
-11405 9445 8465 0
11405 -9445 0
11405 -8465 0
-9585 -8605 0
-11545 9585 8605 0
11545 -9585 0
11545 -8605 0
-11685 9725 0
11685 -9725 0
-10845 7905 0
10845 -7905 0
10846 10986 11126 11266 11406 11546 11686 0
-7906 2026 0
-8046 2166 0
-8186 2306 0
-8326 2446 0
-8466 2586 0
-8606 2726 0
-9026 5106 0
-9166 5246 0
-9306 5386 0
-9446 5526 0
-9586 5666 0
-9726 5806 0
-9026 -8046 0
-10986 9026 8046 0
10986 -9026 0
10986 -8046 0
-9166 -8186 0
-11126 9166 8186 0
11126 -9166 0
11126 -8186 0
-9306 -8326 0
-11266 9306 8326 0
11266 -9306 0
11266 -8326 0
-9446 -8466 0
-11406 9446 8466 0
11406 -9446 0
11406 -8466 0
-9586 -8606 0
-11546 9586 8606 0
11546 -9586 0
11546 -8606 0
-11686 9726 0
11686 -9726 0
-10846 7906 0
10846 -7906 0
10847 10987 11127 11267 11407 11547 11687 0
-7907 2027 0
-8047 2167 0
-8187 2307 0
-8327 2447 0
-8467 2587 0
-8607 2727 0
-9027 5107 0
-9167 5247 0
-9307 5387 0
-9447 5527 0
-9587 5667 0
-9727 5807 0
-9027 -8047 0
-10987 9027 8047 0
10987 -9027 0
10987 -8047 0
-9167 -8187 0
-11127 9167 8187 0
11127 -9167 0
11127 -8187 0
-9307 -8327 0
-11267 9307 8327 0
11267 -9307 0
11267 -8327 0
-9447 -8467 0
-11407 9447 8467 0
11407 -9447 0
11407 -8467 0
-9587 -8607 0
-11547 9587 8607 0
11547 -9587 0
11547 -8607 0
-11687 9727 0
11687 -9727 0
-10847 7907 0
10847 -7907 0
10848 10988 11128 11268 11408 11548 11688 0
-7908 2028 0
-8048 2168 0
-8188 2308 0
-8328 2448 0
-8468 2588 0
-8608 2728 0
-9028 5108 0
-9168 5248 0
-9308 5388 0
-9448 5528 0
-9588 5668 0
-9728 5808 0
-9028 -8048 0
-10988 9028 8048 0
10988 -9028 0
10988 -8048 0
-9168 -8188 0
-11128 9168 8188 0
11128 -9168 0
11128 -8188 0
-9308 -8328 0
-11268 9308 8328 0
11268 -9308 0
11268 -8328 0
-9448 -8468 0
-11408 9448 8468 0
11408 -9448 0
11408 -8468 0
-9588 -8608 0
-11548 9588 8608 0
11548 -9588 0
11548 -8608 0
-11688 9728 0
11688 -9728 0
-10848 7908 0
10848 -7908 0
10849 10989 11129 11269 11409 11549 11689 0
-7909 2029 0
-8049 2169 0
-8189 2309 0
-8329 2449 0
-8469 2589 0
-8609 2729 0
-9029 5109 0
-9169 5249 0
-9309 5389 0
-9449 5529 0
-9589 5669 0
-9729 5809 0
-9029 -8049 0
-10989 9029 8049 0
10989 -9029 0
10989 -8049 0
-9169 -8189 0
-11129 9169 8189 0
11129 -9169 0
11129 -8189 0
-9309 -8329 0
-11269 9309 8329 0
11269 -9309 0
11269 -8329 0
-9449 -8469 0
-11409 9449 8469 0
11409 -9449 0
11409 -8469 0
-9589 -8609 0
-11549 9589 8609 0
11549 -9589 0
11549 -8609 0
-11689 9729 0
11689 -9729 0
-10849 7909 0
10849 -7909 0
10850 10990 11130 11270 11410 11550 11690 0
-7910 2030 0
-8050 2170 0
-8190 2310 0
-8330 2450 0
-8470 2590 0
-8610 2730 0
-9030 5110 0
-9170 5250 0
-9310 5390 0
-9450 5530 0
-9590 5670 0
-9730 5810 0
-9030 -8050 0
-10990 9030 8050 0
10990 -9030 0
10990 -8050 0
-9170 -8190 0
-11130 9170 8190 0
11130 -9170 0
11130 -8190 0
-9310 -8330 0
-11270 9310 8330 0
11270 -9310 0
11270 -8330 0
-9450 -8470 0
-11410 9450 8470 0
11410 -9450 0
11410 -8470 0
-9590 -8610 0
-11550 9590 8610 0
11550 -9590 0
11550 -8610 0
-11690 9730 0
11690 -9730 0
-10850 7910 0
10850 -7910 0
10851 10991 11131 11271 11411 11551 11691 0
-7911 2031 0
-8051 2171 0
-8191 2311 0
-8331 2451 0
-8471 2591 0
-8611 2731 0
-9031 5111 0
-9171 5251 0
-9311 5391 0
-9451 5531 0
-9591 5671 0
-9731 5811 0
-9031 -8051 0
-10991 9031 8051 0
10991 -9031 0
10991 -8051 0
-9171 -8191 0
-11131 9171 8191 0
11131 -9171 0
11131 -8191 0
-9311 -8331 0
-11271 9311 8331 0
11271 -9311 0
11271 -8331 0
-9451 -8471 0
-11411 9451 8471 0
11411 -9451 0
11411 -8471 0
-9591 -8611 0
-11551 9591 8611 0
11551 -9591 0
11551 -8611 0
-11691 9731 0
11691 -9731 0
-10851 7911 0
10851 -7911 0
10852 10992 11132 11272 11412 11552 11692 0
-7912 2032 0
-8052 2172 0
-8192 2312 0
-8332 2452 0
-8472 2592 0
-8612 2732 0
-9032 5112 0
-9172 5252 0
-9312 5392 0
-9452 5532 0
-9592 5672 0
-9732 5812 0
-9032 -8052 0
-10992 9032 8052 0
10992 -9032 0
10992 -8052 0
-9172 -8192 0
-11132 9172 8192 0
11132 -9172 0
11132 -8192 0
-9312 -8332 0
-11272 9312 8332 0
11272 -9312 0
11272 -8332 0
-9452 -8472 0
-11412 9452 8472 0
11412 -9452 0
11412 -8472 0
-9592 -8612 0
-11552 9592 8612 0
11552 -9592 0
11552 -8612 0
-11692 9732 0
11692 -9732 0
-10852 7912 0
10852 -7912 0
10853 10993 11133 11273 11413 11553 11693 0
-7913 2033 0
-8053 2173 0
-8193 2313 0
-8333 2453 0
-8473 2593 0
-8613 2733 0
-9033 5113 0
-9173 5253 0
-9313 5393 0
-9453 5533 0
-9593 5673 0
-9733 5813 0
-9033 -8053 0
-10993 9033 8053 0
10993 -9033 0
10993 -8053 0
-9173 -8193 0
-11133 9173 8193 0
11133 -9173 0
11133 -8193 0
-9313 -8333 0
-11273 9313 8333 0
11273 -9313 0
11273 -8333 0
-9453 -8473 0
-11413 9453 8473 0
11413 -9453 0
11413 -8473 0
-9593 -8613 0
-11553 9593 8613 0
11553 -9593 0
11553 -8613 0
-11693 9733 0
11693 -9733 0
-10853 7913 0
10853 -7913 0
10854 10994 11134 11274 11414 11554 11694 0
-7914 2034 0
-8054 2174 0
-8194 2314 0
-8334 2454 0
-8474 2594 0
-8614 2734 0
-9034 5114 0
-9174 5254 0
-9314 5394 0
-9454 5534 0
-9594 5674 0
-9734 5814 0
-9034 -8054 0
-10994 9034 8054 0
10994 -9034 0
10994 -8054 0
-9174 -8194 0
-11134 9174 8194 0
11134 -9174 0
11134 -8194 0
-9314 -8334 0
-11274 9314 8334 0
11274 -9314 0
11274 -8334 0
-9454 -8474 0
-11414 9454 8474 0
11414 -9454 0
11414 -8474 0
-9594 -8614 0
-11554 9594 8614 0
11554 -9594 0
11554 -8614 0
-11694 9734 0
11694 -9734 0
-10854 7914 0
10854 -7914 0
10855 10995 11135 11275 11415 11555 11695 0
-7915 2035 0
-8055 2175 0
-8195 2315 0
-8335 2455 0
-8475 2595 0
-8615 2735 0
-9035 5115 0
-9175 5255 0
-9315 5395 0
-9455 5535 0
-9595 5675 0
-9735 5815 0
-9035 -8055 0
-10995 9035 8055 0
10995 -9035 0
10995 -8055 0
-9175 -8195 0
-11135 9175 8195 0
11135 -9175 0
11135 -8195 0
-9315 -8335 0
-11275 9315 8335 0
11275 -9315 0
11275 -8335 0
-9455 -8475 0
-11415 9455 8475 0
11415 -9455 0
11415 -8475 0
-9595 -8615 0
-11555 9595 8615 0
11555 -9595 0
11555 -8615 0
-11695 9735 0
11695 -9735 0
-10855 7915 0
10855 -7915 0
10856 10996 11136 11276 11416 11556 11696 0
-7916 2036 0
-8056 2176 0
-8196 2316 0
-8336 2456 0
-8476 2596 0
-8616 2736 0
-9036 5116 0
-9176 5256 0
-9316 5396 0
-9456 5536 0
-9596 5676 0
-9736 5816 0
-9036 -8056 0
-10996 9036 8056 0
10996 -9036 0
10996 -8056 0
-9176 -8196 0
-11136 9176 8196 0
11136 -9176 0
11136 -8196 0
-9316 -8336 0
-11276 9316 8336 0
11276 -9316 0
11276 -8336 0
-9456 -8476 0
-11416 9456 8476 0
11416 -9456 0
11416 -8476 0
-9596 -8616 0
-11556 9596 8616 0
11556 -9596 0
11556 -8616 0
-11696 9736 0
11696 -9736 0
-10856 7916 0
10856 -7916 0
10857 10997 11137 11277 11417 11557 11697 0
-7917 2037 0
-8057 2177 0
-8197 2317 0
-8337 2457 0
-8477 2597 0
-8617 2737 0
-9037 5117 0
-9177 5257 0
-9317 5397 0
-9457 5537 0
-9597 5677 0
-9737 5817 0
-9037 -8057 0
-10997 9037 8057 0
10997 -9037 0
10997 -8057 0
-9177 -8197 0
-11137 9177 8197 0
11137 -9177 0
11137 -8197 0
-9317 -8337 0
-11277 9317 8337 0
11277 -9317 0
11277 -8337 0
-9457 -8477 0
-11417 9457 8477 0
11417 -9457 0
11417 -8477 0
-9597 -8617 0
-11557 9597 8617 0
11557 -9597 0
11557 -8617 0
-11697 9737 0
11697 -9737 0
-10857 7917 0
10857 -7917 0
10858 10998 11138 11278 11418 11558 11698 0
-7918 2038 0
-8058 2178 0
-8198 2318 0
-8338 2458 0
-8478 2598 0
-8618 2738 0
-9038 5118 0
-9178 5258 0
-9318 5398 0
-9458 5538 0
-9598 5678 0
-9738 5818 0
-9038 -8058 0
-10998 9038 8058 0
10998 -9038 0
10998 -8058 0
-9178 -8198 0
-11138 9178 8198 0
11138 -9178 0
11138 -8198 0
-9318 -8338 0
-11278 9318 8338 0
11278 -9318 0
11278 -8338 0
-9458 -8478 0
-11418 9458 8478 0
11418 -9458 0
11418 -8478 0
-9598 -8618 0
-11558 9598 8618 0
11558 -9598 0
11558 -8618 0
-11698 9738 0
11698 -9738 0
-10858 7918 0
10858 -7918 0
10859 10999 11139 11279 11419 11559 11699 0
-7919 2039 0
-8059 2179 0
-8199 2319 0
-8339 2459 0
-8479 2599 0
-8619 2739 0
-9039 5119 0
-9179 5259 0
-9319 5399 0
-9459 5539 0
-9599 5679 0
-9739 5819 0
-9039 -8059 0
-10999 9039 8059 0
10999 -9039 0
10999 -8059 0
-9179 -8199 0
-11139 9179 8199 0
11139 -9179 0
11139 -8199 0
-9319 -8339 0
-11279 9319 8339 0
11279 -9319 0
11279 -8339 0
-9459 -8479 0
-11419 9459 8479 0
11419 -9459 0
11419 -8479 0
-9599 -8619 0
-11559 9599 8619 0
11559 -9599 0
11559 -8619 0
-11699 9739 0
11699 -9739 0
-10859 7919 0
10859 -7919 0
10860 11000 11140 11280 11420 11560 11700 0
-7920 2040 0
-8060 2180 0
-8200 2320 0
-8340 2460 0
-8480 2600 0
-8620 2740 0
-9040 5120 0
-9180 5260 0
-9320 5400 0
-9460 5540 0
-9600 5680 0
-9740 5820 0
-9040 -8060 0
-11000 9040 8060 0
11000 -9040 0
11000 -8060 0
-9180 -8200 0
-11140 9180 8200 0
11140 -9180 0
11140 -8200 0
-9320 -8340 0
-11280 9320 8340 0
11280 -9320 0
11280 -8340 0
-9460 -8480 0
-11420 9460 8480 0
11420 -9460 0
11420 -8480 0
-9600 -8620 0
-11560 9600 8620 0
11560 -9600 0
11560 -8620 0
-11700 9740 0
11700 -9740 0
-10860 7920 0
10860 -7920 0
10861 11001 11141 11281 11421 11561 11701 0
-7921 2041 0
-8061 2181 0
-8201 2321 0
-8341 2461 0
-8481 2601 0
-8621 2741 0
-9041 5121 0
-9181 5261 0
-9321 5401 0
-9461 5541 0
-9601 5681 0
-9741 5821 0
-9041 -8061 0
-11001 9041 8061 0
11001 -9041 0
11001 -8061 0
-9181 -8201 0
-11141 9181 8201 0
11141 -9181 0
11141 -8201 0
-9321 -8341 0
-11281 9321 8341 0
11281 -9321 0
11281 -8341 0
-9461 -8481 0
-11421 9461 8481 0
11421 -9461 0
11421 -8481 0
-9601 -8621 0
-11561 9601 8621 0
11561 -9601 0
11561 -8621 0
-11701 9741 0
11701 -9741 0
-10861 7921 0
10861 -7921 0
10862 11002 11142 11282 11422 11562 11702 0
-7922 2042 0
-8062 2182 0
-8202 2322 0
-8342 2462 0
-8482 2602 0
-8622 2742 0
-9042 5122 0
-9182 5262 0
-9322 5402 0
-9462 5542 0
-9602 5682 0
-9742 5822 0
-9042 -8062 0
-11002 9042 8062 0
11002 -9042 0
11002 -8062 0
-9182 -8202 0
-11142 9182 8202 0
11142 -9182 0
11142 -8202 0
-9322 -8342 0
-11282 9322 8342 0
11282 -9322 0
11282 -8342 0
-9462 -8482 0
-11422 9462 8482 0
11422 -9462 0
11422 -8482 0
-9602 -8622 0
-11562 9602 8622 0
11562 -9602 0
11562 -8622 0
-11702 9742 0
11702 -9742 0
-10862 7922 0
10862 -7922 0
10863 11003 11143 11283 11423 11563 11703 0
-7923 2043 0
-8063 2183 0
-8203 2323 0
-8343 2463 0
-8483 2603 0
-8623 2743 0
-9043 5123 0
-9183 5263 0
-9323 5403 0
-9463 5543 0
-9603 5683 0
-9743 5823 0
-9043 -8063 0
-11003 9043 8063 0
11003 -9043 0
11003 -8063 0
-9183 -8203 0
-11143 9183 8203 0
11143 -9183 0
11143 -8203 0
-9323 -8343 0
-11283 9323 8343 0
11283 -9323 0
11283 -8343 0
-9463 -8483 0
-11423 9463 8483 0
11423 -9463 0
11423 -8483 0
-9603 -8623 0
-11563 9603 8623 0
11563 -9603 0
11563 -8623 0
-11703 9743 0
11703 -9743 0
-10863 7923 0
10863 -7923 0
10864 11004 11144 11284 11424 11564 11704 0
-7924 2044 0
-8064 2184 0
-8204 2324 0
-8344 2464 0
-8484 2604 0
-8624 2744 0
-9044 5124 0
-9184 5264 0
-9324 5404 0
-9464 5544 0
-9604 5684 0
-9744 5824 0
-9044 -8064 0
-11004 9044 8064 0
11004 -9044 0
11004 -8064 0
-9184 -8204 0
-11144 9184 8204 0
11144 -9184 0
11144 -8204 0
-9324 -8344 0
-11284 9324 8344 0
11284 -9324 0
11284 -8344 0
-9464 -8484 0
-11424 9464 8484 0
11424 -9464 0
11424 -8484 0
-9604 -8624 0
-11564 9604 8624 0
11564 -9604 0
11564 -8624 0
-11704 9744 0
11704 -9744 0
-10864 7924 0
10864 -7924 0
10865 11005 11145 11285 11425 11565 11705 0
-7925 2045 0
-8065 2185 0
-8205 2325 0
-8345 2465 0
-8485 2605 0
-8625 2745 0
-9045 5125 0
-9185 5265 0
-9325 5405 0
-9465 5545 0
-9605 5685 0
-9745 5825 0
-9045 -8065 0
-11005 9045 8065 0
11005 -9045 0
11005 -8065 0
-9185 -8205 0
-11145 9185 8205 0
11145 -9185 0
11145 -8205 0
-9325 -8345 0
-11285 9325 8345 0
11285 -9325 0
11285 -8345 0
-9465 -8485 0
-11425 9465 8485 0
11425 -9465 0
11425 -8485 0
-9605 -8625 0
-11565 9605 8625 0
11565 -9605 0
11565 -8625 0
-11705 9745 0
11705 -9745 0
-10865 7925 0
10865 -7925 0
10866 11006 11146 11286 11426 11566 11706 0
-7926 2046 0
-8066 2186 0
-8206 2326 0
-8346 2466 0
-8486 2606 0
-8626 2746 0
-9046 5126 0
-9186 5266 0
-9326 5406 0
-9466 5546 0
-9606 5686 0
-9746 5826 0
-9046 -8066 0
-11006 9046 8066 0
11006 -9046 0
11006 -8066 0
-9186 -8206 0
-11146 9186 8206 0
11146 -9186 0
11146 -8206 0
-9326 -8346 0
-11286 9326 8346 0
11286 -9326 0
11286 -8346 0
-9466 -8486 0
-11426 9466 8486 0
11426 -9466 0
11426 -8486 0
-9606 -8626 0
-11566 9606 8626 0
11566 -9606 0
11566 -8626 0
-11706 9746 0
11706 -9746 0
-10866 7926 0
10866 -7926 0
10867 11007 11147 11287 11427 11567 11707 0
-7927 2047 0
-8067 2187 0
-8207 2327 0
-8347 2467 0
-8487 2607 0
-8627 2747 0
-9047 5127 0
-9187 5267 0
-9327 5407 0
-9467 5547 0
-9607 5687 0
-9747 5827 0
-9047 -8067 0
-11007 9047 8067 0
11007 -9047 0
11007 -8067 0
-9187 -8207 0
-11147 9187 8207 0
11147 -9187 0
11147 -8207 0
-9327 -8347 0
-11287 9327 8347 0
11287 -9327 0
11287 -8347 0
-9467 -8487 0
-11427 9467 8487 0
11427 -9467 0
11427 -8487 0
-9607 -8627 0
-11567 9607 8627 0
11567 -9607 0
11567 -8627 0
-11707 9747 0
11707 -9747 0
-10867 7927 0
10867 -7927 0
10868 11008 11148 11288 11428 11568 11708 0
-7928 2048 0
-8068 2188 0
-8208 2328 0
-8348 2468 0
-8488 2608 0
-8628 2748 0
-9048 5128 0
-9188 5268 0
-9328 5408 0
-9468 5548 0
-9608 5688 0
-9748 5828 0
-9048 -8068 0
-11008 9048 8068 0
11008 -9048 0
11008 -8068 0
-9188 -8208 0
-11148 9188 8208 0
11148 -9188 0
11148 -8208 0
-9328 -8348 0
-11288 9328 8348 0
11288 -9328 0
11288 -8348 0
-9468 -8488 0
-11428 9468 8488 0
11428 -9468 0
11428 -8488 0
-9608 -8628 0
-11568 9608 8628 0
11568 -9608 0
11568 -8628 0
-11708 9748 0
11708 -9748 0
-10868 7928 0
10868 -7928 0
10869 11009 11149 11289 11429 11569 11709 0
-7929 2049 0
-8069 2189 0
-8209 2329 0
-8349 2469 0
-8489 2609 0
-8629 2749 0
-9049 5129 0
-9189 5269 0
-9329 5409 0
-9469 5549 0
-9609 5689 0
-9749 5829 0
-9049 -8069 0
-11009 9049 8069 0
11009 -9049 0
11009 -8069 0
-9189 -8209 0
-11149 9189 8209 0
11149 -9189 0
11149 -8209 0
-9329 -8349 0
-11289 9329 8349 0
11289 -9329 0
11289 -8349 0
-9469 -8489 0
-11429 9469 8489 0
11429 -9469 0
11429 -8489 0
-9609 -8629 0
-11569 9609 8629 0
11569 -9609 0
11569 -8629 0
-11709 9749 0
11709 -9749 0
-10869 7929 0
10869 -7929 0
10870 11010 11150 11290 11430 11570 11710 0
-7930 2050 0
-8070 2190 0
-8210 2330 0
-8350 2470 0
-8490 2610 0
-8630 2750 0
-9050 5130 0
-9190 5270 0
-9330 5410 0
-9470 5550 0
-9610 5690 0
-9750 5830 0
-9050 -8070 0
-11010 9050 8070 0
11010 -9050 0
11010 -8070 0
-9190 -8210 0
-11150 9190 8210 0
11150 -9190 0
11150 -8210 0
-9330 -8350 0
-11290 9330 8350 0
11290 -9330 0
11290 -8350 0
-9470 -8490 0
-11430 9470 8490 0
11430 -9470 0
11430 -8490 0
-9610 -8630 0
-11570 9610 8630 0
11570 -9610 0
11570 -8630 0
-11710 9750 0
11710 -9750 0
-10870 7930 0
10870 -7930 0
10871 11011 11151 11291 11431 11571 11711 0
-7931 2051 0
-8071 2191 0
-8211 2331 0
-8351 2471 0
-8491 2611 0
-8631 2751 0
-9051 5131 0
-9191 5271 0
-9331 5411 0
-9471 5551 0
-9611 5691 0
-9751 5831 0
-9051 -8071 0
-11011 9051 8071 0
11011 -9051 0
11011 -8071 0
-9191 -8211 0
-11151 9191 8211 0
11151 -9191 0
11151 -8211 0
-9331 -8351 0
-11291 9331 8351 0
11291 -9331 0
11291 -8351 0
-9471 -8491 0
-11431 9471 8491 0
11431 -9471 0
11431 -8491 0
-9611 -8631 0
-11571 9611 8631 0
11571 -9611 0
11571 -8631 0
-11711 9751 0
11711 -9751 0
-10871 7931 0
10871 -7931 0
10872 11012 11152 11292 11432 11572 11712 0
-7932 2052 0
-8072 2192 0
-8212 2332 0
-8352 2472 0
-8492 2612 0
-8632 2752 0
-9052 5132 0
-9192 5272 0
-9332 5412 0
-9472 5552 0
-9612 5692 0
-9752 5832 0
-9052 -8072 0
-11012 9052 8072 0
11012 -9052 0
11012 -8072 0
-9192 -8212 0
-11152 9192 8212 0
11152 -9192 0
11152 -8212 0
-9332 -8352 0
-11292 9332 8352 0
11292 -9332 0
11292 -8352 0
-9472 -8492 0
-11432 9472 8492 0
11432 -9472 0
11432 -8492 0
-9612 -8632 0
-11572 9612 8632 0
11572 -9612 0
11572 -8632 0
-11712 9752 0
11712 -9752 0
-10872 7932 0
10872 -7932 0
10873 11013 11153 11293 11433 11573 11713 0
-7933 2053 0
-8073 2193 0
-8213 2333 0
-8353 2473 0
-8493 2613 0
-8633 2753 0
-9053 5133 0
-9193 5273 0
-9333 5413 0
-9473 5553 0
-9613 5693 0
-9753 5833 0
-9053 -8073 0
-11013 9053 8073 0
11013 -9053 0
11013 -8073 0
-9193 -8213 0
-11153 9193 8213 0
11153 -9193 0
11153 -8213 0
-9333 -8353 0
-11293 9333 8353 0
11293 -9333 0
11293 -8353 0
-9473 -8493 0
-11433 9473 8493 0
11433 -9473 0
11433 -8493 0
-9613 -8633 0
-11573 9613 8633 0
11573 -9613 0
11573 -8633 0
-11713 9753 0
11713 -9753 0
-10873 7933 0
10873 -7933 0
10874 11014 11154 11294 11434 11574 11714 0
-7934 2054 0
-8074 2194 0
-8214 2334 0
-8354 2474 0
-8494 2614 0
-8634 2754 0
-9054 5134 0
-9194 5274 0
-9334 5414 0
-9474 5554 0
-9614 5694 0
-9754 5834 0
-9054 -8074 0
-11014 9054 8074 0
11014 -9054 0
11014 -8074 0
-9194 -8214 0
-11154 9194 8214 0
11154 -9194 0
11154 -8214 0
-9334 -8354 0
-11294 9334 8354 0
11294 -9334 0
11294 -8354 0
-9474 -8494 0
-11434 9474 8494 0
11434 -9474 0
11434 -8494 0
-9614 -8634 0
-11574 9614 8634 0
11574 -9614 0
11574 -8634 0
-11714 9754 0
11714 -9754 0
-10874 7934 0
10874 -7934 0
10875 11015 11155 11295 11435 11575 11715 0
-7935 2055 0
-8075 2195 0
-8215 2335 0
-8355 2475 0
-8495 2615 0
-8635 2755 0
-9055 5135 0
-9195 5275 0
-9335 5415 0
-9475 5555 0
-9615 5695 0
-9755 5835 0
-9055 -8075 0
-11015 9055 8075 0
11015 -9055 0
11015 -8075 0
-9195 -8215 0
-11155 9195 8215 0
11155 -9195 0
11155 -8215 0
-9335 -8355 0
-11295 9335 8355 0
11295 -9335 0
11295 -8355 0
-9475 -8495 0
-11435 9475 8495 0
11435 -9475 0
11435 -8495 0
-9615 -8635 0
-11575 9615 8635 0
11575 -9615 0
11575 -8635 0
-11715 9755 0
11715 -9755 0
-10875 7935 0
10875 -7935 0
10876 11016 11156 11296 11436 11576 11716 0
-7936 2056 0
-8076 2196 0
-8216 2336 0
-8356 2476 0
-8496 2616 0
-8636 2756 0
-9056 5136 0
-9196 5276 0
-9336 5416 0
-9476 5556 0
-9616 5696 0
-9756 5836 0
-9056 -8076 0
-11016 9056 8076 0
11016 -9056 0
11016 -8076 0
-9196 -8216 0
-11156 9196 8216 0
11156 -9196 0
11156 -8216 0
-9336 -8356 0
-11296 9336 8356 0
11296 -9336 0
11296 -8356 0
-9476 -8496 0
-11436 9476 8496 0
11436 -9476 0
11436 -8496 0
-9616 -8636 0
-11576 9616 8636 0
11576 -9616 0
11576 -8636 0
-11716 9756 0
11716 -9756 0
-10876 7936 0
10876 -7936 0
10877 11017 11157 11297 11437 11577 11717 0
-7937 2057 0
-8077 2197 0
-8217 2337 0
-8357 2477 0
-8497 2617 0
-8637 2757 0
-9057 5137 0
-9197 5277 0
-9337 5417 0
-9477 5557 0
-9617 5697 0
-9757 5837 0
-9057 -8077 0
-11017 9057 8077 0
11017 -9057 0
11017 -8077 0
-9197 -8217 0
-11157 9197 8217 0
11157 -9197 0
11157 -8217 0
-9337 -8357 0
-11297 9337 8357 0
11297 -9337 0
11297 -8357 0
-9477 -8497 0
-11437 9477 8497 0
11437 -9477 0
11437 -8497 0
-9617 -8637 0
-11577 9617 8637 0
11577 -9617 0
11577 -8637 0
-11717 9757 0
11717 -9757 0
-10877 7937 0
10877 -7937 0
10878 11018 11158 11298 11438 11578 11718 0
-7938 2058 0
-8078 2198 0
-8218 2338 0
-8358 2478 0
-8498 2618 0
-8638 2758 0
-9058 5138 0
-9198 5278 0
-9338 5418 0
-9478 5558 0
-9618 5698 0
-9758 5838 0
-9058 -8078 0
-11018 9058 8078 0
11018 -9058 0
11018 -8078 0
-9198 -8218 0
-11158 9198 8218 0
11158 -9198 0
11158 -8218 0
-9338 -8358 0
-11298 9338 8358 0
11298 -9338 0
11298 -8358 0
-9478 -8498 0
-11438 9478 8498 0
11438 -9478 0
11438 -8498 0
-9618 -8638 0
-11578 9618 8638 0
11578 -9618 0
11578 -8638 0
-11718 9758 0
11718 -9758 0
-10878 7938 0
10878 -7938 0
10879 11019 11159 11299 11439 11579 11719 0
-7939 2059 0
-8079 2199 0
-8219 2339 0
-8359 2479 0
-8499 2619 0
-8639 2759 0
-9059 5139 0
-9199 5279 0
-9339 5419 0
-9479 5559 0
-9619 5699 0
-9759 5839 0
-9059 -8079 0
-11019 9059 8079 0
11019 -9059 0
11019 -8079 0
-9199 -8219 0
-11159 9199 8219 0
11159 -9199 0
11159 -8219 0
-9339 -8359 0
-11299 9339 8359 0
11299 -9339 0
11299 -8359 0
-9479 -8499 0
-11439 9479 8499 0
11439 -9479 0
11439 -8499 0
-9619 -8639 0
-11579 9619 8639 0
11579 -9619 0
11579 -8639 0
-11719 9759 0
11719 -9759 0
-10879 7939 0
10879 -7939 0
10880 11020 11160 11300 11440 11580 11720 0
-7940 2060 0
-8080 2200 0
-8220 2340 0
-8360 2480 0
-8500 2620 0
-8640 2760 0
-9060 5140 0
-9200 5280 0
-9340 5420 0
-9480 5560 0
-9620 5700 0
-9760 5840 0
-9060 -8080 0
-11020 9060 8080 0
11020 -9060 0
11020 -8080 0
-9200 -8220 0
-11160 9200 8220 0
11160 -9200 0
11160 -8220 0
-9340 -8360 0
-11300 9340 8360 0
11300 -9340 0
11300 -8360 0
-9480 -8500 0
-11440 9480 8500 0
11440 -9480 0
11440 -8500 0
-9620 -8640 0
-11580 9620 8640 0
11580 -9620 0
11580 -8640 0
-11720 9760 0
11720 -9760 0
-10880 7940 0
10880 -7940 0
10881 11021 11161 11301 11441 11581 11721 0
-7941 2061 0
-8081 2201 0
-8221 2341 0
-8361 2481 0
-8501 2621 0
-8641 2761 0
-9061 5141 0
-9201 5281 0
-9341 5421 0
-9481 5561 0
-9621 5701 0
-9761 5841 0
-9061 -8081 0
-11021 9061 8081 0
11021 -9061 0
11021 -8081 0
-9201 -8221 0
-11161 9201 8221 0
11161 -9201 0
11161 -8221 0
-9341 -8361 0
-11301 9341 8361 0
11301 -9341 0
11301 -8361 0
-9481 -8501 0
-11441 9481 8501 0
11441 -9481 0
11441 -8501 0
-9621 -8641 0
-11581 9621 8641 0
11581 -9621 0
11581 -8641 0
-11721 9761 0
11721 -9761 0
-10881 7941 0
10881 -7941 0
10882 11022 11162 11302 11442 11582 11722 0
-7942 2062 0
-8082 2202 0
-8222 2342 0
-8362 2482 0
-8502 2622 0
-8642 2762 0
-9062 5142 0
-9202 5282 0
-9342 5422 0
-9482 5562 0
-9622 5702 0
-9762 5842 0
-9062 -8082 0
-11022 9062 8082 0
11022 -9062 0
11022 -8082 0
-9202 -8222 0
-11162 9202 8222 0
11162 -9202 0
11162 -8222 0
-9342 -8362 0
-11302 9342 8362 0
11302 -9342 0
11302 -8362 0
-9482 -8502 0
-11442 9482 8502 0
11442 -9482 0
11442 -8502 0
-9622 -8642 0
-11582 9622 8642 0
11582 -9622 0
11582 -8642 0
-11722 9762 0
11722 -9762 0
-10882 7942 0
10882 -7942 0
10883 11023 11163 11303 11443 11583 11723 0
-7943 2063 0
-8083 2203 0
-8223 2343 0
-8363 2483 0
-8503 2623 0
-8643 2763 0
-9063 5143 0
-9203 5283 0
-9343 5423 0
-9483 5563 0
-9623 5703 0
-9763 5843 0
-9063 -8083 0
-11023 9063 8083 0
11023 -9063 0
11023 -8083 0
-9203 -8223 0
-11163 9203 8223 0
11163 -9203 0
11163 -8223 0
-9343 -8363 0
-11303 9343 8363 0
11303 -9343 0
11303 -8363 0
-9483 -8503 0
-11443 9483 8503 0
11443 -9483 0
11443 -8503 0
-9623 -8643 0
-11583 9623 8643 0
11583 -9623 0
11583 -8643 0
-11723 9763 0
11723 -9763 0
-10883 7943 0
10883 -7943 0
10884 11024 11164 11304 11444 11584 11724 0
-7944 2064 0
-8084 2204 0
-8224 2344 0
-8364 2484 0
-8504 2624 0
-8644 2764 0
-9064 5144 0
-9204 5284 0
-9344 5424 0
-9484 5564 0
-9624 5704 0
-9764 5844 0
-9064 -8084 0
-11024 9064 8084 0
11024 -9064 0
11024 -8084 0
-9204 -8224 0
-11164 9204 8224 0
11164 -9204 0
11164 -8224 0
-9344 -8364 0
-11304 9344 8364 0
11304 -9344 0
11304 -8364 0
-9484 -8504 0
-11444 9484 8504 0
11444 -9484 0
11444 -8504 0
-9624 -8644 0
-11584 9624 8644 0
11584 -9624 0
11584 -8644 0
-11724 9764 0
11724 -9764 0
-10884 7944 0
10884 -7944 0
10885 11025 11165 11305 11445 11585 11725 0
-7945 2065 0
-8085 2205 0
-8225 2345 0
-8365 2485 0
-8505 2625 0
-8645 2765 0
-9065 5145 0
-9205 5285 0
-9345 5425 0
-9485 5565 0
-9625 5705 0
-9765 5845 0
-9065 -8085 0
-11025 9065 8085 0
11025 -9065 0
11025 -8085 0
-9205 -8225 0
-11165 9205 8225 0
11165 -9205 0
11165 -8225 0
-9345 -8365 0
-11305 9345 8365 0
11305 -9345 0
11305 -8365 0
-9485 -8505 0
-11445 9485 8505 0
11445 -9485 0
11445 -8505 0
-9625 -8645 0
-11585 9625 8645 0
11585 -9625 0
11585 -8645 0
-11725 9765 0
11725 -9765 0
-10885 7945 0
10885 -7945 0
10886 11026 11166 11306 11446 11586 11726 0
-7946 2066 0
-8086 2206 0
-8226 2346 0
-8366 2486 0
-8506 2626 0
-8646 2766 0
-9066 5146 0
-9206 5286 0
-9346 5426 0
-9486 5566 0
-9626 5706 0
-9766 5846 0
-9066 -8086 0
-11026 9066 8086 0
11026 -9066 0
11026 -8086 0
-9206 -8226 0
-11166 9206 8226 0
11166 -9206 0
11166 -8226 0
-9346 -8366 0
-11306 9346 8366 0
11306 -9346 0
11306 -8366 0
-9486 -8506 0
-11446 9486 8506 0
11446 -9486 0
11446 -8506 0
-9626 -8646 0
-11586 9626 8646 0
11586 -9626 0
11586 -8646 0
-11726 9766 0
11726 -9766 0
-10886 7946 0
10886 -7946 0
10887 11027 11167 11307 11447 11587 11727 0
-7947 2067 0
-8087 2207 0
-8227 2347 0
-8367 2487 0
-8507 2627 0
-8647 2767 0
-9067 5147 0
-9207 5287 0
-9347 5427 0
-9487 5567 0
-9627 5707 0
-9767 5847 0
-9067 -8087 0
-11027 9067 8087 0
11027 -9067 0
11027 -8087 0
-9207 -8227 0
-11167 9207 8227 0
11167 -9207 0
11167 -8227 0
-9347 -8367 0
-11307 9347 8367 0
11307 -9347 0
11307 -8367 0
-9487 -8507 0
-11447 9487 8507 0
11447 -9487 0
11447 -8507 0
-9627 -8647 0
-11587 9627 8647 0
11587 -9627 0
11587 -8647 0
-11727 9767 0
11727 -9767 0
-10887 7947 0
10887 -7947 0
10888 11028 11168 11308 11448 11588 11728 0
-7948 2068 0
-8088 2208 0
-8228 2348 0
-8368 2488 0
-8508 2628 0
-8648 2768 0
-9068 5148 0
-9208 5288 0
-9348 5428 0
-9488 5568 0
-9628 5708 0
-9768 5848 0
-9068 -8088 0
-11028 9068 8088 0
11028 -9068 0
11028 -8088 0
-9208 -8228 0
-11168 9208 8228 0
11168 -9208 0
11168 -8228 0
-9348 -8368 0
-11308 9348 8368 0
11308 -9348 0
11308 -8368 0
-9488 -8508 0
-11448 9488 8508 0
11448 -9488 0
11448 -8508 0
-9628 -8648 0
-11588 9628 8648 0
11588 -9628 0
11588 -8648 0
-11728 9768 0
11728 -9768 0
-10888 7948 0
10888 -7948 0
10889 11029 11169 11309 11449 11589 11729 0
-7949 2069 0
-8089 2209 0
-8229 2349 0
-8369 2489 0
-8509 2629 0
-8649 2769 0
-9069 5149 0
-9209 5289 0
-9349 5429 0
-9489 5569 0
-9629 5709 0
-9769 5849 0
-9069 -8089 0
-11029 9069 8089 0
11029 -9069 0
11029 -8089 0
-9209 -8229 0
-11169 9209 8229 0
11169 -9209 0
11169 -8229 0
-9349 -8369 0
-11309 9349 8369 0
11309 -9349 0
11309 -8369 0
-9489 -8509 0
-11449 9489 8509 0
11449 -9489 0
11449 -8509 0
-9629 -8649 0
-11589 9629 8649 0
11589 -9629 0
11589 -8649 0
-11729 9769 0
11729 -9769 0
-10889 7949 0
10889 -7949 0
10890 11030 11170 11310 11450 11590 11730 0
-7950 2070 0
-8090 2210 0
-8230 2350 0
-8370 2490 0
-8510 2630 0
-8650 2770 0
-9070 5150 0
-9210 5290 0
-9350 5430 0
-9490 5570 0
-9630 5710 0
-9770 5850 0
-9070 -8090 0
-11030 9070 8090 0
11030 -9070 0
11030 -8090 0
-9210 -8230 0
-11170 9210 8230 0
11170 -9210 0
11170 -8230 0
-9350 -8370 0
-11310 9350 8370 0
11310 -9350 0
11310 -8370 0
-9490 -8510 0
-11450 9490 8510 0
11450 -9490 0
11450 -8510 0
-9630 -8650 0
-11590 9630 8650 0
11590 -9630 0
11590 -8650 0
-11730 9770 0
11730 -9770 0
-10890 7950 0
10890 -7950 0
10891 11031 11171 11311 11451 11591 11731 0
-7951 2071 0
-8091 2211 0
-8231 2351 0
-8371 2491 0
-8511 2631 0
-8651 2771 0
-9071 5151 0
-9211 5291 0
-9351 5431 0
-9491 5571 0
-9631 5711 0
-9771 5851 0
-9071 -8091 0
-11031 9071 8091 0
11031 -9071 0
11031 -8091 0
-9211 -8231 0
-11171 9211 8231 0
11171 -9211 0
11171 -8231 0
-9351 -8371 0
-11311 9351 8371 0
11311 -9351 0
11311 -8371 0
-9491 -8511 0
-11451 9491 8511 0
11451 -9491 0
11451 -8511 0
-9631 -8651 0
-11591 9631 8651 0
11591 -9631 0
11591 -8651 0
-11731 9771 0
11731 -9771 0
-10891 7951 0
10891 -7951 0
10892 11032 11172 11312 11452 11592 11732 0
-7952 2072 0
-8092 2212 0
-8232 2352 0
-8372 2492 0
-8512 2632 0
-8652 2772 0
-9072 5152 0
-9212 5292 0
-9352 5432 0
-9492 5572 0
-9632 5712 0
-9772 5852 0
-9072 -8092 0
-11032 9072 8092 0
11032 -9072 0
11032 -8092 0
-9212 -8232 0
-11172 9212 8232 0
11172 -9212 0
11172 -8232 0
-9352 -8372 0
-11312 9352 8372 0
11312 -9352 0
11312 -8372 0
-9492 -8512 0
-11452 9492 8512 0
11452 -9492 0
11452 -8512 0
-9632 -8652 0
-11592 9632 8652 0
11592 -9632 0
11592 -8652 0
-11732 9772 0
11732 -9772 0
-10892 7952 0
10892 -7952 0
10893 11033 11173 11313 11453 11593 11733 0
-7953 2073 0
-8093 2213 0
-8233 2353 0
-8373 2493 0
-8513 2633 0
-8653 2773 0
-9073 5153 0
-9213 5293 0
-9353 5433 0
-9493 5573 0
-9633 5713 0
-9773 5853 0
-9073 -8093 0
-11033 9073 8093 0
11033 -9073 0
11033 -8093 0
-9213 -8233 0
-11173 9213 8233 0
11173 -9213 0
11173 -8233 0
-9353 -8373 0
-11313 9353 8373 0
11313 -9353 0
11313 -8373 0
-9493 -8513 0
-11453 9493 8513 0
11453 -9493 0
11453 -8513 0
-9633 -8653 0
-11593 9633 8653 0
11593 -9633 0
11593 -8653 0
-11733 9773 0
11733 -9773 0
-10893 7953 0
10893 -7953 0
10894 11034 11174 11314 11454 11594 11734 0
-7954 2074 0
-8094 2214 0
-8234 2354 0
-8374 2494 0
-8514 2634 0
-8654 2774 0
-9074 5154 0
-9214 5294 0
-9354 5434 0
-9494 5574 0
-9634 5714 0
-9774 5854 0
-9074 -8094 0
-11034 9074 8094 0
11034 -9074 0
11034 -8094 0
-9214 -8234 0
-11174 9214 8234 0
11174 -9214 0
11174 -8234 0
-9354 -8374 0
-11314 9354 8374 0
11314 -9354 0
11314 -8374 0
-9494 -8514 0
-11454 9494 8514 0
11454 -9494 0
11454 -8514 0
-9634 -8654 0
-11594 9634 8654 0
11594 -9634 0
11594 -8654 0
-11734 9774 0
11734 -9774 0
-10894 7954 0
10894 -7954 0
10895 11035 11175 11315 11455 11595 11735 0
-7955 2075 0
-8095 2215 0
-8235 2355 0
-8375 2495 0
-8515 2635 0
-8655 2775 0
-9075 5155 0
-9215 5295 0
-9355 5435 0
-9495 5575 0
-9635 5715 0
-9775 5855 0
-9075 -8095 0
-11035 9075 8095 0
11035 -9075 0
11035 -8095 0
-9215 -8235 0
-11175 9215 8235 0
11175 -9215 0
11175 -8235 0
-9355 -8375 0
-11315 9355 8375 0
11315 -9355 0
11315 -8375 0
-9495 -8515 0
-11455 9495 8515 0
11455 -9495 0
11455 -8515 0
-9635 -8655 0
-11595 9635 8655 0
11595 -9635 0
11595 -8655 0
-11735 9775 0
11735 -9775 0
-10895 7955 0
10895 -7955 0
10896 11036 11176 11316 11456 11596 11736 0
-7956 2076 0
-8096 2216 0
-8236 2356 0
-8376 2496 0
-8516 2636 0
-8656 2776 0
-9076 5156 0
-9216 5296 0
-9356 5436 0
-9496 5576 0
-9636 5716 0
-9776 5856 0
-9076 -8096 0
-11036 9076 8096 0
11036 -9076 0
11036 -8096 0
-9216 -8236 0
-11176 9216 8236 0
11176 -9216 0
11176 -8236 0
-9356 -8376 0
-11316 9356 8376 0
11316 -9356 0
11316 -8376 0
-9496 -8516 0
-11456 9496 8516 0
11456 -9496 0
11456 -8516 0
-9636 -8656 0
-11596 9636 8656 0
11596 -9636 0
11596 -8656 0
-11736 9776 0
11736 -9776 0
-10896 7956 0
10896 -7956 0
10897 11037 11177 11317 11457 11597 11737 0
-7957 2077 0
-8097 2217 0
-8237 2357 0
-8377 2497 0
-8517 2637 0
-8657 2777 0
-9077 5157 0
-9217 5297 0
-9357 5437 0
-9497 5577 0
-9637 5717 0
-9777 5857 0
-9077 -8097 0
-11037 9077 8097 0
11037 -9077 0
11037 -8097 0
-9217 -8237 0
-11177 9217 8237 0
11177 -9217 0
11177 -8237 0
-9357 -8377 0
-11317 9357 8377 0
11317 -9357 0
11317 -8377 0
-9497 -8517 0
-11457 9497 8517 0
11457 -9497 0
11457 -8517 0
-9637 -8657 0
-11597 9637 8657 0
11597 -9637 0
11597 -8657 0
-11737 9777 0
11737 -9777 0
-10897 7957 0
10897 -7957 0
10898 11038 11178 11318 11458 11598 11738 0
-7958 2078 0
-8098 2218 0
-8238 2358 0
-8378 2498 0
-8518 2638 0
-8658 2778 0
-9078 5158 0
-9218 5298 0
-9358 5438 0
-9498 5578 0
-9638 5718 0
-9778 5858 0
-9078 -8098 0
-11038 9078 8098 0
11038 -9078 0
11038 -8098 0
-9218 -8238 0
-11178 9218 8238 0
11178 -9218 0
11178 -8238 0
-9358 -8378 0
-11318 9358 8378 0
11318 -9358 0
11318 -8378 0
-9498 -8518 0
-11458 9498 8518 0
11458 -9498 0
11458 -8518 0
-9638 -8658 0
-11598 9638 8658 0
11598 -9638 0
11598 -8658 0
-11738 9778 0
11738 -9778 0
-10898 7958 0
10898 -7958 0
10899 11039 11179 11319 11459 11599 11739 0
-7959 2079 0
-8099 2219 0
-8239 2359 0
-8379 2499 0
-8519 2639 0
-8659 2779 0
-9079 5159 0
-9219 5299 0
-9359 5439 0
-9499 5579 0
-9639 5719 0
-9779 5859 0
-9079 -8099 0
-11039 9079 8099 0
11039 -9079 0
11039 -8099 0
-9219 -8239 0
-11179 9219 8239 0
11179 -9219 0
11179 -8239 0
-9359 -8379 0
-11319 9359 8379 0
11319 -9359 0
11319 -8379 0
-9499 -8519 0
-11459 9499 8519 0
11459 -9499 0
11459 -8519 0
-9639 -8659 0
-11599 9639 8659 0
11599 -9639 0
11599 -8659 0
-11739 9779 0
11739 -9779 0
-10899 7959 0
10899 -7959 0
10900 11040 11180 11320 11460 11600 11740 0
-7960 2080 0
-8100 2220 0
-8240 2360 0
-8380 2500 0
-8520 2640 0
-8660 2780 0
-9080 5160 0
-9220 5300 0
-9360 5440 0
-9500 5580 0
-9640 5720 0
-9780 5860 0
-9080 -8100 0
-11040 9080 8100 0
11040 -9080 0
11040 -8100 0
-9220 -8240 0
-11180 9220 8240 0
11180 -9220 0
11180 -8240 0
-9360 -8380 0
-11320 9360 8380 0
11320 -9360 0
11320 -8380 0
-9500 -8520 0
-11460 9500 8520 0
11460 -9500 0
11460 -8520 0
-9640 -8660 0
-11600 9640 8660 0
11600 -9640 0
11600 -8660 0
-11740 9780 0
11740 -9780 0
-10900 7960 0
10900 -7960 0
10901 11041 11181 11321 11461 11601 11741 0
-7961 2081 0
-8101 2221 0
-8241 2361 0
-8381 2501 0
-8521 2641 0
-8661 2781 0
-9081 5161 0
-9221 5301 0
-9361 5441 0
-9501 5581 0
-9641 5721 0
-9781 5861 0
-9081 -8101 0
-11041 9081 8101 0
11041 -9081 0
11041 -8101 0
-9221 -8241 0
-11181 9221 8241 0
11181 -9221 0
11181 -8241 0
-9361 -8381 0
-11321 9361 8381 0
11321 -9361 0
11321 -8381 0
-9501 -8521 0
-11461 9501 8521 0
11461 -9501 0
11461 -8521 0
-9641 -8661 0
-11601 9641 8661 0
11601 -9641 0
11601 -8661 0
-11741 9781 0
11741 -9781 0
-10901 7961 0
10901 -7961 0
10902 11042 11182 11322 11462 11602 11742 0
-7962 2082 0
-8102 2222 0
-8242 2362 0
-8382 2502 0
-8522 2642 0
-8662 2782 0
-9082 5162 0
-9222 5302 0
-9362 5442 0
-9502 5582 0
-9642 5722 0
-9782 5862 0
-9082 -8102 0
-11042 9082 8102 0
11042 -9082 0
11042 -8102 0
-9222 -8242 0
-11182 9222 8242 0
11182 -9222 0
11182 -8242 0
-9362 -8382 0
-11322 9362 8382 0
11322 -9362 0
11322 -8382 0
-9502 -8522 0
-11462 9502 8522 0
11462 -9502 0
11462 -8522 0
-9642 -8662 0
-11602 9642 8662 0
11602 -9642 0
11602 -8662 0
-11742 9782 0
11742 -9782 0
-10902 7962 0
10902 -7962 0
10903 11043 11183 11323 11463 11603 11743 0
-7963 2083 0
-8103 2223 0
-8243 2363 0
-8383 2503 0
-8523 2643 0
-8663 2783 0
-9083 5163 0
-9223 5303 0
-9363 5443 0
-9503 5583 0
-9643 5723 0
-9783 5863 0
-9083 -8103 0
-11043 9083 8103 0
11043 -9083 0
11043 -8103 0
-9223 -8243 0
-11183 9223 8243 0
11183 -9223 0
11183 -8243 0
-9363 -8383 0
-11323 9363 8383 0
11323 -9363 0
11323 -8383 0
-9503 -8523 0
-11463 9503 8523 0
11463 -9503 0
11463 -8523 0
-9643 -8663 0
-11603 9643 8663 0
11603 -9643 0
11603 -8663 0
-11743 9783 0
11743 -9783 0
-10903 7963 0
10903 -7963 0
10904 11044 11184 11324 11464 11604 11744 0
-7964 2084 0
-8104 2224 0
-8244 2364 0
-8384 2504 0
-8524 2644 0
-8664 2784 0
-9084 5164 0
-9224 5304 0
-9364 5444 0
-9504 5584 0
-9644 5724 0
-9784 5864 0
-9084 -8104 0
-11044 9084 8104 0
11044 -9084 0
11044 -8104 0
-9224 -8244 0
-11184 9224 8244 0
11184 -9224 0
11184 -8244 0
-9364 -8384 0
-11324 9364 8384 0
11324 -9364 0
11324 -8384 0
-9504 -8524 0
-11464 9504 8524 0
11464 -9504 0
11464 -8524 0
-9644 -8664 0
-11604 9644 8664 0
11604 -9644 0
11604 -8664 0
-11744 9784 0
11744 -9784 0
-10904 7964 0
10904 -7964 0
10905 11045 11185 11325 11465 11605 11745 0
-7965 2085 0
-8105 2225 0
-8245 2365 0
-8385 2505 0
-8525 2645 0
-8665 2785 0
-9085 5165 0
-9225 5305 0
-9365 5445 0
-9505 5585 0
-9645 5725 0
-9785 5865 0
-9085 -8105 0
-11045 9085 8105 0
11045 -9085 0
11045 -8105 0
-9225 -8245 0
-11185 9225 8245 0
11185 -9225 0
11185 -8245 0
-9365 -8385 0
-11325 9365 8385 0
11325 -9365 0
11325 -8385 0
-9505 -8525 0
-11465 9505 8525 0
11465 -9505 0
11465 -8525 0
-9645 -8665 0
-11605 9645 8665 0
11605 -9645 0
11605 -8665 0
-11745 9785 0
11745 -9785 0
-10905 7965 0
10905 -7965 0
10906 11046 11186 11326 11466 11606 11746 0
-7966 2086 0
-8106 2226 0
-8246 2366 0
-8386 2506 0
-8526 2646 0
-8666 2786 0
-9086 5166 0
-9226 5306 0
-9366 5446 0
-9506 5586 0
-9646 5726 0
-9786 5866 0
-9086 -8106 0
-11046 9086 8106 0
11046 -9086 0
11046 -8106 0
-9226 -8246 0
-11186 9226 8246 0
11186 -9226 0
11186 -8246 0
-9366 -8386 0
-11326 9366 8386 0
11326 -9366 0
11326 -8386 0
-9506 -8526 0
-11466 9506 8526 0
11466 -9506 0
11466 -8526 0
-9646 -8666 0
-11606 9646 8666 0
11606 -9646 0
11606 -8666 0
-11746 9786 0
11746 -9786 0
-10906 7966 0
10906 -7966 0
10907 11047 11187 11327 11467 11607 11747 0
-7967 2087 0
-8107 2227 0
-8247 2367 0
-8387 2507 0
-8527 2647 0
-8667 2787 0
-9087 5167 0
-9227 5307 0
-9367 5447 0
-9507 5587 0
-9647 5727 0
-9787 5867 0
-9087 -8107 0
-11047 9087 8107 0
11047 -9087 0
11047 -8107 0
-9227 -8247 0
-11187 9227 8247 0
11187 -9227 0
11187 -8247 0
-9367 -8387 0
-11327 9367 8387 0
11327 -9367 0
11327 -8387 0
-9507 -8527 0
-11467 9507 8527 0
11467 -9507 0
11467 -8527 0
-9647 -8667 0
-11607 9647 8667 0
11607 -9647 0
11607 -8667 0
-11747 9787 0
11747 -9787 0
-10907 7967 0
10907 -7967 0
10908 11048 11188 11328 11468 11608 11748 0
-7968 2088 0
-8108 2228 0
-8248 2368 0
-8388 2508 0
-8528 2648 0
-8668 2788 0
-9088 5168 0
-9228 5308 0
-9368 5448 0
-9508 5588 0
-9648 5728 0
-9788 5868 0
-9088 -8108 0
-11048 9088 8108 0
11048 -9088 0
11048 -8108 0
-9228 -8248 0
-11188 9228 8248 0
11188 -9228 0
11188 -8248 0
-9368 -8388 0
-11328 9368 8388 0
11328 -9368 0
11328 -8388 0
-9508 -8528 0
-11468 9508 8528 0
11468 -9508 0
11468 -8528 0
-9648 -8668 0
-11608 9648 8668 0
11608 -9648 0
11608 -8668 0
-11748 9788 0
11748 -9788 0
-10908 7968 0
10908 -7968 0
10909 11049 11189 11329 11469 11609 11749 0
-7969 2089 0
-8109 2229 0
-8249 2369 0
-8389 2509 0
-8529 2649 0
-8669 2789 0
-9089 5169 0
-9229 5309 0
-9369 5449 0
-9509 5589 0
-9649 5729 0
-9789 5869 0
-9089 -8109 0
-11049 9089 8109 0
11049 -9089 0
11049 -8109 0
-9229 -8249 0
-11189 9229 8249 0
11189 -9229 0
11189 -8249 0
-9369 -8389 0
-11329 9369 8389 0
11329 -9369 0
11329 -8389 0
-9509 -8529 0
-11469 9509 8529 0
11469 -9509 0
11469 -8529 0
-9649 -8669 0
-11609 9649 8669 0
11609 -9649 0
11609 -8669 0
-11749 9789 0
11749 -9789 0
-10909 7969 0
10909 -7969 0
10910 11050 11190 11330 11470 11610 11750 0
-7970 2090 0
-8110 2230 0
-8250 2370 0
-8390 2510 0
-8530 2650 0
-8670 2790 0
-9090 5170 0
-9230 5310 0
-9370 5450 0
-9510 5590 0
-9650 5730 0
-9790 5870 0
-9090 -8110 0
-11050 9090 8110 0
11050 -9090 0
11050 -8110 0
-9230 -8250 0
-11190 9230 8250 0
11190 -9230 0
11190 -8250 0
-9370 -8390 0
-11330 9370 8390 0
11330 -9370 0
11330 -8390 0
-9510 -8530 0
-11470 9510 8530 0
11470 -9510 0
11470 -8530 0
-9650 -8670 0
-11610 9650 8670 0
11610 -9650 0
11610 -8670 0
-11750 9790 0
11750 -9790 0
-10910 7970 0
10910 -7970 0
10911 11051 11191 11331 11471 11611 11751 0
-7971 2091 0
-8111 2231 0
-8251 2371 0
-8391 2511 0
-8531 2651 0
-8671 2791 0
-9091 5171 0
-9231 5311 0
-9371 5451 0
-9511 5591 0
-9651 5731 0
-9791 5871 0
-9091 -8111 0
-11051 9091 8111 0
11051 -9091 0
11051 -8111 0
-9231 -8251 0
-11191 9231 8251 0
11191 -9231 0
11191 -8251 0
-9371 -8391 0
-11331 9371 8391 0
11331 -9371 0
11331 -8391 0
-9511 -8531 0
-11471 9511 8531 0
11471 -9511 0
11471 -8531 0
-9651 -8671 0
-11611 9651 8671 0
11611 -9651 0
11611 -8671 0
-11751 9791 0
11751 -9791 0
-10911 7971 0
10911 -7971 0
10912 11052 11192 11332 11472 11612 11752 0
-7972 2092 0
-8112 2232 0
-8252 2372 0
-8392 2512 0
-8532 2652 0
-8672 2792 0
-9092 5172 0
-9232 5312 0
-9372 5452 0
-9512 5592 0
-9652 5732 0
-9792 5872 0
-9092 -8112 0
-11052 9092 8112 0
11052 -9092 0
11052 -8112 0
-9232 -8252 0
-11192 9232 8252 0
11192 -9232 0
11192 -8252 0
-9372 -8392 0
-11332 9372 8392 0
11332 -9372 0
11332 -8392 0
-9512 -8532 0
-11472 9512 8532 0
11472 -9512 0
11472 -8532 0
-9652 -8672 0
-11612 9652 8672 0
11612 -9652 0
11612 -8672 0
-11752 9792 0
11752 -9792 0
-10912 7972 0
10912 -7972 0
10913 11053 11193 11333 11473 11613 11753 0
-7973 2093 0
-8113 2233 0
-8253 2373 0
-8393 2513 0
-8533 2653 0
-8673 2793 0
-9093 5173 0
-9233 5313 0
-9373 5453 0
-9513 5593 0
-9653 5733 0
-9793 5873 0
-9093 -8113 0
-11053 9093 8113 0
11053 -9093 0
11053 -8113 0
-9233 -8253 0
-11193 9233 8253 0
11193 -9233 0
11193 -8253 0
-9373 -8393 0
-11333 9373 8393 0
11333 -9373 0
11333 -8393 0
-9513 -8533 0
-11473 9513 8533 0
11473 -9513 0
11473 -8533 0
-9653 -8673 0
-11613 9653 8673 0
11613 -9653 0
11613 -8673 0
-11753 9793 0
11753 -9793 0
-10913 7973 0
10913 -7973 0
10914 11054 11194 11334 11474 11614 11754 0
-7974 2094 0
-8114 2234 0
-8254 2374 0
-8394 2514 0
-8534 2654 0
-8674 2794 0
-9094 5174 0
-9234 5314 0
-9374 5454 0
-9514 5594 0
-9654 5734 0
-9794 5874 0
-9094 -8114 0
-11054 9094 8114 0
11054 -9094 0
11054 -8114 0
-9234 -8254 0
-11194 9234 8254 0
11194 -9234 0
11194 -8254 0
-9374 -8394 0
-11334 9374 8394 0
11334 -9374 0
11334 -8394 0
-9514 -8534 0
-11474 9514 8534 0
11474 -9514 0
11474 -8534 0
-9654 -8674 0
-11614 9654 8674 0
11614 -9654 0
11614 -8674 0
-11754 9794 0
11754 -9794 0
-10914 7974 0
10914 -7974 0
10915 11055 11195 11335 11475 11615 11755 0
-7975 2095 0
-8115 2235 0
-8255 2375 0
-8395 2515 0
-8535 2655 0
-8675 2795 0
-9095 5175 0
-9235 5315 0
-9375 5455 0
-9515 5595 0
-9655 5735 0
-9795 5875 0
-9095 -8115 0
-11055 9095 8115 0
11055 -9095 0
11055 -8115 0
-9235 -8255 0
-11195 9235 8255 0
11195 -9235 0
11195 -8255 0
-9375 -8395 0
-11335 9375 8395 0
11335 -9375 0
11335 -8395 0
-9515 -8535 0
-11475 9515 8535 0
11475 -9515 0
11475 -8535 0
-9655 -8675 0
-11615 9655 8675 0
11615 -9655 0
11615 -8675 0
-11755 9795 0
11755 -9795 0
-10915 7975 0
10915 -7975 0
10916 11056 11196 11336 11476 11616 11756 0
-7976 2096 0
-8116 2236 0
-8256 2376 0
-8396 2516 0
-8536 2656 0
-8676 2796 0
-9096 5176 0
-9236 5316 0
-9376 5456 0
-9516 5596 0
-9656 5736 0
-9796 5876 0
-9096 -8116 0
-11056 9096 8116 0
11056 -9096 0
11056 -8116 0
-9236 -8256 0
-11196 9236 8256 0
11196 -9236 0
11196 -8256 0
-9376 -8396 0
-11336 9376 8396 0
11336 -9376 0
11336 -8396 0
-9516 -8536 0
-11476 9516 8536 0
11476 -9516 0
11476 -8536 0
-9656 -8676 0
-11616 9656 8676 0
11616 -9656 0
11616 -8676 0
-11756 9796 0
11756 -9796 0
-10916 7976 0
10916 -7976 0
10917 11057 11197 11337 11477 11617 11757 0
-7977 2097 0
-8117 2237 0
-8257 2377 0
-8397 2517 0
-8537 2657 0
-8677 2797 0
-9097 5177 0
-9237 5317 0
-9377 5457 0
-9517 5597 0
-9657 5737 0
-9797 5877 0
-9097 -8117 0
-11057 9097 8117 0
11057 -9097 0
11057 -8117 0
-9237 -8257 0
-11197 9237 8257 0
11197 -9237 0
11197 -8257 0
-9377 -8397 0
-11337 9377 8397 0
11337 -9377 0
11337 -8397 0
-9517 -8537 0
-11477 9517 8537 0
11477 -9517 0
11477 -8537 0
-9657 -8677 0
-11617 9657 8677 0
11617 -9657 0
11617 -8677 0
-11757 9797 0
11757 -9797 0
-10917 7977 0
10917 -7977 0
10918 11058 11198 11338 11478 11618 11758 0
-7978 2098 0
-8118 2238 0
-8258 2378 0
-8398 2518 0
-8538 2658 0
-8678 2798 0
-9098 5178 0
-9238 5318 0
-9378 5458 0
-9518 5598 0
-9658 5738 0
-9798 5878 0
-9098 -8118 0
-11058 9098 8118 0
11058 -9098 0
11058 -8118 0
-9238 -8258 0
-11198 9238 8258 0
11198 -9238 0
11198 -8258 0
-9378 -8398 0
-11338 9378 8398 0
11338 -9378 0
11338 -8398 0
-9518 -8538 0
-11478 9518 8538 0
11478 -9518 0
11478 -8538 0
-9658 -8678 0
-11618 9658 8678 0
11618 -9658 0
11618 -8678 0
-11758 9798 0
11758 -9798 0
-10918 7978 0
10918 -7978 0
10919 11059 11199 11339 11479 11619 11759 0
-7979 2099 0
-8119 2239 0
-8259 2379 0
-8399 2519 0
-8539 2659 0
-8679 2799 0
-9099 5179 0
-9239 5319 0
-9379 5459 0
-9519 5599 0
-9659 5739 0
-9799 5879 0
-9099 -8119 0
-11059 9099 8119 0
11059 -9099 0
11059 -8119 0
-9239 -8259 0
-11199 9239 8259 0
11199 -9239 0
11199 -8259 0
-9379 -8399 0
-11339 9379 8399 0
11339 -9379 0
11339 -8399 0
-9519 -8539 0
-11479 9519 8539 0
11479 -9519 0
11479 -8539 0
-9659 -8679 0
-11619 9659 8679 0
11619 -9659 0
11619 -8679 0
-11759 9799 0
11759 -9799 0
-10919 7979 0
10919 -7979 0
-11760 0
9801 11761 0
9941 11761 0
9801 9941 11762 0
10081 11763 0
10221 11763 0
10081 10221 11764 0
-11761 11765 0
-11763 11765 0
-11761 -11763 11766 0
-11762 11767 0
-11764 11767 0
-11762 -11764 11768 0
-11766 11769 0
-11767 11769 0
-11766 -11767 11770 0
10361 11771 0
10501 11771 0
10361 10501 11772 0
10641 11773 0
-11760 11773 0
10641 -11760 11774 0
-11771 11775 0
-11773 11775 0
-11771 -11773 11776 0
-11772 11777 0
-11774 11777 0
-11772 -11774 11778 0
-11776 11779 0
-11777 11779 0
-11776 -11777 11780 0
-11765 11781 0
-11775 11781 0
-11765 -11775 11782 0
-11770 11783 0
-11780 11783 0
-11770 -11780 11784 0
-11782 11785 0
-11783 11785 0
-11782 -11783 11786 0
-11769 11787 0
-11779 11787 0
-11769 -11779 11788 0
-11768 11789 0
-11778 11789 0
-11768 -11778 11790 0
-11788 11791 0
-11789 11791 0
-11788 -11789 11792 0
-11785 11793 0
-11787 11793 0
-11785 -11787 11794 0
-11786 11795 0
-11791 11795 0
-11786 -11791 11796 0
-11784 11797 0
-11792 11797 0
-11784 -11792 11798 0
-11797 0
11762 11763 11764 11765 11766 11767 11768 11769 11770 11771 11772 11773 11774 11775 11776 11777 11778 11779 11780 11781 11782 11783 11784 11785 11786 11787 11788 11789 11790 11791 11792 11793 11794 11795 11796 11797 11798 11799 11800 11801 11802 11803 11804 11805 11806 11807 11808 11809 11810 11811 11812 11813 11814 11815 11816 11817 11818 11819 11820 11821 11822 11823 11824 11825 11826 11827 11828 11829 11830 11831 11832 11833 11834 11835 11836 11837 11838 11839 11840 11841 11842 11843 11844 11845 11846 11847 11848 11849 11850 11851 11852 11853 11854 11855 11856 11857 11858 11859 11860 11861 11862 11863 11864 11865 11866 11867 11868 11869 11870 11871 11872 11873 11874 11875 11876 11877 11878 11879 11880 11881 11882 11883 11884 11885 11886 11887 11888 11889 11890 11891 11892 11893 11894 11895 11896 11897 11898 11899 11900 0
11902 -11762 0
12882 -11762 0
-11902 -12882 11762 0
-11902 13862 0
-11902 15822 0
11902 -13862 -15822 0
-12882 14842 0
-12882 16802 0
12882 -14842 -16802 0
-1 2 -13862 0
1 13862 0
-2 13862 0
-981 982 -14842 0
981 14842 0
-982 14842 0
1 -2 -15822 0
-1 15822 0
2 15822 0
981 -982 -16802 0
-981 16802 0
982 16802 0
12042 -11762 0
13022 -11762 0
-12042 -13022 11762 0
-12042 14002 0
-12042 15962 0
12042 -14002 -15962 0
-13022 14982 0
-13022 16942 0
13022 -14982 -16942 0
-141 142 -14002 0
141 14002 0
-142 14002 0
-1121 1122 -14982 0
1121 14982 0
-1122 14982 0
141 -142 -15962 0
-141 15962 0
142 15962 0
1121 -1122 -16942 0
-1121 16942 0
1122 16942 0
12182 -11762 0
13162 -11762 0
-12182 -13162 11762 0
-12182 14142 0
-12182 16102 0
12182 -14142 -16102 0
-13162 15122 0
-13162 17082 0
13162 -15122 -17082 0
-281 282 -14142 0
281 14142 0
-282 14142 0
-1261 1262 -15122 0
1261 15122 0
-1262 15122 0
281 -282 -16102 0
-281 16102 0
282 16102 0
1261 -1262 -17082 0
-1261 17082 0
1262 17082 0
12322 -11762 0
13302 -11762 0
-12322 -13302 11762 0
-12322 14282 0
-12322 16242 0
12322 -14282 -16242 0
-13302 15262 0
-13302 17222 0
13302 -15262 -17222 0
-421 422 -14282 0
421 14282 0
-422 14282 0
-1401 1402 -15262 0
1401 15262 0
-1402 15262 0
421 -422 -16242 0
-421 16242 0
422 16242 0
1401 -1402 -17222 0
-1401 17222 0
1402 17222 0
12462 -11762 0
13442 -11762 0
-12462 -13442 11762 0
-12462 14422 0
-12462 16382 0
12462 -14422 -16382 0
-13442 15402 0
-13442 17362 0
13442 -15402 -17362 0
-561 562 -14422 0
561 14422 0
-562 14422 0
-1541 1542 -15402 0
1541 15402 0
-1542 15402 0
561 -562 -16382 0
-561 16382 0
562 16382 0
1541 -1542 -17362 0
-1541 17362 0
1542 17362 0
12602 -11762 0
13582 -11762 0
-12602 -13582 11762 0
-12602 14562 0
-12602 16522 0
12602 -14562 -16522 0
-13582 15542 0
-13582 17502 0
13582 -15542 -17502 0
-701 702 -14562 0
701 14562 0
-702 14562 0
-1681 1682 -15542 0
1681 15542 0
-1682 15542 0
701 -702 -16522 0
-701 16522 0
702 16522 0
1681 -1682 -17502 0
-1681 17502 0
1682 17502 0
12742 -11762 0
13722 -11762 0
-12742 -13722 11762 0
-12742 14702 0
-12742 16662 0
12742 -14702 -16662 0
-13722 15682 0
-13722 17642 0
13722 -15682 -17642 0
-841 842 -14702 0
841 14702 0
-842 14702 0
-1821 1822 -15682 0
1821 15682 0
-1822 15682 0
841 -842 -16662 0
-841 16662 0
842 16662 0
1821 -1822 -17642 0
-1821 17642 0
1822 17642 0
11903 -11763 0
12883 -11763 0
-11903 -12883 11763 0
-11903 13863 0
-11903 15823 0
11903 -13863 -15823 0
-12883 14843 0
-12883 16803 0
12883 -14843 -16803 0
-1 3 -13863 0
1 13863 0
-3 13863 0
-981 983 -14843 0
981 14843 0
-983 14843 0
1 -3 -15823 0
-1 15823 0
3 15823 0
981 -983 -16803 0
-981 16803 0
983 16803 0
12043 -11763 0
13023 -11763 0
-12043 -13023 11763 0
-12043 14003 0
-12043 15963 0
12043 -14003 -15963 0
-13023 14983 0
-13023 16943 0
13023 -14983 -16943 0
-141 143 -14003 0
141 14003 0
-143 14003 0
-1121 1123 -14983 0
1121 14983 0
-1123 14983 0
141 -143 -15963 0
-141 15963 0
143 15963 0
1121 -1123 -16943 0
-1121 16943 0
1123 16943 0
12183 -11763 0
13163 -11763 0
-12183 -13163 11763 0
-12183 14143 0
-12183 16103 0
12183 -14143 -16103 0
-13163 15123 0
-13163 17083 0
13163 -15123 -17083 0
-281 283 -14143 0
281 14143 0
-283 14143 0
-1261 1263 -15123 0
1261 15123 0
-1263 15123 0
281 -283 -16103 0
-281 16103 0
283 16103 0
1261 -1263 -17083 0
-1261 17083 0
1263 17083 0
12323 -11763 0
13303 -11763 0
-12323 -13303 11763 0
-12323 14283 0
-12323 16243 0
12323 -14283 -16243 0
-13303 15263 0
-13303 17223 0
13303 -15263 -17223 0
-421 423 -14283 0
421 14283 0
-423 14283 0
-1401 1403 -15263 0
1401 15263 0
-1403 15263 0
421 -423 -16243 0
-421 16243 0
423 16243 0
1401 -1403 -17223 0
-1401 17223 0
1403 17223 0
12463 -11763 0
13443 -11763 0
-12463 -13443 11763 0
-12463 14423 0
-12463 16383 0
12463 -14423 -16383 0
-13443 15403 0
-13443 17363 0
13443 -15403 -17363 0
-561 563 -14423 0
561 14423 0
-563 14423 0
-1541 1543 -15403 0
1541 15403 0
-1543 15403 0
561 -563 -16383 0
-561 16383 0
563 16383 0
1541 -1543 -17363 0
-1541 17363 0
1543 17363 0
12603 -11763 0
13583 -11763 0
-12603 -13583 11763 0
-12603 14563 0
-12603 16523 0
12603 -14563 -16523 0
-13583 15543 0
-13583 17503 0
13583 -15543 -17503 0
-701 703 -14563 0
701 14563 0
-703 14563 0
-1681 1683 -15543 0
1681 15543 0
-1683 15543 0
701 -703 -16523 0
-701 16523 0
703 16523 0
1681 -1683 -17503 0
-1681 17503 0
1683 17503 0
12743 -11763 0
13723 -11763 0
-12743 -13723 11763 0
-12743 14703 0
-12743 16663 0
12743 -14703 -16663 0
-13723 15683 0
-13723 17643 0
13723 -15683 -17643 0
-841 843 -14703 0
841 14703 0
-843 14703 0
-1821 1823 -15683 0
1821 15683 0
-1823 15683 0
841 -843 -16663 0
-841 16663 0
843 16663 0
1821 -1823 -17643 0
-1821 17643 0
1823 17643 0
11904 -11764 0
12884 -11764 0
-11904 -12884 11764 0
-11904 13864 0
-11904 15824 0
11904 -13864 -15824 0
-12884 14844 0
-12884 16804 0
12884 -14844 -16804 0
-1 4 -13864 0
1 13864 0
-4 13864 0
-981 984 -14844 0
981 14844 0
-984 14844 0
1 -4 -15824 0
-1 15824 0
4 15824 0
981 -984 -16804 0
-981 16804 0
984 16804 0
12044 -11764 0
13024 -11764 0
-12044 -13024 11764 0
-12044 14004 0
-12044 15964 0
12044 -14004 -15964 0
-13024 14984 0
-13024 16944 0
13024 -14984 -16944 0
-141 144 -14004 0
141 14004 0
-144 14004 0
-1121 1124 -14984 0
1121 14984 0
-1124 14984 0
141 -144 -15964 0
-141 15964 0
144 15964 0
1121 -1124 -16944 0
-1121 16944 0
1124 16944 0
12184 -11764 0
13164 -11764 0
-12184 -13164 11764 0
-12184 14144 0
-12184 16104 0
12184 -14144 -16104 0
-13164 15124 0
-13164 17084 0
13164 -15124 -17084 0
-281 284 -14144 0
281 14144 0
-284 14144 0
-1261 1264 -15124 0
1261 15124 0
-1264 15124 0
281 -284 -16104 0
-281 16104 0
284 16104 0
1261 -1264 -17084 0
-1261 17084 0
1264 17084 0
12324 -11764 0
13304 -11764 0
-12324 -13304 11764 0
-12324 14284 0
-12324 16244 0
12324 -14284 -16244 0
-13304 15264 0
-13304 17224 0
13304 -15264 -17224 0
-421 424 -14284 0
421 14284 0
-424 14284 0
-1401 1404 -15264 0
1401 15264 0
-1404 15264 0
421 -424 -16244 0
-421 16244 0
424 16244 0
1401 -1404 -17224 0
-1401 17224 0
1404 17224 0
12464 -11764 0
13444 -11764 0
-12464 -13444 11764 0
-12464 14424 0
-12464 16384 0
12464 -14424 -16384 0
-13444 15404 0
-13444 17364 0
13444 -15404 -17364 0
-561 564 -14424 0
561 14424 0
-564 14424 0
-1541 1544 -15404 0
1541 15404 0
-1544 15404 0
561 -564 -16384 0
-561 16384 0
564 16384 0
1541 -1544 -17364 0
-1541 17364 0
1544 17364 0
12604 -11764 0
13584 -11764 0
-12604 -13584 11764 0
-12604 14564 0
-12604 16524 0
12604 -14564 -16524 0
-13584 15544 0
-13584 17504 0
13584 -15544 -17504 0
-701 704 -14564 0
701 14564 0
-704 14564 0
-1681 1684 -15544 0
1681 15544 0
-1684 15544 0
701 -704 -16524 0
-701 16524 0
704 16524 0
1681 -1684 -17504 0
-1681 17504 0
1684 17504 0
12744 -11764 0
13724 -11764 0
-12744 -13724 11764 0
-12744 14704 0
-12744 16664 0
12744 -14704 -16664 0
-13724 15684 0
-13724 17644 0
13724 -15684 -17644 0
-841 844 -14704 0
841 14704 0
-844 14704 0
-1821 1824 -15684 0
1821 15684 0
-1824 15684 0
841 -844 -16664 0
-841 16664 0
844 16664 0
1821 -1824 -17644 0
-1821 17644 0
1824 17644 0
11905 -11765 0
12885 -11765 0
-11905 -12885 11765 0
-11905 13865 0
-11905 15825 0
11905 -13865 -15825 0
-12885 14845 0
-12885 16805 0
12885 -14845 -16805 0
-1 5 -13865 0
1 13865 0
-5 13865 0
-981 985 -14845 0
981 14845 0
-985 14845 0
1 -5 -15825 0
-1 15825 0
5 15825 0
981 -985 -16805 0
-981 16805 0
985 16805 0
12045 -11765 0
13025 -11765 0
-12045 -13025 11765 0
-12045 14005 0
-12045 15965 0
12045 -14005 -15965 0
-13025 14985 0
-13025 16945 0
13025 -14985 -16945 0
-141 145 -14005 0
141 14005 0
-145 14005 0
-1121 1125 -14985 0
1121 14985 0
-1125 14985 0
141 -145 -15965 0
-141 15965 0
145 15965 0
1121 -1125 -16945 0
-1121 16945 0
1125 16945 0
12185 -11765 0
13165 -11765 0
-12185 -13165 11765 0
-12185 14145 0
-12185 16105 0
12185 -14145 -16105 0
-13165 15125 0
-13165 17085 0
13165 -15125 -17085 0
-281 285 -14145 0
281 14145 0
-285 14145 0
-1261 1265 -15125 0
1261 15125 0
-1265 15125 0
281 -285 -16105 0
-281 16105 0
285 16105 0
1261 -1265 -17085 0
-1261 17085 0
1265 17085 0
12325 -11765 0
13305 -11765 0
-12325 -13305 11765 0
-12325 14285 0
-12325 16245 0
12325 -14285 -16245 0
-13305 15265 0
-13305 17225 0
13305 -15265 -17225 0
-421 425 -14285 0
421 14285 0
-425 14285 0
-1401 1405 -15265 0
1401 15265 0
-1405 15265 0
421 -425 -16245 0
-421 16245 0
425 16245 0
1401 -1405 -17225 0
-1401 17225 0
1405 17225 0
12465 -11765 0
13445 -11765 0
-12465 -13445 11765 0
-12465 14425 0
-12465 16385 0
12465 -14425 -16385 0
-13445 15405 0
-13445 17365 0
13445 -15405 -17365 0
-561 565 -14425 0
561 14425 0
-565 14425 0
-1541 1545 -15405 0
1541 15405 0
-1545 15405 0
561 -565 -16385 0
-561 16385 0
565 16385 0
1541 -1545 -17365 0
-1541 17365 0
1545 17365 0
12605 -11765 0
13585 -11765 0
-12605 -13585 11765 0
-12605 14565 0
-12605 16525 0
12605 -14565 -16525 0
-13585 15545 0
-13585 17505 0
13585 -15545 -17505 0
-701 705 -14565 0
701 14565 0
-705 14565 0
-1681 1685 -15545 0
1681 15545 0
-1685 15545 0
701 -705 -16525 0
-701 16525 0
705 16525 0
1681 -1685 -17505 0
-1681 17505 0
1685 17505 0
12745 -11765 0
13725 -11765 0
-12745 -13725 11765 0
-12745 14705 0
-12745 16665 0
12745 -14705 -16665 0
-13725 15685 0
-13725 17645 0
13725 -15685 -17645 0
-841 845 -14705 0
841 14705 0
-845 14705 0
-1821 1825 -15685 0
1821 15685 0
-1825 15685 0
841 -845 -16665 0
-841 16665 0
845 16665 0
1821 -1825 -17645 0
-1821 17645 0
1825 17645 0
11906 -11766 0
12886 -11766 0
-11906 -12886 11766 0
-11906 13866 0
-11906 15826 0
11906 -13866 -15826 0
-12886 14846 0
-12886 16806 0
12886 -14846 -16806 0
-1 6 -13866 0
1 13866 0
-6 13866 0
-981 986 -14846 0
981 14846 0
-986 14846 0
1 -6 -15826 0
-1 15826 0
6 15826 0
981 -986 -16806 0
-981 16806 0
986 16806 0
12046 -11766 0
13026 -11766 0
-12046 -13026 11766 0
-12046 14006 0
-12046 15966 0
12046 -14006 -15966 0
-13026 14986 0
-13026 16946 0
13026 -14986 -16946 0
-141 146 -14006 0
141 14006 0
-146 14006 0
-1121 1126 -14986 0
1121 14986 0
-1126 14986 0
141 -146 -15966 0
-141 15966 0
146 15966 0
1121 -1126 -16946 0
-1121 16946 0
1126 16946 0
12186 -11766 0
13166 -11766 0
-12186 -13166 11766 0
-12186 14146 0
-12186 16106 0
12186 -14146 -16106 0
-13166 15126 0
-13166 17086 0
13166 -15126 -17086 0
-281 286 -14146 0
281 14146 0
-286 14146 0
-1261 1266 -15126 0
1261 15126 0
-1266 15126 0
281 -286 -16106 0
-281 16106 0
286 16106 0
1261 -1266 -17086 0
-1261 17086 0
1266 17086 0
12326 -11766 0
13306 -11766 0
-12326 -13306 11766 0
-12326 14286 0
-12326 16246 0
12326 -14286 -16246 0
-13306 15266 0
-13306 17226 0
13306 -15266 -17226 0
-421 426 -14286 0
421 14286 0
-426 14286 0
-1401 1406 -15266 0
1401 15266 0
-1406 15266 0
421 -426 -16246 0
-421 16246 0
426 16246 0
1401 -1406 -17226 0
-1401 17226 0
1406 17226 0
12466 -11766 0
13446 -11766 0
-12466 -13446 11766 0
-12466 14426 0
-12466 16386 0
12466 -14426 -16386 0
-13446 15406 0
-13446 17366 0
13446 -15406 -17366 0
-561 566 -14426 0
561 14426 0
-566 14426 0
-1541 1546 -15406 0
1541 15406 0
-1546 15406 0
561 -566 -16386 0
-561 16386 0
566 16386 0
1541 -1546 -17366 0
-1541 17366 0
1546 17366 0
12606 -11766 0
13586 -11766 0
-12606 -13586 11766 0
-12606 14566 0
-12606 16526 0
12606 -14566 -16526 0
-13586 15546 0
-13586 17506 0
13586 -15546 -17506 0
-701 706 -14566 0
701 14566 0
-706 14566 0
-1681 1686 -15546 0
1681 15546 0
-1686 15546 0
701 -706 -16526 0
-701 16526 0
706 16526 0
1681 -1686 -17506 0
-1681 17506 0
1686 17506 0
12746 -11766 0
13726 -11766 0
-12746 -13726 11766 0
-12746 14706 0
-12746 16666 0
12746 -14706 -16666 0
-13726 15686 0
-13726 17646 0
13726 -15686 -17646 0
-841 846 -14706 0
841 14706 0
-846 14706 0
-1821 1826 -15686 0
1821 15686 0
-1826 15686 0
841 -846 -16666 0
-841 16666 0
846 16666 0
1821 -1826 -17646 0
-1821 17646 0
1826 17646 0
11907 -11767 0
12887 -11767 0
-11907 -12887 11767 0
-11907 13867 0
-11907 15827 0
11907 -13867 -15827 0
-12887 14847 0
-12887 16807 0
12887 -14847 -16807 0
-1 7 -13867 0
1 13867 0
-7 13867 0
-981 987 -14847 0
981 14847 0
-987 14847 0
1 -7 -15827 0
-1 15827 0
7 15827 0
981 -987 -16807 0
-981 16807 0
987 16807 0
12047 -11767 0
13027 -11767 0
-12047 -13027 11767 0
-12047 14007 0
-12047 15967 0
12047 -14007 -15967 0
-13027 14987 0
-13027 16947 0
13027 -14987 -16947 0
-141 147 -14007 0
141 14007 0
-147 14007 0
-1121 1127 -14987 0
1121 14987 0
-1127 14987 0
141 -147 -15967 0
-141 15967 0
147 15967 0
1121 -1127 -16947 0
-1121 16947 0
1127 16947 0
12187 -11767 0
13167 -11767 0
-12187 -13167 11767 0
-12187 14147 0
-12187 16107 0
12187 -14147 -16107 0
-13167 15127 0
-13167 17087 0
13167 -15127 -17087 0
-281 287 -14147 0
281 14147 0
-287 14147 0
-1261 1267 -15127 0
1261 15127 0
-1267 15127 0
281 -287 -16107 0
-281 16107 0
287 16107 0
1261 -1267 -17087 0
-1261 17087 0
1267 17087 0
12327 -11767 0
13307 -11767 0
-12327 -13307 11767 0
-12327 14287 0
-12327 16247 0
12327 -14287 -16247 0
-13307 15267 0
-13307 17227 0
13307 -15267 -17227 0
-421 427 -14287 0
421 14287 0
-427 14287 0
-1401 1407 -15267 0
1401 15267 0
-1407 15267 0
421 -427 -16247 0
-421 16247 0
427 16247 0
1401 -1407 -17227 0
-1401 17227 0
1407 17227 0
12467 -11767 0
13447 -11767 0
-12467 -13447 11767 0
-12467 14427 0
-12467 16387 0
12467 -14427 -16387 0
-13447 15407 0
-13447 17367 0
13447 -15407 -17367 0
-561 567 -14427 0
561 14427 0
-567 14427 0
-1541 1547 -15407 0
1541 15407 0
-1547 15407 0
561 -567 -16387 0
-561 16387 0
567 16387 0
1541 -1547 -17367 0
-1541 17367 0
1547 17367 0
12607 -11767 0
13587 -11767 0
-12607 -13587 11767 0
-12607 14567 0
-12607 16527 0
12607 -14567 -16527 0
-13587 15547 0
-13587 17507 0
13587 -15547 -17507 0
-701 707 -14567 0
701 14567 0
-707 14567 0
-1681 1687 -15547 0
1681 15547 0
-1687 15547 0
701 -707 -16527 0
-701 16527 0
707 16527 0
1681 -1687 -17507 0
-1681 17507 0
1687 17507 0
12747 -11767 0
13727 -11767 0
-12747 -13727 11767 0
-12747 14707 0
-12747 16667 0
12747 -14707 -16667 0
-13727 15687 0
-13727 17647 0
13727 -15687 -17647 0
-841 847 -14707 0
841 14707 0
-847 14707 0
-1821 1827 -15687 0
1821 15687 0
-1827 15687 0
841 -847 -16667 0
-841 16667 0
847 16667 0
1821 -1827 -17647 0
-1821 17647 0
1827 17647 0
11908 -11768 0
12888 -11768 0
-11908 -12888 11768 0
-11908 13868 0
-11908 15828 0
11908 -13868 -15828 0
-12888 14848 0
-12888 16808 0
12888 -14848 -16808 0
-1 8 -13868 0
1 13868 0
-8 13868 0
-981 988 -14848 0
981 14848 0
-988 14848 0
1 -8 -15828 0
-1 15828 0
8 15828 0
981 -988 -16808 0
-981 16808 0
988 16808 0
12048 -11768 0
13028 -11768 0
-12048 -13028 11768 0
-12048 14008 0
-12048 15968 0
12048 -14008 -15968 0
-13028 14988 0
-13028 16948 0
13028 -14988 -16948 0
-141 148 -14008 0
141 14008 0
-148 14008 0
-1121 1128 -14988 0
1121 14988 0
-1128 14988 0
141 -148 -15968 0
-141 15968 0
148 15968 0
1121 -1128 -16948 0
-1121 16948 0
1128 16948 0
12188 -11768 0
13168 -11768 0
-12188 -13168 11768 0
-12188 14148 0
-12188 16108 0
12188 -14148 -16108 0
-13168 15128 0
-13168 17088 0
13168 -15128 -17088 0
-281 288 -14148 0
281 14148 0
-288 14148 0
-1261 1268 -15128 0
1261 15128 0
-1268 15128 0
281 -288 -16108 0
-281 16108 0
288 16108 0
1261 -1268 -17088 0
-1261 17088 0
1268 17088 0
12328 -11768 0
13308 -11768 0
-12328 -13308 11768 0
-12328 14288 0
-12328 16248 0
12328 -14288 -16248 0
-13308 15268 0
-13308 17228 0
13308 -15268 -17228 0
-421 428 -14288 0
421 14288 0
-428 14288 0
-1401 1408 -15268 0
1401 15268 0
-1408 15268 0
421 -428 -16248 0
-421 16248 0
428 16248 0
1401 -1408 -17228 0
-1401 17228 0
1408 17228 0
12468 -11768 0
13448 -11768 0
-12468 -13448 11768 0
-12468 14428 0
-12468 16388 0
12468 -14428 -16388 0
-13448 15408 0
-13448 17368 0
13448 -15408 -17368 0
-561 568 -14428 0
561 14428 0
-568 14428 0
-1541 1548 -15408 0
1541 15408 0
-1548 15408 0
561 -568 -16388 0
-561 16388 0
568 16388 0
1541 -1548 -17368 0
-1541 17368 0
1548 17368 0
12608 -11768 0
13588 -11768 0
-12608 -13588 11768 0
-12608 14568 0
-12608 16528 0
12608 -14568 -16528 0
-13588 15548 0
-13588 17508 0
13588 -15548 -17508 0
-701 708 -14568 0
701 14568 0
-708 14568 0
-1681 1688 -15548 0
1681 15548 0
-1688 15548 0
701 -708 -16528 0
-701 16528 0
708 16528 0
1681 -1688 -17508 0
-1681 17508 0
1688 17508 0
12748 -11768 0
13728 -11768 0
-12748 -13728 11768 0
-12748 14708 0
-12748 16668 0
12748 -14708 -16668 0
-13728 15688 0
-13728 17648 0
13728 -15688 -17648 0
-841 848 -14708 0
841 14708 0
-848 14708 0
-1821 1828 -15688 0
1821 15688 0
-1828 15688 0
841 -848 -16668 0
-841 16668 0
848 16668 0
1821 -1828 -17648 0
-1821 17648 0
1828 17648 0
11909 -11769 0
12889 -11769 0
-11909 -12889 11769 0
-11909 13869 0
-11909 15829 0
11909 -13869 -15829 0
-12889 14849 0
-12889 16809 0
12889 -14849 -16809 0
-1 9 -13869 0
1 13869 0
-9 13869 0
-981 989 -14849 0
981 14849 0
-989 14849 0
1 -9 -15829 0
-1 15829 0
9 15829 0
981 -989 -16809 0
-981 16809 0
989 16809 0
12049 -11769 0
13029 -11769 0
-12049 -13029 11769 0
-12049 14009 0
-12049 15969 0
12049 -14009 -15969 0
-13029 14989 0
-13029 16949 0
13029 -14989 -16949 0
-141 149 -14009 0
141 14009 0
-149 14009 0
-1121 1129 -14989 0
1121 14989 0
-1129 14989 0
141 -149 -15969 0
-141 15969 0
149 15969 0
1121 -1129 -16949 0
-1121 16949 0
1129 16949 0
12189 -11769 0
13169 -11769 0
-12189 -13169 11769 0
-12189 14149 0
-12189 16109 0
12189 -14149 -16109 0
-13169 15129 0
-13169 17089 0
13169 -15129 -17089 0
-281 289 -14149 0
281 14149 0
-289 14149 0
-1261 1269 -15129 0
1261 15129 0
-1269 15129 0
281 -289 -16109 0
-281 16109 0
289 16109 0
1261 -1269 -17089 0
-1261 17089 0
1269 17089 0
12329 -11769 0
13309 -11769 0
-12329 -13309 11769 0
-12329 14289 0
-12329 16249 0
12329 -14289 -16249 0
-13309 15269 0
-13309 17229 0
13309 -15269 -17229 0
-421 429 -14289 0
421 14289 0
-429 14289 0
-1401 1409 -15269 0
1401 15269 0
-1409 15269 0
421 -429 -16249 0
-421 16249 0
429 16249 0
1401 -1409 -17229 0
-1401 17229 0
1409 17229 0
12469 -11769 0
13449 -11769 0
-12469 -13449 11769 0
-12469 14429 0
-12469 16389 0
12469 -14429 -16389 0
-13449 15409 0
-13449 17369 0
13449 -15409 -17369 0
-561 569 -14429 0
561 14429 0
-569 14429 0
-1541 1549 -15409 0
1541 15409 0
-1549 15409 0
561 -569 -16389 0
-561 16389 0
569 16389 0
1541 -1549 -17369 0
-1541 17369 0
1549 17369 0
12609 -11769 0
13589 -11769 0
-12609 -13589 11769 0
-12609 14569 0
-12609 16529 0
12609 -14569 -16529 0
-13589 15549 0
-13589 17509 0
13589 -15549 -17509 0
-701 709 -14569 0
701 14569 0
-709 14569 0
-1681 1689 -15549 0
1681 15549 0
-1689 15549 0
701 -709 -16529 0
-701 16529 0
709 16529 0
1681 -1689 -17509 0
-1681 17509 0
1689 17509 0
12749 -11769 0
13729 -11769 0
-12749 -13729 11769 0
-12749 14709 0
-12749 16669 0
12749 -14709 -16669 0
-13729 15689 0
-13729 17649 0
13729 -15689 -17649 0
-841 849 -14709 0
841 14709 0
-849 14709 0
-1821 1829 -15689 0
1821 15689 0
-1829 15689 0
841 -849 -16669 0
-841 16669 0
849 16669 0
1821 -1829 -17649 0
-1821 17649 0
1829 17649 0
11910 -11770 0
12890 -11770 0
-11910 -12890 11770 0
-11910 13870 0
-11910 15830 0
11910 -13870 -15830 0
-12890 14850 0
-12890 16810 0
12890 -14850 -16810 0
-1 10 -13870 0
1 13870 0
-10 13870 0
-981 990 -14850 0
981 14850 0
-990 14850 0
1 -10 -15830 0
-1 15830 0
10 15830 0
981 -990 -16810 0
-981 16810 0
990 16810 0
12050 -11770 0
13030 -11770 0
-12050 -13030 11770 0
-12050 14010 0
-12050 15970 0
12050 -14010 -15970 0
-13030 14990 0
-13030 16950 0
13030 -14990 -16950 0
-141 150 -14010 0
141 14010 0
-150 14010 0
-1121 1130 -14990 0
1121 14990 0
-1130 14990 0
141 -150 -15970 0
-141 15970 0
150 15970 0
1121 -1130 -16950 0
-1121 16950 0
1130 16950 0
12190 -11770 0
13170 -11770 0
-12190 -13170 11770 0
-12190 14150 0
-12190 16110 0
12190 -14150 -16110 0
-13170 15130 0
-13170 17090 0
13170 -15130 -17090 0
-281 290 -14150 0
281 14150 0
-290 14150 0
-1261 1270 -15130 0
1261 15130 0
-1270 15130 0
281 -290 -16110 0
-281 16110 0
290 16110 0
1261 -1270 -17090 0
-1261 17090 0
1270 17090 0
12330 -11770 0
13310 -11770 0
-12330 -13310 11770 0
-12330 14290 0
-12330 16250 0
12330 -14290 -16250 0
-13310 15270 0
-13310 17230 0
13310 -15270 -17230 0
-421 430 -14290 0
421 14290 0
-430 14290 0
-1401 1410 -15270 0
1401 15270 0
-1410 15270 0
421 -430 -16250 0
-421 16250 0
430 16250 0
1401 -1410 -17230 0
-1401 17230 0
1410 17230 0
12470 -11770 0
13450 -11770 0
-12470 -13450 11770 0
-12470 14430 0
-12470 16390 0
12470 -14430 -16390 0
-13450 15410 0
-13450 17370 0
13450 -15410 -17370 0
-561 570 -14430 0
561 14430 0
-570 14430 0
-1541 1550 -15410 0
1541 15410 0
-1550 15410 0
561 -570 -16390 0
-561 16390 0
570 16390 0
1541 -1550 -17370 0
-1541 17370 0
1550 17370 0
12610 -11770 0
13590 -11770 0
-12610 -13590 11770 0
-12610 14570 0
-12610 16530 0
12610 -14570 -16530 0
-13590 15550 0
-13590 17510 0
13590 -15550 -17510 0
-701 710 -14570 0
701 14570 0
-710 14570 0
-1681 1690 -15550 0
1681 15550 0
-1690 15550 0
701 -710 -16530 0
-701 16530 0
710 16530 0
1681 -1690 -17510 0
-1681 17510 0
1690 17510 0
12750 -11770 0
13730 -11770 0
-12750 -13730 11770 0
-12750 14710 0
-12750 16670 0
12750 -14710 -16670 0
-13730 15690 0
-13730 17650 0
13730 -15690 -17650 0
-841 850 -14710 0
841 14710 0
-850 14710 0
-1821 1830 -15690 0
1821 15690 0
-1830 15690 0
841 -850 -16670 0
-841 16670 0
850 16670 0
1821 -1830 -17650 0
-1821 17650 0
1830 17650 0
11911 -11771 0
12891 -11771 0
-11911 -12891 11771 0
-11911 13871 0
-11911 15831 0
11911 -13871 -15831 0
-12891 14851 0
-12891 16811 0
12891 -14851 -16811 0
-1 11 -13871 0
1 13871 0
-11 13871 0
-981 991 -14851 0
981 14851 0
-991 14851 0
1 -11 -15831 0
-1 15831 0
11 15831 0
981 -991 -16811 0
-981 16811 0
991 16811 0
12051 -11771 0
13031 -11771 0
-12051 -13031 11771 0
-12051 14011 0
-12051 15971 0
12051 -14011 -15971 0
-13031 14991 0
-13031 16951 0
13031 -14991 -16951 0
-141 151 -14011 0
141 14011 0
-151 14011 0
-1121 1131 -14991 0
1121 14991 0
-1131 14991 0
141 -151 -15971 0
-141 15971 0
151 15971 0
1121 -1131 -16951 0
-1121 16951 0
1131 16951 0
12191 -11771 0
13171 -11771 0
-12191 -13171 11771 0
-12191 14151 0
-12191 16111 0
12191 -14151 -16111 0
-13171 15131 0
-13171 17091 0
13171 -15131 -17091 0
-281 291 -14151 0
281 14151 0
-291 14151 0
-1261 1271 -15131 0
1261 15131 0
-1271 15131 0
281 -291 -16111 0
-281 16111 0
291 16111 0
1261 -1271 -17091 0
-1261 17091 0
1271 17091 0
12331 -11771 0
13311 -11771 0
-12331 -13311 11771 0
-12331 14291 0
-12331 16251 0
12331 -14291 -16251 0
-13311 15271 0
-13311 17231 0
13311 -15271 -17231 0
-421 431 -14291 0
421 14291 0
-431 14291 0
-1401 1411 -15271 0
1401 15271 0
-1411 15271 0
421 -431 -16251 0
-421 16251 0
431 16251 0
1401 -1411 -17231 0
-1401 17231 0
1411 17231 0
12471 -11771 0
13451 -11771 0
-12471 -13451 11771 0
-12471 14431 0
-12471 16391 0
12471 -14431 -16391 0
-13451 15411 0
-13451 17371 0
13451 -15411 -17371 0
-561 571 -14431 0
561 14431 0
-571 14431 0
-1541 1551 -15411 0
1541 15411 0
-1551 15411 0
561 -571 -16391 0
-561 16391 0
571 16391 0
1541 -1551 -17371 0
-1541 17371 0
1551 17371 0
12611 -11771 0
13591 -11771 0
-12611 -13591 11771 0
-12611 14571 0
-12611 16531 0
12611 -14571 -16531 0
-13591 15551 0
-13591 17511 0
13591 -15551 -17511 0
-701 711 -14571 0
701 14571 0
-711 14571 0
-1681 1691 -15551 0
1681 15551 0
-1691 15551 0
701 -711 -16531 0
-701 16531 0
711 16531 0
1681 -1691 -17511 0
-1681 17511 0
1691 17511 0
12751 -11771 0
13731 -11771 0
-12751 -13731 11771 0
-12751 14711 0
-12751 16671 0
12751 -14711 -16671 0
-13731 15691 0
-13731 17651 0
13731 -15691 -17651 0
-841 851 -14711 0
841 14711 0
-851 14711 0
-1821 1831 -15691 0
1821 15691 0
-1831 15691 0
841 -851 -16671 0
-841 16671 0
851 16671 0
1821 -1831 -17651 0
-1821 17651 0
1831 17651 0
11912 -11772 0
12892 -11772 0
-11912 -12892 11772 0
-11912 13872 0
-11912 15832 0
11912 -13872 -15832 0
-12892 14852 0
-12892 16812 0
12892 -14852 -16812 0
-1 12 -13872 0
1 13872 0
-12 13872 0
-981 992 -14852 0
981 14852 0
-992 14852 0
1 -12 -15832 0
-1 15832 0
12 15832 0
981 -992 -16812 0
-981 16812 0
992 16812 0
12052 -11772 0
13032 -11772 0
-12052 -13032 11772 0
-12052 14012 0
-12052 15972 0
12052 -14012 -15972 0
-13032 14992 0
-13032 16952 0
13032 -14992 -16952 0
-141 152 -14012 0
141 14012 0
-152 14012 0
-1121 1132 -14992 0
1121 14992 0
-1132 14992 0
141 -152 -15972 0
-141 15972 0
152 15972 0
1121 -1132 -16952 0
-1121 16952 0
1132 16952 0
12192 -11772 0
13172 -11772 0
-12192 -13172 11772 0
-12192 14152 0
-12192 16112 0
12192 -14152 -16112 0
-13172 15132 0
-13172 17092 0
13172 -15132 -17092 0
-281 292 -14152 0
281 14152 0
-292 14152 0
-1261 1272 -15132 0
1261 15132 0
-1272 15132 0
281 -292 -16112 0
-281 16112 0
292 16112 0
1261 -1272 -17092 0
-1261 17092 0
1272 17092 0
12332 -11772 0
13312 -11772 0
-12332 -13312 11772 0
-12332 14292 0
-12332 16252 0
12332 -14292 -16252 0
-13312 15272 0
-13312 17232 0
13312 -15272 -17232 0
-421 432 -14292 0
421 14292 0
-432 14292 0
-1401 1412 -15272 0
1401 15272 0
-1412 15272 0
421 -432 -16252 0
-421 16252 0
432 16252 0
1401 -1412 -17232 0
-1401 17232 0
1412 17232 0
12472 -11772 0
13452 -11772 0
-12472 -13452 11772 0
-12472 14432 0
-12472 16392 0
12472 -14432 -16392 0
-13452 15412 0
-13452 17372 0
13452 -15412 -17372 0
-561 572 -14432 0
561 14432 0
-572 14432 0
-1541 1552 -15412 0
1541 15412 0
-1552 15412 0
561 -572 -16392 0
-561 16392 0
572 16392 0
1541 -1552 -17372 0
-1541 17372 0
1552 17372 0
12612 -11772 0
13592 -11772 0
-12612 -13592 11772 0
-12612 14572 0
-12612 16532 0
12612 -14572 -16532 0
-13592 15552 0
-13592 17512 0
13592 -15552 -17512 0
-701 712 -14572 0
701 14572 0
-712 14572 0
-1681 1692 -15552 0
1681 15552 0
-1692 15552 0
701 -712 -16532 0
-701 16532 0
712 16532 0
1681 -1692 -17512 0
-1681 17512 0
1692 17512 0
12752 -11772 0
13732 -11772 0
-12752 -13732 11772 0
-12752 14712 0
-12752 16672 0
12752 -14712 -16672 0
-13732 15692 0
-13732 17652 0
13732 -15692 -17652 0
-841 852 -14712 0
841 14712 0
-852 14712 0
-1821 1832 -15692 0
1821 15692 0
-1832 15692 0
841 -852 -16672 0
-841 16672 0
852 16672 0
1821 -1832 -17652 0
-1821 17652 0
1832 17652 0
11913 -11773 0
12893 -11773 0
-11913 -12893 11773 0
-11913 13873 0
-11913 15833 0
11913 -13873 -15833 0
-12893 14853 0
-12893 16813 0
12893 -14853 -16813 0
-1 13 -13873 0
1 13873 0
-13 13873 0
-981 993 -14853 0
981 14853 0
-993 14853 0
1 -13 -15833 0
-1 15833 0
13 15833 0
981 -993 -16813 0
-981 16813 0
993 16813 0
12053 -11773 0
13033 -11773 0
-12053 -13033 11773 0
-12053 14013 0
-12053 15973 0
12053 -14013 -15973 0
-13033 14993 0
-13033 16953 0
13033 -14993 -16953 0
-141 153 -14013 0
141 14013 0
-153 14013 0
-1121 1133 -14993 0
1121 14993 0
-1133 14993 0
141 -153 -15973 0
-141 15973 0
153 15973 0
1121 -1133 -16953 0
-1121 16953 0
1133 16953 0
12193 -11773 0
13173 -11773 0
-12193 -13173 11773 0
-12193 14153 0
-12193 16113 0
12193 -14153 -16113 0
-13173 15133 0
-13173 17093 0
13173 -15133 -17093 0
-281 293 -14153 0
281 14153 0
-293 14153 0
-1261 1273 -15133 0
1261 15133 0
-1273 15133 0
281 -293 -16113 0
-281 16113 0
293 16113 0
1261 -1273 -17093 0
-1261 17093 0
1273 17093 0
12333 -11773 0
13313 -11773 0
-12333 -13313 11773 0
-12333 14293 0
-12333 16253 0
12333 -14293 -16253 0
-13313 15273 0
-13313 17233 0
13313 -15273 -17233 0
-421 433 -14293 0
421 14293 0
-433 14293 0
-1401 1413 -15273 0
1401 15273 0
-1413 15273 0
421 -433 -16253 0
-421 16253 0
433 16253 0
1401 -1413 -17233 0
-1401 17233 0
1413 17233 0
12473 -11773 0
13453 -11773 0
-12473 -13453 11773 0
-12473 14433 0
-12473 16393 0
12473 -14433 -16393 0
-13453 15413 0
-13453 17373 0
13453 -15413 -17373 0
-561 573 -14433 0
561 14433 0
-573 14433 0
-1541 1553 -15413 0
1541 15413 0
-1553 15413 0
561 -573 -16393 0
-561 16393 0
573 16393 0
1541 -1553 -17373 0
-1541 17373 0
1553 17373 0
12613 -11773 0
13593 -11773 0
-12613 -13593 11773 0
-12613 14573 0
-12613 16533 0
12613 -14573 -16533 0
-13593 15553 0
-13593 17513 0
13593 -15553 -17513 0
-701 713 -14573 0
701 14573 0
-713 14573 0
-1681 1693 -15553 0
1681 15553 0
-1693 15553 0
701 -713 -16533 0
-701 16533 0
713 16533 0
1681 -1693 -17513 0
-1681 17513 0
1693 17513 0
12753 -11773 0
13733 -11773 0
-12753 -13733 11773 0
-12753 14713 0
-12753 16673 0
12753 -14713 -16673 0
-13733 15693 0
-13733 17653 0
13733 -15693 -17653 0
-841 853 -14713 0
841 14713 0
-853 14713 0
-1821 1833 -15693 0
1821 15693 0
-1833 15693 0
841 -853 -16673 0
-841 16673 0
853 16673 0
1821 -1833 -17653 0
-1821 17653 0
1833 17653 0
11914 -11774 0
12894 -11774 0
-11914 -12894 11774 0
-11914 13874 0
-11914 15834 0
11914 -13874 -15834 0
-12894 14854 0
-12894 16814 0
12894 -14854 -16814 0
-1 14 -13874 0
1 13874 0
-14 13874 0
-981 994 -14854 0
981 14854 0
-994 14854 0
1 -14 -15834 0
-1 15834 0
14 15834 0
981 -994 -16814 0
-981 16814 0
994 16814 0
12054 -11774 0
13034 -11774 0
-12054 -13034 11774 0
-12054 14014 0
-12054 15974 0
12054 -14014 -15974 0
-13034 14994 0
-13034 16954 0
13034 -14994 -16954 0
-141 154 -14014 0
141 14014 0
-154 14014 0
-1121 1134 -14994 0
1121 14994 0
-1134 14994 0
141 -154 -15974 0
-141 15974 0
154 15974 0
1121 -1134 -16954 0
-1121 16954 0
1134 16954 0
12194 -11774 0
13174 -11774 0
-12194 -13174 11774 0
-12194 14154 0
-12194 16114 0
12194 -14154 -16114 0
-13174 15134 0
-13174 17094 0
13174 -15134 -17094 0
-281 294 -14154 0
281 14154 0
-294 14154 0
-1261 1274 -15134 0
1261 15134 0
-1274 15134 0
281 -294 -16114 0
-281 16114 0
294 16114 0
1261 -1274 -17094 0
-1261 17094 0
1274 17094 0
12334 -11774 0
13314 -11774 0
-12334 -13314 11774 0
-12334 14294 0
-12334 16254 0
12334 -14294 -16254 0
-13314 15274 0
-13314 17234 0
13314 -15274 -17234 0
-421 434 -14294 0
421 14294 0
-434 14294 0
-1401 1414 -15274 0
1401 15274 0
-1414 15274 0
421 -434 -16254 0
-421 16254 0
434 16254 0
1401 -1414 -17234 0
-1401 17234 0
1414 17234 0
12474 -11774 0
13454 -11774 0
-12474 -13454 11774 0
-12474 14434 0
-12474 16394 0
12474 -14434 -16394 0
-13454 15414 0
-13454 17374 0
13454 -15414 -17374 0
-561 574 -14434 0
561 14434 0
-574 14434 0
-1541 1554 -15414 0
1541 15414 0
-1554 15414 0
561 -574 -16394 0
-561 16394 0
574 16394 0
1541 -1554 -17374 0
-1541 17374 0
1554 17374 0
12614 -11774 0
13594 -11774 0
-12614 -13594 11774 0
-12614 14574 0
-12614 16534 0
12614 -14574 -16534 0
-13594 15554 0
-13594 17514 0
13594 -15554 -17514 0
-701 714 -14574 0
701 14574 0
-714 14574 0
-1681 1694 -15554 0
1681 15554 0
-1694 15554 0
701 -714 -16534 0
-701 16534 0
714 16534 0
1681 -1694 -17514 0
-1681 17514 0
1694 17514 0
12754 -11774 0
13734 -11774 0
-12754 -13734 11774 0
-12754 14714 0
-12754 16674 0
12754 -14714 -16674 0
-13734 15694 0
-13734 17654 0
13734 -15694 -17654 0
-841 854 -14714 0
841 14714 0
-854 14714 0
-1821 1834 -15694 0
1821 15694 0
-1834 15694 0
841 -854 -16674 0
-841 16674 0
854 16674 0
1821 -1834 -17654 0
-1821 17654 0
1834 17654 0
11915 -11775 0
12895 -11775 0
-11915 -12895 11775 0
-11915 13875 0
-11915 15835 0
11915 -13875 -15835 0
-12895 14855 0
-12895 16815 0
12895 -14855 -16815 0
-1 15 -13875 0
1 13875 0
-15 13875 0
-981 995 -14855 0
981 14855 0
-995 14855 0
1 -15 -15835 0
-1 15835 0
15 15835 0
981 -995 -16815 0
-981 16815 0
995 16815 0
12055 -11775 0
13035 -11775 0
-12055 -13035 11775 0
-12055 14015 0
-12055 15975 0
12055 -14015 -15975 0
-13035 14995 0
-13035 16955 0
13035 -14995 -16955 0
-141 155 -14015 0
141 14015 0
-155 14015 0
-1121 1135 -14995 0
1121 14995 0
-1135 14995 0
141 -155 -15975 0
-141 15975 0
155 15975 0
1121 -1135 -16955 0
-1121 16955 0
1135 16955 0
12195 -11775 0
13175 -11775 0
-12195 -13175 11775 0
-12195 14155 0
-12195 16115 0
12195 -14155 -16115 0
-13175 15135 0
-13175 17095 0
13175 -15135 -17095 0
-281 295 -14155 0
281 14155 0
-295 14155 0
-1261 1275 -15135 0
1261 15135 0
-1275 15135 0
281 -295 -16115 0
-281 16115 0
295 16115 0
1261 -1275 -17095 0
-1261 17095 0
1275 17095 0
12335 -11775 0
13315 -11775 0
-12335 -13315 11775 0
-12335 14295 0
-12335 16255 0
12335 -14295 -16255 0
-13315 15275 0
-13315 17235 0
13315 -15275 -17235 0
-421 435 -14295 0
421 14295 0
-435 14295 0
-1401 1415 -15275 0
1401 15275 0
-1415 15275 0
421 -435 -16255 0
-421 16255 0
435 16255 0
1401 -1415 -17235 0
-1401 17235 0
1415 17235 0
12475 -11775 0
13455 -11775 0
-12475 -13455 11775 0
-12475 14435 0
-12475 16395 0
12475 -14435 -16395 0
-13455 15415 0
-13455 17375 0
13455 -15415 -17375 0
-561 575 -14435 0
561 14435 0
-575 14435 0
-1541 1555 -15415 0
1541 15415 0
-1555 15415 0
561 -575 -16395 0
-561 16395 0
575 16395 0
1541 -1555 -17375 0
-1541 17375 0
1555 17375 0
12615 -11775 0
13595 -11775 0
-12615 -13595 11775 0
-12615 14575 0
-12615 16535 0
12615 -14575 -16535 0
-13595 15555 0
-13595 17515 0
13595 -15555 -17515 0
-701 715 -14575 0
701 14575 0
-715 14575 0
-1681 1695 -15555 0
1681 15555 0
-1695 15555 0
701 -715 -16535 0
-701 16535 0
715 16535 0
1681 -1695 -17515 0
-1681 17515 0
1695 17515 0
12755 -11775 0
13735 -11775 0
-12755 -13735 11775 0
-12755 14715 0
-12755 16675 0
12755 -14715 -16675 0
-13735 15695 0
-13735 17655 0
13735 -15695 -17655 0
-841 855 -14715 0
841 14715 0
-855 14715 0
-1821 1835 -15695 0
1821 15695 0
-1835 15695 0
841 -855 -16675 0
-841 16675 0
855 16675 0
1821 -1835 -17655 0
-1821 17655 0
1835 17655 0
11916 -11776 0
12896 -11776 0
-11916 -12896 11776 0
-11916 13876 0
-11916 15836 0
11916 -13876 -15836 0
-12896 14856 0
-12896 16816 0
12896 -14856 -16816 0
-1 16 -13876 0
1 13876 0
-16 13876 0
-981 996 -14856 0
981 14856 0
-996 14856 0
1 -16 -15836 0
-1 15836 0
16 15836 0
981 -996 -16816 0
-981 16816 0
996 16816 0
12056 -11776 0
13036 -11776 0
-12056 -13036 11776 0
-12056 14016 0
-12056 15976 0
12056 -14016 -15976 0
-13036 14996 0
-13036 16956 0
13036 -14996 -16956 0
-141 156 -14016 0
141 14016 0
-156 14016 0
-1121 1136 -14996 0
1121 14996 0
-1136 14996 0
141 -156 -15976 0
-141 15976 0
156 15976 0
1121 -1136 -16956 0
-1121 16956 0
1136 16956 0
12196 -11776 0
13176 -11776 0
-12196 -13176 11776 0
-12196 14156 0
-12196 16116 0
12196 -14156 -16116 0
-13176 15136 0
-13176 17096 0
13176 -15136 -17096 0
-281 296 -14156 0
281 14156 0
-296 14156 0
-1261 1276 -15136 0
1261 15136 0
-1276 15136 0
281 -296 -16116 0
-281 16116 0
296 16116 0
1261 -1276 -17096 0
-1261 17096 0
1276 17096 0
12336 -11776 0
13316 -11776 0
-12336 -13316 11776 0
-12336 14296 0
-12336 16256 0
12336 -14296 -16256 0
-13316 15276 0
-13316 17236 0
13316 -15276 -17236 0
-421 436 -14296 0
421 14296 0
-436 14296 0
-1401 1416 -15276 0
1401 15276 0
-1416 15276 0
421 -436 -16256 0
-421 16256 0
436 16256 0
1401 -1416 -17236 0
-1401 17236 0
1416 17236 0
12476 -11776 0
13456 -11776 0
-12476 -13456 11776 0
-12476 14436 0
-12476 16396 0
12476 -14436 -16396 0
-13456 15416 0
-13456 17376 0
13456 -15416 -17376 0
-561 576 -14436 0
561 14436 0
-576 14436 0
-1541 1556 -15416 0
1541 15416 0
-1556 15416 0
561 -576 -16396 0
-561 16396 0
576 16396 0
1541 -1556 -17376 0
-1541 17376 0
1556 17376 0
12616 -11776 0
13596 -11776 0
-12616 -13596 11776 0
-12616 14576 0
-12616 16536 0
12616 -14576 -16536 0
-13596 15556 0
-13596 17516 0
13596 -15556 -17516 0
-701 716 -14576 0
701 14576 0
-716 14576 0
-1681 1696 -15556 0
1681 15556 0
-1696 15556 0
701 -716 -16536 0
-701 16536 0
716 16536 0
1681 -1696 -17516 0
-1681 17516 0
1696 17516 0
12756 -11776 0
13736 -11776 0
-12756 -13736 11776 0
-12756 14716 0
-12756 16676 0
12756 -14716 -16676 0
-13736 15696 0
-13736 17656 0
13736 -15696 -17656 0
-841 856 -14716 0
841 14716 0
-856 14716 0
-1821 1836 -15696 0
1821 15696 0
-1836 15696 0
841 -856 -16676 0
-841 16676 0
856 16676 0
1821 -1836 -17656 0
-1821 17656 0
1836 17656 0
11917 -11777 0
12897 -11777 0
-11917 -12897 11777 0
-11917 13877 0
-11917 15837 0
11917 -13877 -15837 0
-12897 14857 0
-12897 16817 0
12897 -14857 -16817 0
-1 17 -13877 0
1 13877 0
-17 13877 0
-981 997 -14857 0
981 14857 0
-997 14857 0
1 -17 -15837 0
-1 15837 0
17 15837 0
981 -997 -16817 0
-981 16817 0
997 16817 0
12057 -11777 0
13037 -11777 0
-12057 -13037 11777 0
-12057 14017 0
-12057 15977 0
12057 -14017 -15977 0
-13037 14997 0
-13037 16957 0
13037 -14997 -16957 0
-141 157 -14017 0
141 14017 0
-157 14017 0
-1121 1137 -14997 0
1121 14997 0
-1137 14997 0
141 -157 -15977 0
-141 15977 0
157 15977 0
1121 -1137 -16957 0
-1121 16957 0
1137 16957 0
12197 -11777 0
13177 -11777 0
-12197 -13177 11777 0
-12197 14157 0
-12197 16117 0
12197 -14157 -16117 0
-13177 15137 0
-13177 17097 0
13177 -15137 -17097 0
-281 297 -14157 0
281 14157 0
-297 14157 0
-1261 1277 -15137 0
1261 15137 0
-1277 15137 0
281 -297 -16117 0
-281 16117 0
297 16117 0
1261 -1277 -17097 0
-1261 17097 0
1277 17097 0
12337 -11777 0
13317 -11777 0
-12337 -13317 11777 0
-12337 14297 0
-12337 16257 0
12337 -14297 -16257 0
-13317 15277 0
-13317 17237 0
13317 -15277 -17237 0
-421 437 -14297 0
421 14297 0
-437 14297 0
-1401 1417 -15277 0
1401 15277 0
-1417 15277 0
421 -437 -16257 0
-421 16257 0
437 16257 0
1401 -1417 -17237 0
-1401 17237 0
1417 17237 0
12477 -11777 0
13457 -11777 0
-12477 -13457 11777 0
-12477 14437 0
-12477 16397 0
12477 -14437 -16397 0
-13457 15417 0
-13457 17377 0
13457 -15417 -17377 0
-561 577 -14437 0
561 14437 0
-577 14437 0
-1541 1557 -15417 0
1541 15417 0
-1557 15417 0
561 -577 -16397 0
-561 16397 0
577 16397 0
1541 -1557 -17377 0
-1541 17377 0
1557 17377 0
12617 -11777 0
13597 -11777 0
-12617 -13597 11777 0
-12617 14577 0
-12617 16537 0
12617 -14577 -16537 0
-13597 15557 0
-13597 17517 0
13597 -15557 -17517 0
-701 717 -14577 0
701 14577 0
-717 14577 0
-1681 1697 -15557 0
1681 15557 0
-1697 15557 0
701 -717 -16537 0
-701 16537 0
717 16537 0
1681 -1697 -17517 0
-1681 17517 0
1697 17517 0
12757 -11777 0
13737 -11777 0
-12757 -13737 11777 0
-12757 14717 0
-12757 16677 0
12757 -14717 -16677 0
-13737 15697 0
-13737 17657 0
13737 -15697 -17657 0
-841 857 -14717 0
841 14717 0
-857 14717 0
-1821 1837 -15697 0
1821 15697 0
-1837 15697 0
841 -857 -16677 0
-841 16677 0
857 16677 0
1821 -1837 -17657 0
-1821 17657 0
1837 17657 0
11918 -11778 0
12898 -11778 0
-11918 -12898 11778 0
-11918 13878 0
-11918 15838 0
11918 -13878 -15838 0
-12898 14858 0
-12898 16818 0
12898 -14858 -16818 0
-1 18 -13878 0
1 13878 0
-18 13878 0
-981 998 -14858 0
981 14858 0
-998 14858 0
1 -18 -15838 0
-1 15838 0
18 15838 0
981 -998 -16818 0
-981 16818 0
998 16818 0
12058 -11778 0
13038 -11778 0
-12058 -13038 11778 0
-12058 14018 0
-12058 15978 0
12058 -14018 -15978 0
-13038 14998 0
-13038 16958 0
13038 -14998 -16958 0
-141 158 -14018 0
141 14018 0
-158 14018 0
-1121 1138 -14998 0
1121 14998 0
-1138 14998 0
141 -158 -15978 0
-141 15978 0
158 15978 0
1121 -1138 -16958 0
-1121 16958 0
1138 16958 0
12198 -11778 0
13178 -11778 0
-12198 -13178 11778 0
-12198 14158 0
-12198 16118 0
12198 -14158 -16118 0
-13178 15138 0
-13178 17098 0
13178 -15138 -17098 0
-281 298 -14158 0
281 14158 0
-298 14158 0
-1261 1278 -15138 0
1261 15138 0
-1278 15138 0
281 -298 -16118 0
-281 16118 0
298 16118 0
1261 -1278 -17098 0
-1261 17098 0
1278 17098 0
12338 -11778 0
13318 -11778 0
-12338 -13318 11778 0
-12338 14298 0
-12338 16258 0
12338 -14298 -16258 0
-13318 15278 0
-13318 17238 0
13318 -15278 -17238 0
-421 438 -14298 0
421 14298 0
-438 14298 0
-1401 1418 -15278 0
1401 15278 0
-1418 15278 0
421 -438 -16258 0
-421 16258 0
438 16258 0
1401 -1418 -17238 0
-1401 17238 0
1418 17238 0
12478 -11778 0
13458 -11778 0
-12478 -13458 11778 0
-12478 14438 0
-12478 16398 0
12478 -14438 -16398 0
-13458 15418 0
-13458 17378 0
13458 -15418 -17378 0
-561 578 -14438 0
561 14438 0
-578 14438 0
-1541 1558 -15418 0
1541 15418 0
-1558 15418 0
561 -578 -16398 0
-561 16398 0
578 16398 0
1541 -1558 -17378 0
-1541 17378 0
1558 17378 0
12618 -11778 0
13598 -11778 0
-12618 -13598 11778 0
-12618 14578 0
-12618 16538 0
12618 -14578 -16538 0
-13598 15558 0
-13598 17518 0
13598 -15558 -17518 0
-701 718 -14578 0
701 14578 0
-718 14578 0
-1681 1698 -15558 0
1681 15558 0
-1698 15558 0
701 -718 -16538 0
-701 16538 0
718 16538 0
1681 -1698 -17518 0
-1681 17518 0
1698 17518 0
12758 -11778 0
13738 -11778 0
-12758 -13738 11778 0
-12758 14718 0
-12758 16678 0
12758 -14718 -16678 0
-13738 15698 0
-13738 17658 0
13738 -15698 -17658 0
-841 858 -14718 0
841 14718 0
-858 14718 0
-1821 1838 -15698 0
1821 15698 0
-1838 15698 0
841 -858 -16678 0
-841 16678 0
858 16678 0
1821 -1838 -17658 0
-1821 17658 0
1838 17658 0
11919 -11779 0
12899 -11779 0
-11919 -12899 11779 0
-11919 13879 0
-11919 15839 0
11919 -13879 -15839 0
-12899 14859 0
-12899 16819 0
12899 -14859 -16819 0
-1 19 -13879 0
1 13879 0
-19 13879 0
-981 999 -14859 0
981 14859 0
-999 14859 0
1 -19 -15839 0
-1 15839 0
19 15839 0
981 -999 -16819 0
-981 16819 0
999 16819 0
12059 -11779 0
13039 -11779 0
-12059 -13039 11779 0
-12059 14019 0
-12059 15979 0
12059 -14019 -15979 0
-13039 14999 0
-13039 16959 0
13039 -14999 -16959 0
-141 159 -14019 0
141 14019 0
-159 14019 0
-1121 1139 -14999 0
1121 14999 0
-1139 14999 0
141 -159 -15979 0
-141 15979 0
159 15979 0
1121 -1139 -16959 0
-1121 16959 0
1139 16959 0
12199 -11779 0
13179 -11779 0
-12199 -13179 11779 0
-12199 14159 0
-12199 16119 0
12199 -14159 -16119 0
-13179 15139 0
-13179 17099 0
13179 -15139 -17099 0
-281 299 -14159 0
281 14159 0
-299 14159 0
-1261 1279 -15139 0
1261 15139 0
-1279 15139 0
281 -299 -16119 0
-281 16119 0
299 16119 0
1261 -1279 -17099 0
-1261 17099 0
1279 17099 0
12339 -11779 0
13319 -11779 0
-12339 -13319 11779 0
-12339 14299 0
-12339 16259 0
12339 -14299 -16259 0
-13319 15279 0
-13319 17239 0
13319 -15279 -17239 0
-421 439 -14299 0
421 14299 0
-439 14299 0
-1401 1419 -15279 0
1401 15279 0
-1419 15279 0
421 -439 -16259 0
-421 16259 0
439 16259 0
1401 -1419 -17239 0
-1401 17239 0
1419 17239 0
12479 -11779 0
13459 -11779 0
-12479 -13459 11779 0
-12479 14439 0
-12479 16399 0
12479 -14439 -16399 0
-13459 15419 0
-13459 17379 0
13459 -15419 -17379 0
-561 579 -14439 0
561 14439 0
-579 14439 0
-1541 1559 -15419 0
1541 15419 0
-1559 15419 0
561 -579 -16399 0
-561 16399 0
579 16399 0
1541 -1559 -17379 0
-1541 17379 0
1559 17379 0
12619 -11779 0
13599 -11779 0
-12619 -13599 11779 0
-12619 14579 0
-12619 16539 0
12619 -14579 -16539 0
-13599 15559 0
-13599 17519 0
13599 -15559 -17519 0
-701 719 -14579 0
701 14579 0
-719 14579 0
-1681 1699 -15559 0
1681 15559 0
-1699 15559 0
701 -719 -16539 0
-701 16539 0
719 16539 0
1681 -1699 -17519 0
-1681 17519 0
1699 17519 0
12759 -11779 0
13739 -11779 0
-12759 -13739 11779 0
-12759 14719 0
-12759 16679 0
12759 -14719 -16679 0
-13739 15699 0
-13739 17659 0
13739 -15699 -17659 0
-841 859 -14719 0
841 14719 0
-859 14719 0
-1821 1839 -15699 0
1821 15699 0
-1839 15699 0
841 -859 -16679 0
-841 16679 0
859 16679 0
1821 -1839 -17659 0
-1821 17659 0
1839 17659 0
11920 -11780 0
12900 -11780 0
-11920 -12900 11780 0
-11920 13880 0
-11920 15840 0
11920 -13880 -15840 0
-12900 14860 0
-12900 16820 0
12900 -14860 -16820 0
-1 20 -13880 0
1 13880 0
-20 13880 0
-981 1000 -14860 0
981 14860 0
-1000 14860 0
1 -20 -15840 0
-1 15840 0
20 15840 0
981 -1000 -16820 0
-981 16820 0
1000 16820 0
12060 -11780 0
13040 -11780 0
-12060 -13040 11780 0
-12060 14020 0
-12060 15980 0
12060 -14020 -15980 0
-13040 15000 0
-13040 16960 0
13040 -15000 -16960 0
-141 160 -14020 0
141 14020 0
-160 14020 0
-1121 1140 -15000 0
1121 15000 0
-1140 15000 0
141 -160 -15980 0
-141 15980 0
160 15980 0
1121 -1140 -16960 0
-1121 16960 0
1140 16960 0
12200 -11780 0
13180 -11780 0
-12200 -13180 11780 0
-12200 14160 0
-12200 16120 0
12200 -14160 -16120 0
-13180 15140 0
-13180 17100 0
13180 -15140 -17100 0
-281 300 -14160 0
281 14160 0
-300 14160 0
-1261 1280 -15140 0
1261 15140 0
-1280 15140 0
281 -300 -16120 0
-281 16120 0
300 16120 0
1261 -1280 -17100 0
-1261 17100 0
1280 17100 0
12340 -11780 0
13320 -11780 0
-12340 -13320 11780 0
-12340 14300 0
-12340 16260 0
12340 -14300 -16260 0
-13320 15280 0
-13320 17240 0
13320 -15280 -17240 0
-421 440 -14300 0
421 14300 0
-440 14300 0
-1401 1420 -15280 0
1401 15280 0
-1420 15280 0
421 -440 -16260 0
-421 16260 0
440 16260 0
1401 -1420 -17240 0
-1401 17240 0
1420 17240 0
12480 -11780 0
13460 -11780 0
-12480 -13460 11780 0
-12480 14440 0
-12480 16400 0
12480 -14440 -16400 0
-13460 15420 0
-13460 17380 0
13460 -15420 -17380 0
-561 580 -14440 0
561 14440 0
-580 14440 0
-1541 1560 -15420 0
1541 15420 0
-1560 15420 0
561 -580 -16400 0
-561 16400 0
580 16400 0
1541 -1560 -17380 0
-1541 17380 0
1560 17380 0
12620 -11780 0
13600 -11780 0
-12620 -13600 11780 0
-12620 14580 0
-12620 16540 0
12620 -14580 -16540 0
-13600 15560 0
-13600 17520 0
13600 -15560 -17520 0
-701 720 -14580 0
701 14580 0
-720 14580 0
-1681 1700 -15560 0
1681 15560 0
-1700 15560 0
701 -720 -16540 0
-701 16540 0
720 16540 0
1681 -1700 -17520 0
-1681 17520 0
1700 17520 0
12760 -11780 0
13740 -11780 0
-12760 -13740 11780 0
-12760 14720 0
-12760 16680 0
12760 -14720 -16680 0
-13740 15700 0
-13740 17660 0
13740 -15700 -17660 0
-841 860 -14720 0
841 14720 0
-860 14720 0
-1821 1840 -15700 0
1821 15700 0
-1840 15700 0
841 -860 -16680 0
-841 16680 0
860 16680 0
1821 -1840 -17660 0
-1821 17660 0
1840 17660 0
11921 -11781 0
12901 -11781 0
-11921 -12901 11781 0
-11921 13881 0
-11921 15841 0
11921 -13881 -15841 0
-12901 14861 0
-12901 16821 0
12901 -14861 -16821 0
-1 21 -13881 0
1 13881 0
-21 13881 0
-981 1001 -14861 0
981 14861 0
-1001 14861 0
1 -21 -15841 0
-1 15841 0
21 15841 0
981 -1001 -16821 0
-981 16821 0
1001 16821 0
12061 -11781 0
13041 -11781 0
-12061 -13041 11781 0
-12061 14021 0
-12061 15981 0
12061 -14021 -15981 0
-13041 15001 0
-13041 16961 0
13041 -15001 -16961 0
-141 161 -14021 0
141 14021 0
-161 14021 0
-1121 1141 -15001 0
1121 15001 0
-1141 15001 0
141 -161 -15981 0
-141 15981 0
161 15981 0
1121 -1141 -16961 0
-1121 16961 0
1141 16961 0
12201 -11781 0
13181 -11781 0
-12201 -13181 11781 0
-12201 14161 0
-12201 16121 0
12201 -14161 -16121 0
-13181 15141 0
-13181 17101 0
13181 -15141 -17101 0
-281 301 -14161 0
281 14161 0
-301 14161 0
-1261 1281 -15141 0
1261 15141 0
-1281 15141 0
281 -301 -16121 0
-281 16121 0
301 16121 0
1261 -1281 -17101 0
-1261 17101 0
1281 17101 0
12341 -11781 0
13321 -11781 0
-12341 -13321 11781 0
-12341 14301 0
-12341 16261 0
12341 -14301 -16261 0
-13321 15281 0
-13321 17241 0
13321 -15281 -17241 0
-421 441 -14301 0
421 14301 0
-441 14301 0
-1401 1421 -15281 0
1401 15281 0
-1421 15281 0
421 -441 -16261 0
-421 16261 0
441 16261 0
1401 -1421 -17241 0
-1401 17241 0
1421 17241 0
12481 -11781 0
13461 -11781 0
-12481 -13461 11781 0
-12481 14441 0
-12481 16401 0
12481 -14441 -16401 0
-13461 15421 0
-13461 17381 0
13461 -15421 -17381 0
-561 581 -14441 0
561 14441 0
-581 14441 0
-1541 1561 -15421 0
1541 15421 0
-1561 15421 0
561 -581 -16401 0
-561 16401 0
581 16401 0
1541 -1561 -17381 0
-1541 17381 0
1561 17381 0
12621 -11781 0
13601 -11781 0
-12621 -13601 11781 0
-12621 14581 0
-12621 16541 0
12621 -14581 -16541 0
-13601 15561 0
-13601 17521 0
13601 -15561 -17521 0
-701 721 -14581 0
701 14581 0
-721 14581 0
-1681 1701 -15561 0
1681 15561 0
-1701 15561 0
701 -721 -16541 0
-701 16541 0
721 16541 0
1681 -1701 -17521 0
-1681 17521 0
1701 17521 0
12761 -11781 0
13741 -11781 0
-12761 -13741 11781 0
-12761 14721 0
-12761 16681 0
12761 -14721 -16681 0
-13741 15701 0
-13741 17661 0
13741 -15701 -17661 0
-841 861 -14721 0
841 14721 0
-861 14721 0
-1821 1841 -15701 0
1821 15701 0
-1841 15701 0
841 -861 -16681 0
-841 16681 0
861 16681 0
1821 -1841 -17661 0
-1821 17661 0
1841 17661 0
11922 -11782 0
12902 -11782 0
-11922 -12902 11782 0
-11922 13882 0
-11922 15842 0
11922 -13882 -15842 0
-12902 14862 0
-12902 16822 0
12902 -14862 -16822 0
-1 22 -13882 0
1 13882 0
-22 13882 0
-981 1002 -14862 0
981 14862 0
-1002 14862 0
1 -22 -15842 0
-1 15842 0
22 15842 0
981 -1002 -16822 0
-981 16822 0
1002 16822 0
12062 -11782 0
13042 -11782 0
-12062 -13042 11782 0
-12062 14022 0
-12062 15982 0
12062 -14022 -15982 0
-13042 15002 0
-13042 16962 0
13042 -15002 -16962 0
-141 162 -14022 0
141 14022 0
-162 14022 0
-1121 1142 -15002 0
1121 15002 0
-1142 15002 0
141 -162 -15982 0
-141 15982 0
162 15982 0
1121 -1142 -16962 0
-1121 16962 0
1142 16962 0
12202 -11782 0
13182 -11782 0
-12202 -13182 11782 0
-12202 14162 0
-12202 16122 0
12202 -14162 -16122 0
-13182 15142 0
-13182 17102 0
13182 -15142 -17102 0
-281 302 -14162 0
281 14162 0
-302 14162 0
-1261 1282 -15142 0
1261 15142 0
-1282 15142 0
281 -302 -16122 0
-281 16122 0
302 16122 0
1261 -1282 -17102 0
-1261 17102 0
1282 17102 0
12342 -11782 0
13322 -11782 0
-12342 -13322 11782 0
-12342 14302 0
-12342 16262 0
12342 -14302 -16262 0
-13322 15282 0
-13322 17242 0
13322 -15282 -17242 0
-421 442 -14302 0
421 14302 0
-442 14302 0
-1401 1422 -15282 0
1401 15282 0
-1422 15282 0
421 -442 -16262 0
-421 16262 0
442 16262 0
1401 -1422 -17242 0
-1401 17242 0
1422 17242 0
12482 -11782 0
13462 -11782 0
-12482 -13462 11782 0
-12482 14442 0
-12482 16402 0
12482 -14442 -16402 0
-13462 15422 0
-13462 17382 0
13462 -15422 -17382 0
-561 582 -14442 0
561 14442 0
-582 14442 0
-1541 1562 -15422 0
1541 15422 0
-1562 15422 0
561 -582 -16402 0
-561 16402 0
582 16402 0
1541 -1562 -17382 0
-1541 17382 0
1562 17382 0
12622 -11782 0
13602 -11782 0
-12622 -13602 11782 0
-12622 14582 0
-12622 16542 0
12622 -14582 -16542 0
-13602 15562 0
-13602 17522 0
13602 -15562 -17522 0
-701 722 -14582 0
701 14582 0
-722 14582 0
-1681 1702 -15562 0
1681 15562 0
-1702 15562 0
701 -722 -16542 0
-701 16542 0
722 16542 0
1681 -1702 -17522 0
-1681 17522 0
1702 17522 0
12762 -11782 0
13742 -11782 0
-12762 -13742 11782 0
-12762 14722 0
-12762 16682 0
12762 -14722 -16682 0
-13742 15702 0
-13742 17662 0
13742 -15702 -17662 0
-841 862 -14722 0
841 14722 0
-862 14722 0
-1821 1842 -15702 0
1821 15702 0
-1842 15702 0
841 -862 -16682 0
-841 16682 0
862 16682 0
1821 -1842 -17662 0
-1821 17662 0
1842 17662 0
11923 -11783 0
12903 -11783 0
-11923 -12903 11783 0
-11923 13883 0
-11923 15843 0
11923 -13883 -15843 0
-12903 14863 0
-12903 16823 0
12903 -14863 -16823 0
-1 23 -13883 0
1 13883 0
-23 13883 0
-981 1003 -14863 0
981 14863 0
-1003 14863 0
1 -23 -15843 0
-1 15843 0
23 15843 0
981 -1003 -16823 0
-981 16823 0
1003 16823 0
12063 -11783 0
13043 -11783 0
-12063 -13043 11783 0
-12063 14023 0
-12063 15983 0
12063 -14023 -15983 0
-13043 15003 0
-13043 16963 0
13043 -15003 -16963 0
-141 163 -14023 0
141 14023 0
-163 14023 0
-1121 1143 -15003 0
1121 15003 0
-1143 15003 0
141 -163 -15983 0
-141 15983 0
163 15983 0
1121 -1143 -16963 0
-1121 16963 0
1143 16963 0
12203 -11783 0
13183 -11783 0
-12203 -13183 11783 0
-12203 14163 0
-12203 16123 0
12203 -14163 -16123 0
-13183 15143 0
-13183 17103 0
13183 -15143 -17103 0
-281 303 -14163 0
281 14163 0
-303 14163 0
-1261 1283 -15143 0
1261 15143 0
-1283 15143 0
281 -303 -16123 0
-281 16123 0
303 16123 0
1261 -1283 -17103 0
-1261 17103 0
1283 17103 0
12343 -11783 0
13323 -11783 0
-12343 -13323 11783 0
-12343 14303 0
-12343 16263 0
12343 -14303 -16263 0
-13323 15283 0
-13323 17243 0
13323 -15283 -17243 0
-421 443 -14303 0
421 14303 0
-443 14303 0
-1401 1423 -15283 0
1401 15283 0
-1423 15283 0
421 -443 -16263 0
-421 16263 0
443 16263 0
1401 -1423 -17243 0
-1401 17243 0
1423 17243 0
12483 -11783 0
13463 -11783 0
-12483 -13463 11783 0
-12483 14443 0
-12483 16403 0
12483 -14443 -16403 0
-13463 15423 0
-13463 17383 0
13463 -15423 -17383 0
-561 583 -14443 0
561 14443 0
-583 14443 0
-1541 1563 -15423 0
1541 15423 0
-1563 15423 0
561 -583 -16403 0
-561 16403 0
583 16403 0
1541 -1563 -17383 0
-1541 17383 0
1563 17383 0
12623 -11783 0
13603 -11783 0
-12623 -13603 11783 0
-12623 14583 0
-12623 16543 0
12623 -14583 -16543 0
-13603 15563 0
-13603 17523 0
13603 -15563 -17523 0
-701 723 -14583 0
701 14583 0
-723 14583 0
-1681 1703 -15563 0
1681 15563 0
-1703 15563 0
701 -723 -16543 0
-701 16543 0
723 16543 0
1681 -1703 -17523 0
-1681 17523 0
1703 17523 0
12763 -11783 0
13743 -11783 0
-12763 -13743 11783 0
-12763 14723 0
-12763 16683 0
12763 -14723 -16683 0
-13743 15703 0
-13743 17663 0
13743 -15703 -17663 0
-841 863 -14723 0
841 14723 0
-863 14723 0
-1821 1843 -15703 0
1821 15703 0
-1843 15703 0
841 -863 -16683 0
-841 16683 0
863 16683 0
1821 -1843 -17663 0
-1821 17663 0
1843 17663 0
11924 -11784 0
12904 -11784 0
-11924 -12904 11784 0
-11924 13884 0
-11924 15844 0
11924 -13884 -15844 0
-12904 14864 0
-12904 16824 0
12904 -14864 -16824 0
-1 24 -13884 0
1 13884 0
-24 13884 0
-981 1004 -14864 0
981 14864 0
-1004 14864 0
1 -24 -15844 0
-1 15844 0
24 15844 0
981 -1004 -16824 0
-981 16824 0
1004 16824 0
12064 -11784 0
13044 -11784 0
-12064 -13044 11784 0
-12064 14024 0
-12064 15984 0
12064 -14024 -15984 0
-13044 15004 0
-13044 16964 0
13044 -15004 -16964 0
-141 164 -14024 0
141 14024 0
-164 14024 0
-1121 1144 -15004 0
1121 15004 0
-1144 15004 0
141 -164 -15984 0
-141 15984 0
164 15984 0
1121 -1144 -16964 0
-1121 16964 0
1144 16964 0
12204 -11784 0
13184 -11784 0
-12204 -13184 11784 0
-12204 14164 0
-12204 16124 0
12204 -14164 -16124 0
-13184 15144 0
-13184 17104 0
13184 -15144 -17104 0
-281 304 -14164 0
281 14164 0
-304 14164 0
-1261 1284 -15144 0
1261 15144 0
-1284 15144 0
281 -304 -16124 0
-281 16124 0
304 16124 0
1261 -1284 -17104 0
-1261 17104 0
1284 17104 0
12344 -11784 0
13324 -11784 0
-12344 -13324 11784 0
-12344 14304 0
-12344 16264 0
12344 -14304 -16264 0
-13324 15284 0
-13324 17244 0
13324 -15284 -17244 0
-421 444 -14304 0
421 14304 0
-444 14304 0
-1401 1424 -15284 0
1401 15284 0
-1424 15284 0
421 -444 -16264 0
-421 16264 0
444 16264 0
1401 -1424 -17244 0
-1401 17244 0
1424 17244 0
12484 -11784 0
13464 -11784 0
-12484 -13464 11784 0
-12484 14444 0
-12484 16404 0
12484 -14444 -16404 0
-13464 15424 0
-13464 17384 0
13464 -15424 -17384 0
-561 584 -14444 0
561 14444 0
-584 14444 0
-1541 1564 -15424 0
1541 15424 0
-1564 15424 0
561 -584 -16404 0
-561 16404 0
584 16404 0
1541 -1564 -17384 0
-1541 17384 0
1564 17384 0
12624 -11784 0
13604 -11784 0
-12624 -13604 11784 0
-12624 14584 0
-12624 16544 0
12624 -14584 -16544 0
-13604 15564 0
-13604 17524 0
13604 -15564 -17524 0
-701 724 -14584 0
701 14584 0
-724 14584 0
-1681 1704 -15564 0
1681 15564 0
-1704 15564 0
701 -724 -16544 0
-701 16544 0
724 16544 0
1681 -1704 -17524 0
-1681 17524 0
1704 17524 0
12764 -11784 0
13744 -11784 0
-12764 -13744 11784 0
-12764 14724 0
-12764 16684 0
12764 -14724 -16684 0
-13744 15704 0
-13744 17664 0
13744 -15704 -17664 0
-841 864 -14724 0
841 14724 0
-864 14724 0
-1821 1844 -15704 0
1821 15704 0
-1844 15704 0
841 -864 -16684 0
-841 16684 0
864 16684 0
1821 -1844 -17664 0
-1821 17664 0
1844 17664 0
11925 -11785 0
12905 -11785 0
-11925 -12905 11785 0
-11925 13885 0
-11925 15845 0
11925 -13885 -15845 0
-12905 14865 0
-12905 16825 0
12905 -14865 -16825 0
-1 25 -13885 0
1 13885 0
-25 13885 0
-981 1005 -14865 0
981 14865 0
-1005 14865 0
1 -25 -15845 0
-1 15845 0
25 15845 0
981 -1005 -16825 0
-981 16825 0
1005 16825 0
12065 -11785 0
13045 -11785 0
-12065 -13045 11785 0
-12065 14025 0
-12065 15985 0
12065 -14025 -15985 0
-13045 15005 0
-13045 16965 0
13045 -15005 -16965 0
-141 165 -14025 0
141 14025 0
-165 14025 0
-1121 1145 -15005 0
1121 15005 0
-1145 15005 0
141 -165 -15985 0
-141 15985 0
165 15985 0
1121 -1145 -16965 0
-1121 16965 0
1145 16965 0
12205 -11785 0
13185 -11785 0
-12205 -13185 11785 0
-12205 14165 0
-12205 16125 0
12205 -14165 -16125 0
-13185 15145 0
-13185 17105 0
13185 -15145 -17105 0
-281 305 -14165 0
281 14165 0
-305 14165 0
-1261 1285 -15145 0
1261 15145 0
-1285 15145 0
281 -305 -16125 0
-281 16125 0
305 16125 0
1261 -1285 -17105 0
-1261 17105 0
1285 17105 0
12345 -11785 0
13325 -11785 0
-12345 -13325 11785 0
-12345 14305 0
-12345 16265 0
12345 -14305 -16265 0
-13325 15285 0
-13325 17245 0
13325 -15285 -17245 0
-421 445 -14305 0
421 14305 0
-445 14305 0
-1401 1425 -15285 0
1401 15285 0
-1425 15285 0
421 -445 -16265 0
-421 16265 0
445 16265 0
1401 -1425 -17245 0
-1401 17245 0
1425 17245 0
12485 -11785 0
13465 -11785 0
-12485 -13465 11785 0
-12485 14445 0
-12485 16405 0
12485 -14445 -16405 0
-13465 15425 0
-13465 17385 0
13465 -15425 -17385 0
-561 585 -14445 0
561 14445 0
-585 14445 0
-1541 1565 -15425 0
1541 15425 0
-1565 15425 0
561 -585 -16405 0
-561 16405 0
585 16405 0
1541 -1565 -17385 0
-1541 17385 0
1565 17385 0
12625 -11785 0
13605 -11785 0
-12625 -13605 11785 0
-12625 14585 0
-12625 16545 0
12625 -14585 -16545 0
-13605 15565 0
-13605 17525 0
13605 -15565 -17525 0
-701 725 -14585 0
701 14585 0
-725 14585 0
-1681 1705 -15565 0
1681 15565 0
-1705 15565 0
701 -725 -16545 0
-701 16545 0
725 16545 0
1681 -1705 -17525 0
-1681 17525 0
1705 17525 0
12765 -11785 0
13745 -11785 0
-12765 -13745 11785 0
-12765 14725 0
-12765 16685 0
12765 -14725 -16685 0
-13745 15705 0
-13745 17665 0
13745 -15705 -17665 0
-841 865 -14725 0
841 14725 0
-865 14725 0
-1821 1845 -15705 0
1821 15705 0
-1845 15705 0
841 -865 -16685 0
-841 16685 0
865 16685 0
1821 -1845 -17665 0
-1821 17665 0
1845 17665 0
11926 -11786 0
12906 -11786 0
-11926 -12906 11786 0
-11926 13886 0
-11926 15846 0
11926 -13886 -15846 0
-12906 14866 0
-12906 16826 0
12906 -14866 -16826 0
-1 26 -13886 0
1 13886 0
-26 13886 0
-981 1006 -14866 0
981 14866 0
-1006 14866 0
1 -26 -15846 0
-1 15846 0
26 15846 0
981 -1006 -16826 0
-981 16826 0
1006 16826 0
12066 -11786 0
13046 -11786 0
-12066 -13046 11786 0
-12066 14026 0
-12066 15986 0
12066 -14026 -15986 0
-13046 15006 0
-13046 16966 0
13046 -15006 -16966 0
-141 166 -14026 0
141 14026 0
-166 14026 0
-1121 1146 -15006 0
1121 15006 0
-1146 15006 0
141 -166 -15986 0
-141 15986 0
166 15986 0
1121 -1146 -16966 0
-1121 16966 0
1146 16966 0
12206 -11786 0
13186 -11786 0
-12206 -13186 11786 0
-12206 14166 0
-12206 16126 0
12206 -14166 -16126 0
-13186 15146 0
-13186 17106 0
13186 -15146 -17106 0
-281 306 -14166 0
281 14166 0
-306 14166 0
-1261 1286 -15146 0
1261 15146 0
-1286 15146 0
281 -306 -16126 0
-281 16126 0
306 16126 0
1261 -1286 -17106 0
-1261 17106 0
1286 17106 0
12346 -11786 0
13326 -11786 0
-12346 -13326 11786 0
-12346 14306 0
-12346 16266 0
12346 -14306 -16266 0
-13326 15286 0
-13326 17246 0
13326 -15286 -17246 0
-421 446 -14306 0
421 14306 0
-446 14306 0
-1401 1426 -15286 0
1401 15286 0
-1426 15286 0
421 -446 -16266 0
-421 16266 0
446 16266 0
1401 -1426 -17246 0
-1401 17246 0
1426 17246 0
12486 -11786 0
13466 -11786 0
-12486 -13466 11786 0
-12486 14446 0
-12486 16406 0
12486 -14446 -16406 0
-13466 15426 0
-13466 17386 0
13466 -15426 -17386 0
-561 586 -14446 0
561 14446 0
-586 14446 0
-1541 1566 -15426 0
1541 15426 0
-1566 15426 0
561 -586 -16406 0
-561 16406 0
586 16406 0
1541 -1566 -17386 0
-1541 17386 0
1566 17386 0
12626 -11786 0
13606 -11786 0
-12626 -13606 11786 0
-12626 14586 0
-12626 16546 0
12626 -14586 -16546 0
-13606 15566 0
-13606 17526 0
13606 -15566 -17526 0
-701 726 -14586 0
701 14586 0
-726 14586 0
-1681 1706 -15566 0
1681 15566 0
-1706 15566 0
701 -726 -16546 0
-701 16546 0
726 16546 0
1681 -1706 -17526 0
-1681 17526 0
1706 17526 0
12766 -11786 0
13746 -11786 0
-12766 -13746 11786 0
-12766 14726 0
-12766 16686 0
12766 -14726 -16686 0
-13746 15706 0
-13746 17666 0
13746 -15706 -17666 0
-841 866 -14726 0
841 14726 0
-866 14726 0
-1821 1846 -15706 0
1821 15706 0
-1846 15706 0
841 -866 -16686 0
-841 16686 0
866 16686 0
1821 -1846 -17666 0
-1821 17666 0
1846 17666 0
11927 -11787 0
12907 -11787 0
-11927 -12907 11787 0
-11927 13887 0
-11927 15847 0
11927 -13887 -15847 0
-12907 14867 0
-12907 16827 0
12907 -14867 -16827 0
-1 27 -13887 0
1 13887 0
-27 13887 0
-981 1007 -14867 0
981 14867 0
-1007 14867 0
1 -27 -15847 0
-1 15847 0
27 15847 0
981 -1007 -16827 0
-981 16827 0
1007 16827 0
12067 -11787 0
13047 -11787 0
-12067 -13047 11787 0
-12067 14027 0
-12067 15987 0
12067 -14027 -15987 0
-13047 15007 0
-13047 16967 0
13047 -15007 -16967 0
-141 167 -14027 0
141 14027 0
-167 14027 0
-1121 1147 -15007 0
1121 15007 0
-1147 15007 0
141 -167 -15987 0
-141 15987 0
167 15987 0
1121 -1147 -16967 0
-1121 16967 0
1147 16967 0
12207 -11787 0
13187 -11787 0
-12207 -13187 11787 0
-12207 14167 0
-12207 16127 0
12207 -14167 -16127 0
-13187 15147 0
-13187 17107 0
13187 -15147 -17107 0
-281 307 -14167 0
281 14167 0
-307 14167 0
-1261 1287 -15147 0
1261 15147 0
-1287 15147 0
281 -307 -16127 0
-281 16127 0
307 16127 0
1261 -1287 -17107 0
-1261 17107 0
1287 17107 0
12347 -11787 0
13327 -11787 0
-12347 -13327 11787 0
-12347 14307 0
-12347 16267 0
12347 -14307 -16267 0
-13327 15287 0
-13327 17247 0
13327 -15287 -17247 0
-421 447 -14307 0
421 14307 0
-447 14307 0
-1401 1427 -15287 0
1401 15287 0
-1427 15287 0
421 -447 -16267 0
-421 16267 0
447 16267 0
1401 -1427 -17247 0
-1401 17247 0
1427 17247 0
12487 -11787 0
13467 -11787 0
-12487 -13467 11787 0
-12487 14447 0
-12487 16407 0
12487 -14447 -16407 0
-13467 15427 0
-13467 17387 0
13467 -15427 -17387 0
-561 587 -14447 0
561 14447 0
-587 14447 0
-1541 1567 -15427 0
1541 15427 0
-1567 15427 0
561 -587 -16407 0
-561 16407 0
587 16407 0
1541 -1567 -17387 0
-1541 17387 0
1567 17387 0
12627 -11787 0
13607 -11787 0
-12627 -13607 11787 0
-12627 14587 0
-12627 16547 0
12627 -14587 -16547 0
-13607 15567 0
-13607 17527 0
13607 -15567 -17527 0
-701 727 -14587 0
701 14587 0
-727 14587 0
-1681 1707 -15567 0
1681 15567 0
-1707 15567 0
701 -727 -16547 0
-701 16547 0
727 16547 0
1681 -1707 -17527 0
-1681 17527 0
1707 17527 0
12767 -11787 0
13747 -11787 0
-12767 -13747 11787 0
-12767 14727 0
-12767 16687 0
12767 -14727 -16687 0
-13747 15707 0
-13747 17667 0
13747 -15707 -17667 0
-841 867 -14727 0
841 14727 0
-867 14727 0
-1821 1847 -15707 0
1821 15707 0
-1847 15707 0
841 -867 -16687 0
-841 16687 0
867 16687 0
1821 -1847 -17667 0
-1821 17667 0
1847 17667 0
11928 -11788 0
12908 -11788 0
-11928 -12908 11788 0
-11928 13888 0
-11928 15848 0
11928 -13888 -15848 0
-12908 14868 0
-12908 16828 0
12908 -14868 -16828 0
-1 28 -13888 0
1 13888 0
-28 13888 0
-981 1008 -14868 0
981 14868 0
-1008 14868 0
1 -28 -15848 0
-1 15848 0
28 15848 0
981 -1008 -16828 0
-981 16828 0
1008 16828 0
12068 -11788 0
13048 -11788 0
-12068 -13048 11788 0
-12068 14028 0
-12068 15988 0
12068 -14028 -15988 0
-13048 15008 0
-13048 16968 0
13048 -15008 -16968 0
-141 168 -14028 0
141 14028 0
-168 14028 0
-1121 1148 -15008 0
1121 15008 0
-1148 15008 0
141 -168 -15988 0
-141 15988 0
168 15988 0
1121 -1148 -16968 0
-1121 16968 0
1148 16968 0
12208 -11788 0
13188 -11788 0
-12208 -13188 11788 0
-12208 14168 0
-12208 16128 0
12208 -14168 -16128 0
-13188 15148 0
-13188 17108 0
13188 -15148 -17108 0
-281 308 -14168 0
281 14168 0
-308 14168 0
-1261 1288 -15148 0
1261 15148 0
-1288 15148 0
281 -308 -16128 0
-281 16128 0
308 16128 0
1261 -1288 -17108 0
-1261 17108 0
1288 17108 0
12348 -11788 0
13328 -11788 0
-12348 -13328 11788 0
-12348 14308 0
-12348 16268 0
12348 -14308 -16268 0
-13328 15288 0
-13328 17248 0
13328 -15288 -17248 0
-421 448 -14308 0
421 14308 0
-448 14308 0
-1401 1428 -15288 0
1401 15288 0
-1428 15288 0
421 -448 -16268 0
-421 16268 0
448 16268 0
1401 -1428 -17248 0
-1401 17248 0
1428 17248 0
12488 -11788 0
13468 -11788 0
-12488 -13468 11788 0
-12488 14448 0
-12488 16408 0
12488 -14448 -16408 0
-13468 15428 0
-13468 17388 0
13468 -15428 -17388 0
-561 588 -14448 0
561 14448 0
-588 14448 0
-1541 1568 -15428 0
1541 15428 0
-1568 15428 0
561 -588 -16408 0
-561 16408 0
588 16408 0
1541 -1568 -17388 0
-1541 17388 0
1568 17388 0
12628 -11788 0
13608 -11788 0
-12628 -13608 11788 0
-12628 14588 0
-12628 16548 0
12628 -14588 -16548 0
-13608 15568 0
-13608 17528 0
13608 -15568 -17528 0
-701 728 -14588 0
701 14588 0
-728 14588 0
-1681 1708 -15568 0
1681 15568 0
-1708 15568 0
701 -728 -16548 0
-701 16548 0
728 16548 0
1681 -1708 -17528 0
-1681 17528 0
1708 17528 0
12768 -11788 0
13748 -11788 0
-12768 -13748 11788 0
-12768 14728 0
-12768 16688 0
12768 -14728 -16688 0
-13748 15708 0
-13748 17668 0
13748 -15708 -17668 0
-841 868 -14728 0
841 14728 0
-868 14728 0
-1821 1848 -15708 0
1821 15708 0
-1848 15708 0
841 -868 -16688 0
-841 16688 0
868 16688 0
1821 -1848 -17668 0
-1821 17668 0
1848 17668 0
11929 -11789 0
12909 -11789 0
-11929 -12909 11789 0
-11929 13889 0
-11929 15849 0
11929 -13889 -15849 0
-12909 14869 0
-12909 16829 0
12909 -14869 -16829 0
-1 29 -13889 0
1 13889 0
-29 13889 0
-981 1009 -14869 0
981 14869 0
-1009 14869 0
1 -29 -15849 0
-1 15849 0
29 15849 0
981 -1009 -16829 0
-981 16829 0
1009 16829 0
12069 -11789 0
13049 -11789 0
-12069 -13049 11789 0
-12069 14029 0
-12069 15989 0
12069 -14029 -15989 0
-13049 15009 0
-13049 16969 0
13049 -15009 -16969 0
-141 169 -14029 0
141 14029 0
-169 14029 0
-1121 1149 -15009 0
1121 15009 0
-1149 15009 0
141 -169 -15989 0
-141 15989 0
169 15989 0
1121 -1149 -16969 0
-1121 16969 0
1149 16969 0
12209 -11789 0
13189 -11789 0
-12209 -13189 11789 0
-12209 14169 0
-12209 16129 0
12209 -14169 -16129 0
-13189 15149 0
-13189 17109 0
13189 -15149 -17109 0
-281 309 -14169 0
281 14169 0
-309 14169 0
-1261 1289 -15149 0
1261 15149 0
-1289 15149 0
281 -309 -16129 0
-281 16129 0
309 16129 0
1261 -1289 -17109 0
-1261 17109 0
1289 17109 0
12349 -11789 0
13329 -11789 0
-12349 -13329 11789 0
-12349 14309 0
-12349 16269 0
12349 -14309 -16269 0
-13329 15289 0
-13329 17249 0
13329 -15289 -17249 0
-421 449 -14309 0
421 14309 0
-449 14309 0
-1401 1429 -15289 0
1401 15289 0
-1429 15289 0
421 -449 -16269 0
-421 16269 0
449 16269 0
1401 -1429 -17249 0
-1401 17249 0
1429 17249 0
12489 -11789 0
13469 -11789 0
-12489 -13469 11789 0
-12489 14449 0
-12489 16409 0
12489 -14449 -16409 0
-13469 15429 0
-13469 17389 0
13469 -15429 -17389 0
-561 589 -14449 0
561 14449 0
-589 14449 0
-1541 1569 -15429 0
1541 15429 0
-1569 15429 0
561 -589 -16409 0
-561 16409 0
589 16409 0
1541 -1569 -17389 0
-1541 17389 0
1569 17389 0
12629 -11789 0
13609 -11789 0
-12629 -13609 11789 0
-12629 14589 0
-12629 16549 0
12629 -14589 -16549 0
-13609 15569 0
-13609 17529 0
13609 -15569 -17529 0
-701 729 -14589 0
701 14589 0
-729 14589 0
-1681 1709 -15569 0
1681 15569 0
-1709 15569 0
701 -729 -16549 0
-701 16549 0
729 16549 0
1681 -1709 -17529 0
-1681 17529 0
1709 17529 0
12769 -11789 0
13749 -11789 0
-12769 -13749 11789 0
-12769 14729 0
-12769 16689 0
12769 -14729 -16689 0
-13749 15709 0
-13749 17669 0
13749 -15709 -17669 0
-841 869 -14729 0
841 14729 0
-869 14729 0
-1821 1849 -15709 0
1821 15709 0
-1849 15709 0
841 -869 -16689 0
-841 16689 0
869 16689 0
1821 -1849 -17669 0
-1821 17669 0
1849 17669 0
11930 -11790 0
12910 -11790 0
-11930 -12910 11790 0
-11930 13890 0
-11930 15850 0
11930 -13890 -15850 0
-12910 14870 0
-12910 16830 0
12910 -14870 -16830 0
-1 30 -13890 0
1 13890 0
-30 13890 0
-981 1010 -14870 0
981 14870 0
-1010 14870 0
1 -30 -15850 0
-1 15850 0
30 15850 0
981 -1010 -16830 0
-981 16830 0
1010 16830 0
12070 -11790 0
13050 -11790 0
-12070 -13050 11790 0
-12070 14030 0
-12070 15990 0
12070 -14030 -15990 0
-13050 15010 0
-13050 16970 0
13050 -15010 -16970 0
-141 170 -14030 0
141 14030 0
-170 14030 0
-1121 1150 -15010 0
1121 15010 0
-1150 15010 0
141 -170 -15990 0
-141 15990 0
170 15990 0
1121 -1150 -16970 0
-1121 16970 0
1150 16970 0
12210 -11790 0
13190 -11790 0
-12210 -13190 11790 0
-12210 14170 0
-12210 16130 0
12210 -14170 -16130 0
-13190 15150 0
-13190 17110 0
13190 -15150 -17110 0
-281 310 -14170 0
281 14170 0
-310 14170 0
-1261 1290 -15150 0
1261 15150 0
-1290 15150 0
281 -310 -16130 0
-281 16130 0
310 16130 0
1261 -1290 -17110 0
-1261 17110 0
1290 17110 0
12350 -11790 0
13330 -11790 0
-12350 -13330 11790 0
-12350 14310 0
-12350 16270 0
12350 -14310 -16270 0
-13330 15290 0
-13330 17250 0
13330 -15290 -17250 0
-421 450 -14310 0
421 14310 0
-450 14310 0
-1401 1430 -15290 0
1401 15290 0
-1430 15290 0
421 -450 -16270 0
-421 16270 0
450 16270 0
1401 -1430 -17250 0
-1401 17250 0
1430 17250 0
12490 -11790 0
13470 -11790 0
-12490 -13470 11790 0
-12490 14450 0
-12490 16410 0
12490 -14450 -16410 0
-13470 15430 0
-13470 17390 0
13470 -15430 -17390 0
-561 590 -14450 0
561 14450 0
-590 14450 0
-1541 1570 -15430 0
1541 15430 0
-1570 15430 0
561 -590 -16410 0
-561 16410 0
590 16410 0
1541 -1570 -17390 0
-1541 17390 0
1570 17390 0
12630 -11790 0
13610 -11790 0
-12630 -13610 11790 0
-12630 14590 0
-12630 16550 0
12630 -14590 -16550 0
-13610 15570 0
-13610 17530 0
13610 -15570 -17530 0
-701 730 -14590 0
701 14590 0
-730 14590 0
-1681 1710 -15570 0
1681 15570 0
-1710 15570 0
701 -730 -16550 0
-701 16550 0
730 16550 0
1681 -1710 -17530 0
-1681 17530 0
1710 17530 0
12770 -11790 0
13750 -11790 0
-12770 -13750 11790 0
-12770 14730 0
-12770 16690 0
12770 -14730 -16690 0
-13750 15710 0
-13750 17670 0
13750 -15710 -17670 0
-841 870 -14730 0
841 14730 0
-870 14730 0
-1821 1850 -15710 0
1821 15710 0
-1850 15710 0
841 -870 -16690 0
-841 16690 0
870 16690 0
1821 -1850 -17670 0
-1821 17670 0
1850 17670 0
11931 -11791 0
12911 -11791 0
-11931 -12911 11791 0
-11931 13891 0
-11931 15851 0
11931 -13891 -15851 0
-12911 14871 0
-12911 16831 0
12911 -14871 -16831 0
-1 31 -13891 0
1 13891 0
-31 13891 0
-981 1011 -14871 0
981 14871 0
-1011 14871 0
1 -31 -15851 0
-1 15851 0
31 15851 0
981 -1011 -16831 0
-981 16831 0
1011 16831 0
12071 -11791 0
13051 -11791 0
-12071 -13051 11791 0
-12071 14031 0
-12071 15991 0
12071 -14031 -15991 0
-13051 15011 0
-13051 16971 0
13051 -15011 -16971 0
-141 171 -14031 0
141 14031 0
-171 14031 0
-1121 1151 -15011 0
1121 15011 0
-1151 15011 0
141 -171 -15991 0
-141 15991 0
171 15991 0
1121 -1151 -16971 0
-1121 16971 0
1151 16971 0
12211 -11791 0
13191 -11791 0
-12211 -13191 11791 0
-12211 14171 0
-12211 16131 0
12211 -14171 -16131 0
-13191 15151 0
-13191 17111 0
13191 -15151 -17111 0
-281 311 -14171 0
281 14171 0
-311 14171 0
-1261 1291 -15151 0
1261 15151 0
-1291 15151 0
281 -311 -16131 0
-281 16131 0
311 16131 0
1261 -1291 -17111 0
-1261 17111 0
1291 17111 0
12351 -11791 0
13331 -11791 0
-12351 -13331 11791 0
-12351 14311 0
-12351 16271 0
12351 -14311 -16271 0
-13331 15291 0
-13331 17251 0
13331 -15291 -17251 0
-421 451 -14311 0
421 14311 0
-451 14311 0
-1401 1431 -15291 0
1401 15291 0
-1431 15291 0
421 -451 -16271 0
-421 16271 0
451 16271 0
1401 -1431 -17251 0
-1401 17251 0
1431 17251 0
12491 -11791 0
13471 -11791 0
-12491 -13471 11791 0
-12491 14451 0
-12491 16411 0
12491 -14451 -16411 0
-13471 15431 0
-13471 17391 0
13471 -15431 -17391 0
-561 591 -14451 0
561 14451 0
-591 14451 0
-1541 1571 -15431 0
1541 15431 0
-1571 15431 0
561 -591 -16411 0
-561 16411 0
591 16411 0
1541 -1571 -17391 0
-1541 17391 0
1571 17391 0
12631 -11791 0
13611 -11791 0
-12631 -13611 11791 0
-12631 14591 0
-12631 16551 0
12631 -14591 -16551 0
-13611 15571 0
-13611 17531 0
13611 -15571 -17531 0
-701 731 -14591 0
701 14591 0
-731 14591 0
-1681 1711 -15571 0
1681 15571 0
-1711 15571 0
701 -731 -16551 0
-701 16551 0
731 16551 0
1681 -1711 -17531 0
-1681 17531 0
1711 17531 0
12771 -11791 0
13751 -11791 0
-12771 -13751 11791 0
-12771 14731 0
-12771 16691 0
12771 -14731 -16691 0
-13751 15711 0
-13751 17671 0
13751 -15711 -17671 0
-841 871 -14731 0
841 14731 0
-871 14731 0
-1821 1851 -15711 0
1821 15711 0
-1851 15711 0
841 -871 -16691 0
-841 16691 0
871 16691 0
1821 -1851 -17671 0
-1821 17671 0
1851 17671 0
11932 -11792 0
12912 -11792 0
-11932 -12912 11792 0
-11932 13892 0
-11932 15852 0
11932 -13892 -15852 0
-12912 14872 0
-12912 16832 0
12912 -14872 -16832 0
-1 32 -13892 0
1 13892 0
-32 13892 0
-981 1012 -14872 0
981 14872 0
-1012 14872 0
1 -32 -15852 0
-1 15852 0
32 15852 0
981 -1012 -16832 0
-981 16832 0
1012 16832 0
12072 -11792 0
13052 -11792 0
-12072 -13052 11792 0
-12072 14032 0
-12072 15992 0
12072 -14032 -15992 0
-13052 15012 0
-13052 16972 0
13052 -15012 -16972 0
-141 172 -14032 0
141 14032 0
-172 14032 0
-1121 1152 -15012 0
1121 15012 0
-1152 15012 0
141 -172 -15992 0
-141 15992 0
172 15992 0
1121 -1152 -16972 0
-1121 16972 0
1152 16972 0
12212 -11792 0
13192 -11792 0
-12212 -13192 11792 0
-12212 14172 0
-12212 16132 0
12212 -14172 -16132 0
-13192 15152 0
-13192 17112 0
13192 -15152 -17112 0
-281 312 -14172 0
281 14172 0
-312 14172 0
-1261 1292 -15152 0
1261 15152 0
-1292 15152 0
281 -312 -16132 0
-281 16132 0
312 16132 0
1261 -1292 -17112 0
-1261 17112 0
1292 17112 0
12352 -11792 0
13332 -11792 0
-12352 -13332 11792 0
-12352 14312 0
-12352 16272 0
12352 -14312 -16272 0
-13332 15292 0
-13332 17252 0
13332 -15292 -17252 0
-421 452 -14312 0
421 14312 0
-452 14312 0
-1401 1432 -15292 0
1401 15292 0
-1432 15292 0
421 -452 -16272 0
-421 16272 0
452 16272 0
1401 -1432 -17252 0
-1401 17252 0
1432 17252 0
12492 -11792 0
13472 -11792 0
-12492 -13472 11792 0
-12492 14452 0
-12492 16412 0
12492 -14452 -16412 0
-13472 15432 0
-13472 17392 0
13472 -15432 -17392 0
-561 592 -14452 0
561 14452 0
-592 14452 0
-1541 1572 -15432 0
1541 15432 0
-1572 15432 0
561 -592 -16412 0
-561 16412 0
592 16412 0
1541 -1572 -17392 0
-1541 17392 0
1572 17392 0
12632 -11792 0
13612 -11792 0
-12632 -13612 11792 0
-12632 14592 0
-12632 16552 0
12632 -14592 -16552 0
-13612 15572 0
-13612 17532 0
13612 -15572 -17532 0
-701 732 -14592 0
701 14592 0
-732 14592 0
-1681 1712 -15572 0
1681 15572 0
-1712 15572 0
701 -732 -16552 0
-701 16552 0
732 16552 0
1681 -1712 -17532 0
-1681 17532 0
1712 17532 0
12772 -11792 0
13752 -11792 0
-12772 -13752 11792 0
-12772 14732 0
-12772 16692 0
12772 -14732 -16692 0
-13752 15712 0
-13752 17672 0
13752 -15712 -17672 0
-841 872 -14732 0
841 14732 0
-872 14732 0
-1821 1852 -15712 0
1821 15712 0
-1852 15712 0
841 -872 -16692 0
-841 16692 0
872 16692 0
1821 -1852 -17672 0
-1821 17672 0
1852 17672 0
11933 -11793 0
12913 -11793 0
-11933 -12913 11793 0
-11933 13893 0
-11933 15853 0
11933 -13893 -15853 0
-12913 14873 0
-12913 16833 0
12913 -14873 -16833 0
-1 33 -13893 0
1 13893 0
-33 13893 0
-981 1013 -14873 0
981 14873 0
-1013 14873 0
1 -33 -15853 0
-1 15853 0
33 15853 0
981 -1013 -16833 0
-981 16833 0
1013 16833 0
12073 -11793 0
13053 -11793 0
-12073 -13053 11793 0
-12073 14033 0
-12073 15993 0
12073 -14033 -15993 0
-13053 15013 0
-13053 16973 0
13053 -15013 -16973 0
-141 173 -14033 0
141 14033 0
-173 14033 0
-1121 1153 -15013 0
1121 15013 0
-1153 15013 0
141 -173 -15993 0
-141 15993 0
173 15993 0
1121 -1153 -16973 0
-1121 16973 0
1153 16973 0
12213 -11793 0
13193 -11793 0
-12213 -13193 11793 0
-12213 14173 0
-12213 16133 0
12213 -14173 -16133 0
-13193 15153 0
-13193 17113 0
13193 -15153 -17113 0
-281 313 -14173 0
281 14173 0
-313 14173 0
-1261 1293 -15153 0
1261 15153 0
-1293 15153 0
281 -313 -16133 0
-281 16133 0
313 16133 0
1261 -1293 -17113 0
-1261 17113 0
1293 17113 0
12353 -11793 0
13333 -11793 0
-12353 -13333 11793 0
-12353 14313 0
-12353 16273 0
12353 -14313 -16273 0
-13333 15293 0
-13333 17253 0
13333 -15293 -17253 0
-421 453 -14313 0
421 14313 0
-453 14313 0
-1401 1433 -15293 0
1401 15293 0
-1433 15293 0
421 -453 -16273 0
-421 16273 0
453 16273 0
1401 -1433 -17253 0
-1401 17253 0
1433 17253 0
12493 -11793 0
13473 -11793 0
-12493 -13473 11793 0
-12493 14453 0
-12493 16413 0
12493 -14453 -16413 0
-13473 15433 0
-13473 17393 0
13473 -15433 -17393 0
-561 593 -14453 0
561 14453 0
-593 14453 0
-1541 1573 -15433 0
1541 15433 0
-1573 15433 0
561 -593 -16413 0
-561 16413 0
593 16413 0
1541 -1573 -17393 0
-1541 17393 0
1573 17393 0
12633 -11793 0
13613 -11793 0
-12633 -13613 11793 0
-12633 14593 0
-12633 16553 0
12633 -14593 -16553 0
-13613 15573 0
-13613 17533 0
13613 -15573 -17533 0
-701 733 -14593 0
701 14593 0
-733 14593 0
-1681 1713 -15573 0
1681 15573 0
-1713 15573 0
701 -733 -16553 0
-701 16553 0
733 16553 0
1681 -1713 -17533 0
-1681 17533 0
1713 17533 0
12773 -11793 0
13753 -11793 0
-12773 -13753 11793 0
-12773 14733 0
-12773 16693 0
12773 -14733 -16693 0
-13753 15713 0
-13753 17673 0
13753 -15713 -17673 0
-841 873 -14733 0
841 14733 0
-873 14733 0
-1821 1853 -15713 0
1821 15713 0
-1853 15713 0
841 -873 -16693 0
-841 16693 0
873 16693 0
1821 -1853 -17673 0
-1821 17673 0
1853 17673 0
11934 -11794 0
12914 -11794 0
-11934 -12914 11794 0
-11934 13894 0
-11934 15854 0
11934 -13894 -15854 0
-12914 14874 0
-12914 16834 0
12914 -14874 -16834 0
-1 34 -13894 0
1 13894 0
-34 13894 0
-981 1014 -14874 0
981 14874 0
-1014 14874 0
1 -34 -15854 0
-1 15854 0
34 15854 0
981 -1014 -16834 0
-981 16834 0
1014 16834 0
12074 -11794 0
13054 -11794 0
-12074 -13054 11794 0
-12074 14034 0
-12074 15994 0
12074 -14034 -15994 0
-13054 15014 0
-13054 16974 0
13054 -15014 -16974 0
-141 174 -14034 0
141 14034 0
-174 14034 0
-1121 1154 -15014 0
1121 15014 0
-1154 15014 0
141 -174 -15994 0
-141 15994 0
174 15994 0
1121 -1154 -16974 0
-1121 16974 0
1154 16974 0
12214 -11794 0
13194 -11794 0
-12214 -13194 11794 0
-12214 14174 0
-12214 16134 0
12214 -14174 -16134 0
-13194 15154 0
-13194 17114 0
13194 -15154 -17114 0
-281 314 -14174 0
281 14174 0
-314 14174 0
-1261 1294 -15154 0
1261 15154 0
-1294 15154 0
281 -314 -16134 0
-281 16134 0
314 16134 0
1261 -1294 -17114 0
-1261 17114 0
1294 17114 0
12354 -11794 0
13334 -11794 0
-12354 -13334 11794 0
-12354 14314 0
-12354 16274 0
12354 -14314 -16274 0
-13334 15294 0
-13334 17254 0
13334 -15294 -17254 0
-421 454 -14314 0
421 14314 0
-454 14314 0
-1401 1434 -15294 0
1401 15294 0
-1434 15294 0
421 -454 -16274 0
-421 16274 0
454 16274 0
1401 -1434 -17254 0
-1401 17254 0
1434 17254 0
12494 -11794 0
13474 -11794 0
-12494 -13474 11794 0
-12494 14454 0
-12494 16414 0
12494 -14454 -16414 0
-13474 15434 0
-13474 17394 0
13474 -15434 -17394 0
-561 594 -14454 0
561 14454 0
-594 14454 0
-1541 1574 -15434 0
1541 15434 0
-1574 15434 0
561 -594 -16414 0
-561 16414 0
594 16414 0
1541 -1574 -17394 0
-1541 17394 0
1574 17394 0
12634 -11794 0
13614 -11794 0
-12634 -13614 11794 0
-12634 14594 0
-12634 16554 0
12634 -14594 -16554 0
-13614 15574 0
-13614 17534 0
13614 -15574 -17534 0
-701 734 -14594 0
701 14594 0
-734 14594 0
-1681 1714 -15574 0
1681 15574 0
-1714 15574 0
701 -734 -16554 0
-701 16554 0
734 16554 0
1681 -1714 -17534 0
-1681 17534 0
1714 17534 0
12774 -11794 0
13754 -11794 0
-12774 -13754 11794 0
-12774 14734 0
-12774 16694 0
12774 -14734 -16694 0
-13754 15714 0
-13754 17674 0
13754 -15714 -17674 0
-841 874 -14734 0
841 14734 0
-874 14734 0
-1821 1854 -15714 0
1821 15714 0
-1854 15714 0
841 -874 -16694 0
-841 16694 0
874 16694 0
1821 -1854 -17674 0
-1821 17674 0
1854 17674 0
11935 -11795 0
12915 -11795 0
-11935 -12915 11795 0
-11935 13895 0
-11935 15855 0
11935 -13895 -15855 0
-12915 14875 0
-12915 16835 0
12915 -14875 -16835 0
-1 35 -13895 0
1 13895 0
-35 13895 0
-981 1015 -14875 0
981 14875 0
-1015 14875 0
1 -35 -15855 0
-1 15855 0
35 15855 0
981 -1015 -16835 0
-981 16835 0
1015 16835 0
12075 -11795 0
13055 -11795 0
-12075 -13055 11795 0
-12075 14035 0
-12075 15995 0
12075 -14035 -15995 0
-13055 15015 0
-13055 16975 0
13055 -15015 -16975 0
-141 175 -14035 0
141 14035 0
-175 14035 0
-1121 1155 -15015 0
1121 15015 0
-1155 15015 0
141 -175 -15995 0
-141 15995 0
175 15995 0
1121 -1155 -16975 0
-1121 16975 0
1155 16975 0
12215 -11795 0
13195 -11795 0
-12215 -13195 11795 0
-12215 14175 0
-12215 16135 0
12215 -14175 -16135 0
-13195 15155 0
-13195 17115 0
13195 -15155 -17115 0
-281 315 -14175 0
281 14175 0
-315 14175 0
-1261 1295 -15155 0
1261 15155 0
-1295 15155 0
281 -315 -16135 0
-281 16135 0
315 16135 0
1261 -1295 -17115 0
-1261 17115 0
1295 17115 0
12355 -11795 0
13335 -11795 0
-12355 -13335 11795 0
-12355 14315 0
-12355 16275 0
12355 -14315 -16275 0
-13335 15295 0
-13335 17255 0
13335 -15295 -17255 0
-421 455 -14315 0
421 14315 0
-455 14315 0
-1401 1435 -15295 0
1401 15295 0
-1435 15295 0
421 -455 -16275 0
-421 16275 0
455 16275 0
1401 -1435 -17255 0
-1401 17255 0
1435 17255 0
12495 -11795 0
13475 -11795 0
-12495 -13475 11795 0
-12495 14455 0
-12495 16415 0
12495 -14455 -16415 0
-13475 15435 0
-13475 17395 0
13475 -15435 -17395 0
-561 595 -14455 0
561 14455 0
-595 14455 0
-1541 1575 -15435 0
1541 15435 0
-1575 15435 0
561 -595 -16415 0
-561 16415 0
595 16415 0
1541 -1575 -17395 0
-1541 17395 0
1575 17395 0
12635 -11795 0
13615 -11795 0
-12635 -13615 11795 0
-12635 14595 0
-12635 16555 0
12635 -14595 -16555 0
-13615 15575 0
-13615 17535 0
13615 -15575 -17535 0
-701 735 -14595 0
701 14595 0
-735 14595 0
-1681 1715 -15575 0
1681 15575 0
-1715 15575 0
701 -735 -16555 0
-701 16555 0
735 16555 0
1681 -1715 -17535 0
-1681 17535 0
1715 17535 0
12775 -11795 0
13755 -11795 0
-12775 -13755 11795 0
-12775 14735 0
-12775 16695 0
12775 -14735 -16695 0
-13755 15715 0
-13755 17675 0
13755 -15715 -17675 0
-841 875 -14735 0
841 14735 0
-875 14735 0
-1821 1855 -15715 0
1821 15715 0
-1855 15715 0
841 -875 -16695 0
-841 16695 0
875 16695 0
1821 -1855 -17675 0
-1821 17675 0
1855 17675 0
11936 -11796 0
12916 -11796 0
-11936 -12916 11796 0
-11936 13896 0
-11936 15856 0
11936 -13896 -15856 0
-12916 14876 0
-12916 16836 0
12916 -14876 -16836 0
-1 36 -13896 0
1 13896 0
-36 13896 0
-981 1016 -14876 0
981 14876 0
-1016 14876 0
1 -36 -15856 0
-1 15856 0
36 15856 0
981 -1016 -16836 0
-981 16836 0
1016 16836 0
12076 -11796 0
13056 -11796 0
-12076 -13056 11796 0
-12076 14036 0
-12076 15996 0
12076 -14036 -15996 0
-13056 15016 0
-13056 16976 0
13056 -15016 -16976 0
-141 176 -14036 0
141 14036 0
-176 14036 0
-1121 1156 -15016 0
1121 15016 0
-1156 15016 0
141 -176 -15996 0
-141 15996 0
176 15996 0
1121 -1156 -16976 0
-1121 16976 0
1156 16976 0
12216 -11796 0
13196 -11796 0
-12216 -13196 11796 0
-12216 14176 0
-12216 16136 0
12216 -14176 -16136 0
-13196 15156 0
-13196 17116 0
13196 -15156 -17116 0
-281 316 -14176 0
281 14176 0
-316 14176 0
-1261 1296 -15156 0
1261 15156 0
-1296 15156 0
281 -316 -16136 0
-281 16136 0
316 16136 0
1261 -1296 -17116 0
-1261 17116 0
1296 17116 0
12356 -11796 0
13336 -11796 0
-12356 -13336 11796 0
-12356 14316 0
-12356 16276 0
12356 -14316 -16276 0
-13336 15296 0
-13336 17256 0
13336 -15296 -17256 0
-421 456 -14316 0
421 14316 0
-456 14316 0
-1401 1436 -15296 0
1401 15296 0
-1436 15296 0
421 -456 -16276 0
-421 16276 0
456 16276 0
1401 -1436 -17256 0
-1401 17256 0
1436 17256 0
12496 -11796 0
13476 -11796 0
-12496 -13476 11796 0
-12496 14456 0
-12496 16416 0
12496 -14456 -16416 0
-13476 15436 0
-13476 17396 0
13476 -15436 -17396 0
-561 596 -14456 0
561 14456 0
-596 14456 0
-1541 1576 -15436 0
1541 15436 0
-1576 15436 0
561 -596 -16416 0
-561 16416 0
596 16416 0
1541 -1576 -17396 0
-1541 17396 0
1576 17396 0
12636 -11796 0
13616 -11796 0
-12636 -13616 11796 0
-12636 14596 0
-12636 16556 0
12636 -14596 -16556 0
-13616 15576 0
-13616 17536 0
13616 -15576 -17536 0
-701 736 -14596 0
701 14596 0
-736 14596 0
-1681 1716 -15576 0
1681 15576 0
-1716 15576 0
701 -736 -16556 0
-701 16556 0
736 16556 0
1681 -1716 -17536 0
-1681 17536 0
1716 17536 0
12776 -11796 0
13756 -11796 0
-12776 -13756 11796 0
-12776 14736 0
-12776 16696 0
12776 -14736 -16696 0
-13756 15716 0
-13756 17676 0
13756 -15716 -17676 0
-841 876 -14736 0
841 14736 0
-876 14736 0
-1821 1856 -15716 0
1821 15716 0
-1856 15716 0
841 -876 -16696 0
-841 16696 0
876 16696 0
1821 -1856 -17676 0
-1821 17676 0
1856 17676 0
11937 -11797 0
12917 -11797 0
-11937 -12917 11797 0
-11937 13897 0
-11937 15857 0
11937 -13897 -15857 0
-12917 14877 0
-12917 16837 0
12917 -14877 -16837 0
-1 37 -13897 0
1 13897 0
-37 13897 0
-981 1017 -14877 0
981 14877 0
-1017 14877 0
1 -37 -15857 0
-1 15857 0
37 15857 0
981 -1017 -16837 0
-981 16837 0
1017 16837 0
12077 -11797 0
13057 -11797 0
-12077 -13057 11797 0
-12077 14037 0
-12077 15997 0
12077 -14037 -15997 0
-13057 15017 0
-13057 16977 0
13057 -15017 -16977 0
-141 177 -14037 0
141 14037 0
-177 14037 0
-1121 1157 -15017 0
1121 15017 0
-1157 15017 0
141 -177 -15997 0
-141 15997 0
177 15997 0
1121 -1157 -16977 0
-1121 16977 0
1157 16977 0
12217 -11797 0
13197 -11797 0
-12217 -13197 11797 0
-12217 14177 0
-12217 16137 0
12217 -14177 -16137 0
-13197 15157 0
-13197 17117 0
13197 -15157 -17117 0
-281 317 -14177 0
281 14177 0
-317 14177 0
-1261 1297 -15157 0
1261 15157 0
-1297 15157 0
281 -317 -16137 0
-281 16137 0
317 16137 0
1261 -1297 -17117 0
-1261 17117 0
1297 17117 0
12357 -11797 0
13337 -11797 0
-12357 -13337 11797 0
-12357 14317 0
-12357 16277 0
12357 -14317 -16277 0
-13337 15297 0
-13337 17257 0
13337 -15297 -17257 0
-421 457 -14317 0
421 14317 0
-457 14317 0
-1401 1437 -15297 0
1401 15297 0
-1437 15297 0
421 -457 -16277 0
-421 16277 0
457 16277 0
1401 -1437 -17257 0
-1401 17257 0
1437 17257 0
12497 -11797 0
13477 -11797 0
-12497 -13477 11797 0
-12497 14457 0
-12497 16417 0
12497 -14457 -16417 0
-13477 15437 0
-13477 17397 0
13477 -15437 -17397 0
-561 597 -14457 0
561 14457 0
-597 14457 0
-1541 1577 -15437 0
1541 15437 0
-1577 15437 0
561 -597 -16417 0
-561 16417 0
597 16417 0
1541 -1577 -17397 0
-1541 17397 0
1577 17397 0
12637 -11797 0
13617 -11797 0
-12637 -13617 11797 0
-12637 14597 0
-12637 16557 0
12637 -14597 -16557 0
-13617 15577 0
-13617 17537 0
13617 -15577 -17537 0
-701 737 -14597 0
701 14597 0
-737 14597 0
-1681 1717 -15577 0
1681 15577 0
-1717 15577 0
701 -737 -16557 0
-701 16557 0
737 16557 0
1681 -1717 -17537 0
-1681 17537 0
1717 17537 0
12777 -11797 0
13757 -11797 0
-12777 -13757 11797 0
-12777 14737 0
-12777 16697 0
12777 -14737 -16697 0
-13757 15717 0
-13757 17677 0
13757 -15717 -17677 0
-841 877 -14737 0
841 14737 0
-877 14737 0
-1821 1857 -15717 0
1821 15717 0
-1857 15717 0
841 -877 -16697 0
-841 16697 0
877 16697 0
1821 -1857 -17677 0
-1821 17677 0
1857 17677 0
11938 -11798 0
12918 -11798 0
-11938 -12918 11798 0
-11938 13898 0
-11938 15858 0
11938 -13898 -15858 0
-12918 14878 0
-12918 16838 0
12918 -14878 -16838 0
-1 38 -13898 0
1 13898 0
-38 13898 0
-981 1018 -14878 0
981 14878 0
-1018 14878 0
1 -38 -15858 0
-1 15858 0
38 15858 0
981 -1018 -16838 0
-981 16838 0
1018 16838 0
12078 -11798 0
13058 -11798 0
-12078 -13058 11798 0
-12078 14038 0
-12078 15998 0
12078 -14038 -15998 0
-13058 15018 0
-13058 16978 0
13058 -15018 -16978 0
-141 178 -14038 0
141 14038 0
-178 14038 0
-1121 1158 -15018 0
1121 15018 0
-1158 15018 0
141 -178 -15998 0
-141 15998 0
178 15998 0
1121 -1158 -16978 0
-1121 16978 0
1158 16978 0
12218 -11798 0
13198 -11798 0
-12218 -13198 11798 0
-12218 14178 0
-12218 16138 0
12218 -14178 -16138 0
-13198 15158 0
-13198 17118 0
13198 -15158 -17118 0
-281 318 -14178 0
281 14178 0
-318 14178 0
-1261 1298 -15158 0
1261 15158 0
-1298 15158 0
281 -318 -16138 0
-281 16138 0
318 16138 0
1261 -1298 -17118 0
-1261 17118 0
1298 17118 0
12358 -11798 0
13338 -11798 0
-12358 -13338 11798 0
-12358 14318 0
-12358 16278 0
12358 -14318 -16278 0
-13338 15298 0
-13338 17258 0
13338 -15298 -17258 0
-421 458 -14318 0
421 14318 0
-458 14318 0
-1401 1438 -15298 0
1401 15298 0
-1438 15298 0
421 -458 -16278 0
-421 16278 0
458 16278 0
1401 -1438 -17258 0
-1401 17258 0
1438 17258 0
12498 -11798 0
13478 -11798 0
-12498 -13478 11798 0
-12498 14458 0
-12498 16418 0
12498 -14458 -16418 0
-13478 15438 0
-13478 17398 0
13478 -15438 -17398 0
-561 598 -14458 0
561 14458 0
-598 14458 0
-1541 1578 -15438 0
1541 15438 0
-1578 15438 0
561 -598 -16418 0
-561 16418 0
598 16418 0
1541 -1578 -17398 0
-1541 17398 0
1578 17398 0
12638 -11798 0
13618 -11798 0
-12638 -13618 11798 0
-12638 14598 0
-12638 16558 0
12638 -14598 -16558 0
-13618 15578 0
-13618 17538 0
13618 -15578 -17538 0
-701 738 -14598 0
701 14598 0
-738 14598 0
-1681 1718 -15578 0
1681 15578 0
-1718 15578 0
701 -738 -16558 0
-701 16558 0
738 16558 0
1681 -1718 -17538 0
-1681 17538 0
1718 17538 0
12778 -11798 0
13758 -11798 0
-12778 -13758 11798 0
-12778 14738 0
-12778 16698 0
12778 -14738 -16698 0
-13758 15718 0
-13758 17678 0
13758 -15718 -17678 0
-841 878 -14738 0
841 14738 0
-878 14738 0
-1821 1858 -15718 0
1821 15718 0
-1858 15718 0
841 -878 -16698 0
-841 16698 0
878 16698 0
1821 -1858 -17678 0
-1821 17678 0
1858 17678 0
11939 -11799 0
12919 -11799 0
-11939 -12919 11799 0
-11939 13899 0
-11939 15859 0
11939 -13899 -15859 0
-12919 14879 0
-12919 16839 0
12919 -14879 -16839 0
-1 39 -13899 0
1 13899 0
-39 13899 0
-981 1019 -14879 0
981 14879 0
-1019 14879 0
1 -39 -15859 0
-1 15859 0
39 15859 0
981 -1019 -16839 0
-981 16839 0
1019 16839 0
12079 -11799 0
13059 -11799 0
-12079 -13059 11799 0
-12079 14039 0
-12079 15999 0
12079 -14039 -15999 0
-13059 15019 0
-13059 16979 0
13059 -15019 -16979 0
-141 179 -14039 0
141 14039 0
-179 14039 0
-1121 1159 -15019 0
1121 15019 0
-1159 15019 0
141 -179 -15999 0
-141 15999 0
179 15999 0
1121 -1159 -16979 0
-1121 16979 0
1159 16979 0
12219 -11799 0
13199 -11799 0
-12219 -13199 11799 0
-12219 14179 0
-12219 16139 0
12219 -14179 -16139 0
-13199 15159 0
-13199 17119 0
13199 -15159 -17119 0
-281 319 -14179 0
281 14179 0
-319 14179 0
-1261 1299 -15159 0
1261 15159 0
-1299 15159 0
281 -319 -16139 0
-281 16139 0
319 16139 0
1261 -1299 -17119 0
-1261 17119 0
1299 17119 0
12359 -11799 0
13339 -11799 0
-12359 -13339 11799 0
-12359 14319 0
-12359 16279 0
12359 -14319 -16279 0
-13339 15299 0
-13339 17259 0
13339 -15299 -17259 0
-421 459 -14319 0
421 14319 0
-459 14319 0
-1401 1439 -15299 0
1401 15299 0
-1439 15299 0
421 -459 -16279 0
-421 16279 0
459 16279 0
1401 -1439 -17259 0
-1401 17259 0
1439 17259 0
12499 -11799 0
13479 -11799 0
-12499 -13479 11799 0
-12499 14459 0
-12499 16419 0
12499 -14459 -16419 0
-13479 15439 0
-13479 17399 0
13479 -15439 -17399 0
-561 599 -14459 0
561 14459 0
-599 14459 0
-1541 1579 -15439 0
1541 15439 0
-1579 15439 0
561 -599 -16419 0
-561 16419 0
599 16419 0
1541 -1579 -17399 0
-1541 17399 0
1579 17399 0
12639 -11799 0
13619 -11799 0
-12639 -13619 11799 0
-12639 14599 0
-12639 16559 0
12639 -14599 -16559 0
-13619 15579 0
-13619 17539 0
13619 -15579 -17539 0
-701 739 -14599 0
701 14599 0
-739 14599 0
-1681 1719 -15579 0
1681 15579 0
-1719 15579 0
701 -739 -16559 0
-701 16559 0
739 16559 0
1681 -1719 -17539 0
-1681 17539 0
1719 17539 0
12779 -11799 0
13759 -11799 0
-12779 -13759 11799 0
-12779 14739 0
-12779 16699 0
12779 -14739 -16699 0
-13759 15719 0
-13759 17679 0
13759 -15719 -17679 0
-841 879 -14739 0
841 14739 0
-879 14739 0
-1821 1859 -15719 0
1821 15719 0
-1859 15719 0
841 -879 -16699 0
-841 16699 0
879 16699 0
1821 -1859 -17679 0
-1821 17679 0
1859 17679 0
11940 -11800 0
12920 -11800 0
-11940 -12920 11800 0
-11940 13900 0
-11940 15860 0
11940 -13900 -15860 0
-12920 14880 0
-12920 16840 0
12920 -14880 -16840 0
-1 40 -13900 0
1 13900 0
-40 13900 0
-981 1020 -14880 0
981 14880 0
-1020 14880 0
1 -40 -15860 0
-1 15860 0
40 15860 0
981 -1020 -16840 0
-981 16840 0
1020 16840 0
12080 -11800 0
13060 -11800 0
-12080 -13060 11800 0
-12080 14040 0
-12080 16000 0
12080 -14040 -16000 0
-13060 15020 0
-13060 16980 0
13060 -15020 -16980 0
-141 180 -14040 0
141 14040 0
-180 14040 0
-1121 1160 -15020 0
1121 15020 0
-1160 15020 0
141 -180 -16000 0
-141 16000 0
180 16000 0
1121 -1160 -16980 0
-1121 16980 0
1160 16980 0
12220 -11800 0
13200 -11800 0
-12220 -13200 11800 0
-12220 14180 0
-12220 16140 0
12220 -14180 -16140 0
-13200 15160 0
-13200 17120 0
13200 -15160 -17120 0
-281 320 -14180 0
281 14180 0
-320 14180 0
-1261 1300 -15160 0
1261 15160 0
-1300 15160 0
281 -320 -16140 0
-281 16140 0
320 16140 0
1261 -1300 -17120 0
-1261 17120 0
1300 17120 0
12360 -11800 0
13340 -11800 0
-12360 -13340 11800 0
-12360 14320 0
-12360 16280 0
12360 -14320 -16280 0
-13340 15300 0
-13340 17260 0
13340 -15300 -17260 0
-421 460 -14320 0
421 14320 0
-460 14320 0
-1401 1440 -15300 0
1401 15300 0
-1440 15300 0
421 -460 -16280 0
-421 16280 0
460 16280 0
1401 -1440 -17260 0
-1401 17260 0
1440 17260 0
12500 -11800 0
13480 -11800 0
-12500 -13480 11800 0
-12500 14460 0
-12500 16420 0
12500 -14460 -16420 0
-13480 15440 0
-13480 17400 0
13480 -15440 -17400 0
-561 600 -14460 0
561 14460 0
-600 14460 0
-1541 1580 -15440 0
1541 15440 0
-1580 15440 0
561 -600 -16420 0
-561 16420 0
600 16420 0
1541 -1580 -17400 0
-1541 17400 0
1580 17400 0
12640 -11800 0
13620 -11800 0
-12640 -13620 11800 0
-12640 14600 0
-12640 16560 0
12640 -14600 -16560 0
-13620 15580 0
-13620 17540 0
13620 -15580 -17540 0
-701 740 -14600 0
701 14600 0
-740 14600 0
-1681 1720 -15580 0
1681 15580 0
-1720 15580 0
701 -740 -16560 0
-701 16560 0
740 16560 0
1681 -1720 -17540 0
-1681 17540 0
1720 17540 0
12780 -11800 0
13760 -11800 0
-12780 -13760 11800 0
-12780 14740 0
-12780 16700 0
12780 -14740 -16700 0
-13760 15720 0
-13760 17680 0
13760 -15720 -17680 0
-841 880 -14740 0
841 14740 0
-880 14740 0
-1821 1860 -15720 0
1821 15720 0
-1860 15720 0
841 -880 -16700 0
-841 16700 0
880 16700 0
1821 -1860 -17680 0
-1821 17680 0
1860 17680 0
11941 -11801 0
12921 -11801 0
-11941 -12921 11801 0
-11941 13901 0
-11941 15861 0
11941 -13901 -15861 0
-12921 14881 0
-12921 16841 0
12921 -14881 -16841 0
-1 41 -13901 0
1 13901 0
-41 13901 0
-981 1021 -14881 0
981 14881 0
-1021 14881 0
1 -41 -15861 0
-1 15861 0
41 15861 0
981 -1021 -16841 0
-981 16841 0
1021 16841 0
12081 -11801 0
13061 -11801 0
-12081 -13061 11801 0
-12081 14041 0
-12081 16001 0
12081 -14041 -16001 0
-13061 15021 0
-13061 16981 0
13061 -15021 -16981 0
-141 181 -14041 0
141 14041 0
-181 14041 0
-1121 1161 -15021 0
1121 15021 0
-1161 15021 0
141 -181 -16001 0
-141 16001 0
181 16001 0
1121 -1161 -16981 0
-1121 16981 0
1161 16981 0
12221 -11801 0
13201 -11801 0
-12221 -13201 11801 0
-12221 14181 0
-12221 16141 0
12221 -14181 -16141 0
-13201 15161 0
-13201 17121 0
13201 -15161 -17121 0
-281 321 -14181 0
281 14181 0
-321 14181 0
-1261 1301 -15161 0
1261 15161 0
-1301 15161 0
281 -321 -16141 0
-281 16141 0
321 16141 0
1261 -1301 -17121 0
-1261 17121 0
1301 17121 0
12361 -11801 0
13341 -11801 0
-12361 -13341 11801 0
-12361 14321 0
-12361 16281 0
12361 -14321 -16281 0
-13341 15301 0
-13341 17261 0
13341 -15301 -17261 0
-421 461 -14321 0
421 14321 0
-461 14321 0
-1401 1441 -15301 0
1401 15301 0
-1441 15301 0
421 -461 -16281 0
-421 16281 0
461 16281 0
1401 -1441 -17261 0
-1401 17261 0
1441 17261 0
12501 -11801 0
13481 -11801 0
-12501 -13481 11801 0
-12501 14461 0
-12501 16421 0
12501 -14461 -16421 0
-13481 15441 0
-13481 17401 0
13481 -15441 -17401 0
-561 601 -14461 0
561 14461 0
-601 14461 0
-1541 1581 -15441 0
1541 15441 0
-1581 15441 0
561 -601 -16421 0
-561 16421 0
601 16421 0
1541 -1581 -17401 0
-1541 17401 0
1581 17401 0
12641 -11801 0
13621 -11801 0
-12641 -13621 11801 0
-12641 14601 0
-12641 16561 0
12641 -14601 -16561 0
-13621 15581 0
-13621 17541 0
13621 -15581 -17541 0
-701 741 -14601 0
701 14601 0
-741 14601 0
-1681 1721 -15581 0
1681 15581 0
-1721 15581 0
701 -741 -16561 0
-701 16561 0
741 16561 0
1681 -1721 -17541 0
-1681 17541 0
1721 17541 0
12781 -11801 0
13761 -11801 0
-12781 -13761 11801 0
-12781 14741 0
-12781 16701 0
12781 -14741 -16701 0
-13761 15721 0
-13761 17681 0
13761 -15721 -17681 0
-841 881 -14741 0
841 14741 0
-881 14741 0
-1821 1861 -15721 0
1821 15721 0
-1861 15721 0
841 -881 -16701 0
-841 16701 0
881 16701 0
1821 -1861 -17681 0
-1821 17681 0
1861 17681 0
11942 -11802 0
12922 -11802 0
-11942 -12922 11802 0
-11942 13902 0
-11942 15862 0
11942 -13902 -15862 0
-12922 14882 0
-12922 16842 0
12922 -14882 -16842 0
-1 42 -13902 0
1 13902 0
-42 13902 0
-981 1022 -14882 0
981 14882 0
-1022 14882 0
1 -42 -15862 0
-1 15862 0
42 15862 0
981 -1022 -16842 0
-981 16842 0
1022 16842 0
12082 -11802 0
13062 -11802 0
-12082 -13062 11802 0
-12082 14042 0
-12082 16002 0
12082 -14042 -16002 0
-13062 15022 0
-13062 16982 0
13062 -15022 -16982 0
-141 182 -14042 0
141 14042 0
-182 14042 0
-1121 1162 -15022 0
1121 15022 0
-1162 15022 0
141 -182 -16002 0
-141 16002 0
182 16002 0
1121 -1162 -16982 0
-1121 16982 0
1162 16982 0
12222 -11802 0
13202 -11802 0
-12222 -13202 11802 0
-12222 14182 0
-12222 16142 0
12222 -14182 -16142 0
-13202 15162 0
-13202 17122 0
13202 -15162 -17122 0
-281 322 -14182 0
281 14182 0
-322 14182 0
-1261 1302 -15162 0
1261 15162 0
-1302 15162 0
281 -322 -16142 0
-281 16142 0
322 16142 0
1261 -1302 -17122 0
-1261 17122 0
1302 17122 0
12362 -11802 0
13342 -11802 0
-12362 -13342 11802 0
-12362 14322 0
-12362 16282 0
12362 -14322 -16282 0
-13342 15302 0
-13342 17262 0
13342 -15302 -17262 0
-421 462 -14322 0
421 14322 0
-462 14322 0
-1401 1442 -15302 0
1401 15302 0
-1442 15302 0
421 -462 -16282 0
-421 16282 0
462 16282 0
1401 -1442 -17262 0
-1401 17262 0
1442 17262 0
12502 -11802 0
13482 -11802 0
-12502 -13482 11802 0
-12502 14462 0
-12502 16422 0
12502 -14462 -16422 0
-13482 15442 0
-13482 17402 0
13482 -15442 -17402 0
-561 602 -14462 0
561 14462 0
-602 14462 0
-1541 1582 -15442 0
1541 15442 0
-1582 15442 0
561 -602 -16422 0
-561 16422 0
602 16422 0
1541 -1582 -17402 0
-1541 17402 0
1582 17402 0
12642 -11802 0
13622 -11802 0
-12642 -13622 11802 0
-12642 14602 0
-12642 16562 0
12642 -14602 -16562 0
-13622 15582 0
-13622 17542 0
13622 -15582 -17542 0
-701 742 -14602 0
701 14602 0
-742 14602 0
-1681 1722 -15582 0
1681 15582 0
-1722 15582 0
701 -742 -16562 0
-701 16562 0
742 16562 0
1681 -1722 -17542 0
-1681 17542 0
1722 17542 0
12782 -11802 0
13762 -11802 0
-12782 -13762 11802 0
-12782 14742 0
-12782 16702 0
12782 -14742 -16702 0
-13762 15722 0
-13762 17682 0
13762 -15722 -17682 0
-841 882 -14742 0
841 14742 0
-882 14742 0
-1821 1862 -15722 0
1821 15722 0
-1862 15722 0
841 -882 -16702 0
-841 16702 0
882 16702 0
1821 -1862 -17682 0
-1821 17682 0
1862 17682 0
11943 -11803 0
12923 -11803 0
-11943 -12923 11803 0
-11943 13903 0
-11943 15863 0
11943 -13903 -15863 0
-12923 14883 0
-12923 16843 0
12923 -14883 -16843 0
-1 43 -13903 0
1 13903 0
-43 13903 0
-981 1023 -14883 0
981 14883 0
-1023 14883 0
1 -43 -15863 0
-1 15863 0
43 15863 0
981 -1023 -16843 0
-981 16843 0
1023 16843 0
12083 -11803 0
13063 -11803 0
-12083 -13063 11803 0
-12083 14043 0
-12083 16003 0
12083 -14043 -16003 0
-13063 15023 0
-13063 16983 0
13063 -15023 -16983 0
-141 183 -14043 0
141 14043 0
-183 14043 0
-1121 1163 -15023 0
1121 15023 0
-1163 15023 0
141 -183 -16003 0
-141 16003 0
183 16003 0
1121 -1163 -16983 0
-1121 16983 0
1163 16983 0
12223 -11803 0
13203 -11803 0
-12223 -13203 11803 0
-12223 14183 0
-12223 16143 0
12223 -14183 -16143 0
-13203 15163 0
-13203 17123 0
13203 -15163 -17123 0
-281 323 -14183 0
281 14183 0
-323 14183 0
-1261 1303 -15163 0
1261 15163 0
-1303 15163 0
281 -323 -16143 0
-281 16143 0
323 16143 0
1261 -1303 -17123 0
-1261 17123 0
1303 17123 0
12363 -11803 0
13343 -11803 0
-12363 -13343 11803 0
-12363 14323 0
-12363 16283 0
12363 -14323 -16283 0
-13343 15303 0
-13343 17263 0
13343 -15303 -17263 0
-421 463 -14323 0
421 14323 0
-463 14323 0
-1401 1443 -15303 0
1401 15303 0
-1443 15303 0
421 -463 -16283 0
-421 16283 0
463 16283 0
1401 -1443 -17263 0
-1401 17263 0
1443 17263 0
12503 -11803 0
13483 -11803 0
-12503 -13483 11803 0
-12503 14463 0
-12503 16423 0
12503 -14463 -16423 0
-13483 15443 0
-13483 17403 0
13483 -15443 -17403 0
-561 603 -14463 0
561 14463 0
-603 14463 0
-1541 1583 -15443 0
1541 15443 0
-1583 15443 0
561 -603 -16423 0
-561 16423 0
603 16423 0
1541 -1583 -17403 0
-1541 17403 0
1583 17403 0
12643 -11803 0
13623 -11803 0
-12643 -13623 11803 0
-12643 14603 0
-12643 16563 0
12643 -14603 -16563 0
-13623 15583 0
-13623 17543 0
13623 -15583 -17543 0
-701 743 -14603 0
701 14603 0
-743 14603 0
-1681 1723 -15583 0
1681 15583 0
-1723 15583 0
701 -743 -16563 0
-701 16563 0
743 16563 0
1681 -1723 -17543 0
-1681 17543 0
1723 17543 0
12783 -11803 0
13763 -11803 0
-12783 -13763 11803 0
-12783 14743 0
-12783 16703 0
12783 -14743 -16703 0
-13763 15723 0
-13763 17683 0
13763 -15723 -17683 0
-841 883 -14743 0
841 14743 0
-883 14743 0
-1821 1863 -15723 0
1821 15723 0
-1863 15723 0
841 -883 -16703 0
-841 16703 0
883 16703 0
1821 -1863 -17683 0
-1821 17683 0
1863 17683 0
11944 -11804 0
12924 -11804 0
-11944 -12924 11804 0
-11944 13904 0
-11944 15864 0
11944 -13904 -15864 0
-12924 14884 0
-12924 16844 0
12924 -14884 -16844 0
-1 44 -13904 0
1 13904 0
-44 13904 0
-981 1024 -14884 0
981 14884 0
-1024 14884 0
1 -44 -15864 0
-1 15864 0
44 15864 0
981 -1024 -16844 0
-981 16844 0
1024 16844 0
12084 -11804 0
13064 -11804 0
-12084 -13064 11804 0
-12084 14044 0
-12084 16004 0
12084 -14044 -16004 0
-13064 15024 0
-13064 16984 0
13064 -15024 -16984 0
-141 184 -14044 0
141 14044 0
-184 14044 0
-1121 1164 -15024 0
1121 15024 0
-1164 15024 0
141 -184 -16004 0
-141 16004 0
184 16004 0
1121 -1164 -16984 0
-1121 16984 0
1164 16984 0
12224 -11804 0
13204 -11804 0
-12224 -13204 11804 0
-12224 14184 0
-12224 16144 0
12224 -14184 -16144 0
-13204 15164 0
-13204 17124 0
13204 -15164 -17124 0
-281 324 -14184 0
281 14184 0
-324 14184 0
-1261 1304 -15164 0
1261 15164 0
-1304 15164 0
281 -324 -16144 0
-281 16144 0
324 16144 0
1261 -1304 -17124 0
-1261 17124 0
1304 17124 0
12364 -11804 0
13344 -11804 0
-12364 -13344 11804 0
-12364 14324 0
-12364 16284 0
12364 -14324 -16284 0
-13344 15304 0
-13344 17264 0
13344 -15304 -17264 0
-421 464 -14324 0
421 14324 0
-464 14324 0
-1401 1444 -15304 0
1401 15304 0
-1444 15304 0
421 -464 -16284 0
-421 16284 0
464 16284 0
1401 -1444 -17264 0
-1401 17264 0
1444 17264 0
12504 -11804 0
13484 -11804 0
-12504 -13484 11804 0
-12504 14464 0
-12504 16424 0
12504 -14464 -16424 0
-13484 15444 0
-13484 17404 0
13484 -15444 -17404 0
-561 604 -14464 0
561 14464 0
-604 14464 0
-1541 1584 -15444 0
1541 15444 0
-1584 15444 0
561 -604 -16424 0
-561 16424 0
604 16424 0
1541 -1584 -17404 0
-1541 17404 0
1584 17404 0
12644 -11804 0
13624 -11804 0
-12644 -13624 11804 0
-12644 14604 0
-12644 16564 0
12644 -14604 -16564 0
-13624 15584 0
-13624 17544 0
13624 -15584 -17544 0
-701 744 -14604 0
701 14604 0
-744 14604 0
-1681 1724 -15584 0
1681 15584 0
-1724 15584 0
701 -744 -16564 0
-701 16564 0
744 16564 0
1681 -1724 -17544 0
-1681 17544 0
1724 17544 0
12784 -11804 0
13764 -11804 0
-12784 -13764 11804 0
-12784 14744 0
-12784 16704 0
12784 -14744 -16704 0
-13764 15724 0
-13764 17684 0
13764 -15724 -17684 0
-841 884 -14744 0
841 14744 0
-884 14744 0
-1821 1864 -15724 0
1821 15724 0
-1864 15724 0
841 -884 -16704 0
-841 16704 0
884 16704 0
1821 -1864 -17684 0
-1821 17684 0
1864 17684 0
11945 -11805 0
12925 -11805 0
-11945 -12925 11805 0
-11945 13905 0
-11945 15865 0
11945 -13905 -15865 0
-12925 14885 0
-12925 16845 0
12925 -14885 -16845 0
-1 45 -13905 0
1 13905 0
-45 13905 0
-981 1025 -14885 0
981 14885 0
-1025 14885 0
1 -45 -15865 0
-1 15865 0
45 15865 0
981 -1025 -16845 0
-981 16845 0
1025 16845 0
12085 -11805 0
13065 -11805 0
-12085 -13065 11805 0
-12085 14045 0
-12085 16005 0
12085 -14045 -16005 0
-13065 15025 0
-13065 16985 0
13065 -15025 -16985 0
-141 185 -14045 0
141 14045 0
-185 14045 0
-1121 1165 -15025 0
1121 15025 0
-1165 15025 0
141 -185 -16005 0
-141 16005 0
185 16005 0
1121 -1165 -16985 0
-1121 16985 0
1165 16985 0
12225 -11805 0
13205 -11805 0
-12225 -13205 11805 0
-12225 14185 0
-12225 16145 0
12225 -14185 -16145 0
-13205 15165 0
-13205 17125 0
13205 -15165 -17125 0
-281 325 -14185 0
281 14185 0
-325 14185 0
-1261 1305 -15165 0
1261 15165 0
-1305 15165 0
281 -325 -16145 0
-281 16145 0
325 16145 0
1261 -1305 -17125 0
-1261 17125 0
1305 17125 0
12365 -11805 0
13345 -11805 0
-12365 -13345 11805 0
-12365 14325 0
-12365 16285 0
12365 -14325 -16285 0
-13345 15305 0
-13345 17265 0
13345 -15305 -17265 0
-421 465 -14325 0
421 14325 0
-465 14325 0
-1401 1445 -15305 0
1401 15305 0
-1445 15305 0
421 -465 -16285 0
-421 16285 0
465 16285 0
1401 -1445 -17265 0
-1401 17265 0
1445 17265 0
12505 -11805 0
13485 -11805 0
-12505 -13485 11805 0
-12505 14465 0
-12505 16425 0
12505 -14465 -16425 0
-13485 15445 0
-13485 17405 0
13485 -15445 -17405 0
-561 605 -14465 0
561 14465 0
-605 14465 0
-1541 1585 -15445 0
1541 15445 0
-1585 15445 0
561 -605 -16425 0
-561 16425 0
605 16425 0
1541 -1585 -17405 0
-1541 17405 0
1585 17405 0
12645 -11805 0
13625 -11805 0
-12645 -13625 11805 0
-12645 14605 0
-12645 16565 0
12645 -14605 -16565 0
-13625 15585 0
-13625 17545 0
13625 -15585 -17545 0
-701 745 -14605 0
701 14605 0
-745 14605 0
-1681 1725 -15585 0
1681 15585 0
-1725 15585 0
701 -745 -16565 0
-701 16565 0
745 16565 0
1681 -1725 -17545 0
-1681 17545 0
1725 17545 0
12785 -11805 0
13765 -11805 0
-12785 -13765 11805 0
-12785 14745 0
-12785 16705 0
12785 -14745 -16705 0
-13765 15725 0
-13765 17685 0
13765 -15725 -17685 0
-841 885 -14745 0
841 14745 0
-885 14745 0
-1821 1865 -15725 0
1821 15725 0
-1865 15725 0
841 -885 -16705 0
-841 16705 0
885 16705 0
1821 -1865 -17685 0
-1821 17685 0
1865 17685 0
11946 -11806 0
12926 -11806 0
-11946 -12926 11806 0
-11946 13906 0
-11946 15866 0
11946 -13906 -15866 0
-12926 14886 0
-12926 16846 0
12926 -14886 -16846 0
-1 46 -13906 0
1 13906 0
-46 13906 0
-981 1026 -14886 0
981 14886 0
-1026 14886 0
1 -46 -15866 0
-1 15866 0
46 15866 0
981 -1026 -16846 0
-981 16846 0
1026 16846 0
12086 -11806 0
13066 -11806 0
-12086 -13066 11806 0
-12086 14046 0
-12086 16006 0
12086 -14046 -16006 0
-13066 15026 0
-13066 16986 0
13066 -15026 -16986 0
-141 186 -14046 0
141 14046 0
-186 14046 0
-1121 1166 -15026 0
1121 15026 0
-1166 15026 0
141 -186 -16006 0
-141 16006 0
186 16006 0
1121 -1166 -16986 0
-1121 16986 0
1166 16986 0
12226 -11806 0
13206 -11806 0
-12226 -13206 11806 0
-12226 14186 0
-12226 16146 0
12226 -14186 -16146 0
-13206 15166 0
-13206 17126 0
13206 -15166 -17126 0
-281 326 -14186 0
281 14186 0
-326 14186 0
-1261 1306 -15166 0
1261 15166 0
-1306 15166 0
281 -326 -16146 0
-281 16146 0
326 16146 0
1261 -1306 -17126 0
-1261 17126 0
1306 17126 0
12366 -11806 0
13346 -11806 0
-12366 -13346 11806 0
-12366 14326 0
-12366 16286 0
12366 -14326 -16286 0
-13346 15306 0
-13346 17266 0
13346 -15306 -17266 0
-421 466 -14326 0
421 14326 0
-466 14326 0
-1401 1446 -15306 0
1401 15306 0
-1446 15306 0
421 -466 -16286 0
-421 16286 0
466 16286 0
1401 -1446 -17266 0
-1401 17266 0
1446 17266 0
12506 -11806 0
13486 -11806 0
-12506 -13486 11806 0
-12506 14466 0
-12506 16426 0
12506 -14466 -16426 0
-13486 15446 0
-13486 17406 0
13486 -15446 -17406 0
-561 606 -14466 0
561 14466 0
-606 14466 0
-1541 1586 -15446 0
1541 15446 0
-1586 15446 0
561 -606 -16426 0
-561 16426 0
606 16426 0
1541 -1586 -17406 0
-1541 17406 0
1586 17406 0
12646 -11806 0
13626 -11806 0
-12646 -13626 11806 0
-12646 14606 0
-12646 16566 0
12646 -14606 -16566 0
-13626 15586 0
-13626 17546 0
13626 -15586 -17546 0
-701 746 -14606 0
701 14606 0
-746 14606 0
-1681 1726 -15586 0
1681 15586 0
-1726 15586 0
701 -746 -16566 0
-701 16566 0
746 16566 0
1681 -1726 -17546 0
-1681 17546 0
1726 17546 0
12786 -11806 0
13766 -11806 0
-12786 -13766 11806 0
-12786 14746 0
-12786 16706 0
12786 -14746 -16706 0
-13766 15726 0
-13766 17686 0
13766 -15726 -17686 0
-841 886 -14746 0
841 14746 0
-886 14746 0
-1821 1866 -15726 0
1821 15726 0
-1866 15726 0
841 -886 -16706 0
-841 16706 0
886 16706 0
1821 -1866 -17686 0
-1821 17686 0
1866 17686 0
11947 -11807 0
12927 -11807 0
-11947 -12927 11807 0
-11947 13907 0
-11947 15867 0
11947 -13907 -15867 0
-12927 14887 0
-12927 16847 0
12927 -14887 -16847 0
-1 47 -13907 0
1 13907 0
-47 13907 0
-981 1027 -14887 0
981 14887 0
-1027 14887 0
1 -47 -15867 0
-1 15867 0
47 15867 0
981 -1027 -16847 0
-981 16847 0
1027 16847 0
12087 -11807 0
13067 -11807 0
-12087 -13067 11807 0
-12087 14047 0
-12087 16007 0
12087 -14047 -16007 0
-13067 15027 0
-13067 16987 0
13067 -15027 -16987 0
-141 187 -14047 0
141 14047 0
-187 14047 0
-1121 1167 -15027 0
1121 15027 0
-1167 15027 0
141 -187 -16007 0
-141 16007 0
187 16007 0
1121 -1167 -16987 0
-1121 16987 0
1167 16987 0
12227 -11807 0
13207 -11807 0
-12227 -13207 11807 0
-12227 14187 0
-12227 16147 0
12227 -14187 -16147 0
-13207 15167 0
-13207 17127 0
13207 -15167 -17127 0
-281 327 -14187 0
281 14187 0
-327 14187 0
-1261 1307 -15167 0
1261 15167 0
-1307 15167 0
281 -327 -16147 0
-281 16147 0
327 16147 0
1261 -1307 -17127 0
-1261 17127 0
1307 17127 0
12367 -11807 0
13347 -11807 0
-12367 -13347 11807 0
-12367 14327 0
-12367 16287 0
12367 -14327 -16287 0
-13347 15307 0
-13347 17267 0
13347 -15307 -17267 0
-421 467 -14327 0
421 14327 0
-467 14327 0
-1401 1447 -15307 0
1401 15307 0
-1447 15307 0
421 -467 -16287 0
-421 16287 0
467 16287 0
1401 -1447 -17267 0
-1401 17267 0
1447 17267 0
12507 -11807 0
13487 -11807 0
-12507 -13487 11807 0
-12507 14467 0
-12507 16427 0
12507 -14467 -16427 0
-13487 15447 0
-13487 17407 0
13487 -15447 -17407 0
-561 607 -14467 0
561 14467 0
-607 14467 0
-1541 1587 -15447 0
1541 15447 0
-1587 15447 0
561 -607 -16427 0
-561 16427 0
607 16427 0
1541 -1587 -17407 0
-1541 17407 0
1587 17407 0
12647 -11807 0
13627 -11807 0
-12647 -13627 11807 0
-12647 14607 0
-12647 16567 0
12647 -14607 -16567 0
-13627 15587 0
-13627 17547 0
13627 -15587 -17547 0
-701 747 -14607 0
701 14607 0
-747 14607 0
-1681 1727 -15587 0
1681 15587 0
-1727 15587 0
701 -747 -16567 0
-701 16567 0
747 16567 0
1681 -1727 -17547 0
-1681 17547 0
1727 17547 0
12787 -11807 0
13767 -11807 0
-12787 -13767 11807 0
-12787 14747 0
-12787 16707 0
12787 -14747 -16707 0
-13767 15727 0
-13767 17687 0
13767 -15727 -17687 0
-841 887 -14747 0
841 14747 0
-887 14747 0
-1821 1867 -15727 0
1821 15727 0
-1867 15727 0
841 -887 -16707 0
-841 16707 0
887 16707 0
1821 -1867 -17687 0
-1821 17687 0
1867 17687 0
11948 -11808 0
12928 -11808 0
-11948 -12928 11808 0
-11948 13908 0
-11948 15868 0
11948 -13908 -15868 0
-12928 14888 0
-12928 16848 0
12928 -14888 -16848 0
-1 48 -13908 0
1 13908 0
-48 13908 0
-981 1028 -14888 0
981 14888 0
-1028 14888 0
1 -48 -15868 0
-1 15868 0
48 15868 0
981 -1028 -16848 0
-981 16848 0
1028 16848 0
12088 -11808 0
13068 -11808 0
-12088 -13068 11808 0
-12088 14048 0
-12088 16008 0
12088 -14048 -16008 0
-13068 15028 0
-13068 16988 0
13068 -15028 -16988 0
-141 188 -14048 0
141 14048 0
-188 14048 0
-1121 1168 -15028 0
1121 15028 0
-1168 15028 0
141 -188 -16008 0
-141 16008 0
188 16008 0
1121 -1168 -16988 0
-1121 16988 0
1168 16988 0
12228 -11808 0
13208 -11808 0
-12228 -13208 11808 0
-12228 14188 0
-12228 16148 0
12228 -14188 -16148 0
-13208 15168 0
-13208 17128 0
13208 -15168 -17128 0
-281 328 -14188 0
281 14188 0
-328 14188 0
-1261 1308 -15168 0
1261 15168 0
-1308 15168 0
281 -328 -16148 0
-281 16148 0
328 16148 0
1261 -1308 -17128 0
-1261 17128 0
1308 17128 0
12368 -11808 0
13348 -11808 0
-12368 -13348 11808 0
-12368 14328 0
-12368 16288 0
12368 -14328 -16288 0
-13348 15308 0
-13348 17268 0
13348 -15308 -17268 0
-421 468 -14328 0
421 14328 0
-468 14328 0
-1401 1448 -15308 0
1401 15308 0
-1448 15308 0
421 -468 -16288 0
-421 16288 0
468 16288 0
1401 -1448 -17268 0
-1401 17268 0
1448 17268 0
12508 -11808 0
13488 -11808 0
-12508 -13488 11808 0
-12508 14468 0
-12508 16428 0
12508 -14468 -16428 0
-13488 15448 0
-13488 17408 0
13488 -15448 -17408 0
-561 608 -14468 0
561 14468 0
-608 14468 0
-1541 1588 -15448 0
1541 15448 0
-1588 15448 0
561 -608 -16428 0
-561 16428 0
608 16428 0
1541 -1588 -17408 0
-1541 17408 0
1588 17408 0
12648 -11808 0
13628 -11808 0
-12648 -13628 11808 0
-12648 14608 0
-12648 16568 0
12648 -14608 -16568 0
-13628 15588 0
-13628 17548 0
13628 -15588 -17548 0
-701 748 -14608 0
701 14608 0
-748 14608 0
-1681 1728 -15588 0
1681 15588 0
-1728 15588 0
701 -748 -16568 0
-701 16568 0
748 16568 0
1681 -1728 -17548 0
-1681 17548 0
1728 17548 0
12788 -11808 0
13768 -11808 0
-12788 -13768 11808 0
-12788 14748 0
-12788 16708 0
12788 -14748 -16708 0
-13768 15728 0
-13768 17688 0
13768 -15728 -17688 0
-841 888 -14748 0
841 14748 0
-888 14748 0
-1821 1868 -15728 0
1821 15728 0
-1868 15728 0
841 -888 -16708 0
-841 16708 0
888 16708 0
1821 -1868 -17688 0
-1821 17688 0
1868 17688 0
11949 -11809 0
12929 -11809 0
-11949 -12929 11809 0
-11949 13909 0
-11949 15869 0
11949 -13909 -15869 0
-12929 14889 0
-12929 16849 0
12929 -14889 -16849 0
-1 49 -13909 0
1 13909 0
-49 13909 0
-981 1029 -14889 0
981 14889 0
-1029 14889 0
1 -49 -15869 0
-1 15869 0
49 15869 0
981 -1029 -16849 0
-981 16849 0
1029 16849 0
12089 -11809 0
13069 -11809 0
-12089 -13069 11809 0
-12089 14049 0
-12089 16009 0
12089 -14049 -16009 0
-13069 15029 0
-13069 16989 0
13069 -15029 -16989 0
-141 189 -14049 0
141 14049 0
-189 14049 0
-1121 1169 -15029 0
1121 15029 0
-1169 15029 0
141 -189 -16009 0
-141 16009 0
189 16009 0
1121 -1169 -16989 0
-1121 16989 0
1169 16989 0
12229 -11809 0
13209 -11809 0
-12229 -13209 11809 0
-12229 14189 0
-12229 16149 0
12229 -14189 -16149 0
-13209 15169 0
-13209 17129 0
13209 -15169 -17129 0
-281 329 -14189 0
281 14189 0
-329 14189 0
-1261 1309 -15169 0
1261 15169 0
-1309 15169 0
281 -329 -16149 0
-281 16149 0
329 16149 0
1261 -1309 -17129 0
-1261 17129 0
1309 17129 0
12369 -11809 0
13349 -11809 0
-12369 -13349 11809 0
-12369 14329 0
-12369 16289 0
12369 -14329 -16289 0
-13349 15309 0
-13349 17269 0
13349 -15309 -17269 0
-421 469 -14329 0
421 14329 0
-469 14329 0
-1401 1449 -15309 0
1401 15309 0
-1449 15309 0
421 -469 -16289 0
-421 16289 0
469 16289 0
1401 -1449 -17269 0
-1401 17269 0
1449 17269 0
12509 -11809 0
13489 -11809 0
-12509 -13489 11809 0
-12509 14469 0
-12509 16429 0
12509 -14469 -16429 0
-13489 15449 0
-13489 17409 0
13489 -15449 -17409 0
-561 609 -14469 0
561 14469 0
-609 14469 0
-1541 1589 -15449 0
1541 15449 0
-1589 15449 0
561 -609 -16429 0
-561 16429 0
609 16429 0
1541 -1589 -17409 0
-1541 17409 0
1589 17409 0
12649 -11809 0
13629 -11809 0
-12649 -13629 11809 0
-12649 14609 0
-12649 16569 0
12649 -14609 -16569 0
-13629 15589 0
-13629 17549 0
13629 -15589 -17549 0
-701 749 -14609 0
701 14609 0
-749 14609 0
-1681 1729 -15589 0
1681 15589 0
-1729 15589 0
701 -749 -16569 0
-701 16569 0
749 16569 0
1681 -1729 -17549 0
-1681 17549 0
1729 17549 0
12789 -11809 0
13769 -11809 0
-12789 -13769 11809 0
-12789 14749 0
-12789 16709 0
12789 -14749 -16709 0
-13769 15729 0
-13769 17689 0
13769 -15729 -17689 0
-841 889 -14749 0
841 14749 0
-889 14749 0
-1821 1869 -15729 0
1821 15729 0
-1869 15729 0
841 -889 -16709 0
-841 16709 0
889 16709 0
1821 -1869 -17689 0
-1821 17689 0
1869 17689 0
11950 -11810 0
12930 -11810 0
-11950 -12930 11810 0
-11950 13910 0
-11950 15870 0
11950 -13910 -15870 0
-12930 14890 0
-12930 16850 0
12930 -14890 -16850 0
-1 50 -13910 0
1 13910 0
-50 13910 0
-981 1030 -14890 0
981 14890 0
-1030 14890 0
1 -50 -15870 0
-1 15870 0
50 15870 0
981 -1030 -16850 0
-981 16850 0
1030 16850 0
12090 -11810 0
13070 -11810 0
-12090 -13070 11810 0
-12090 14050 0
-12090 16010 0
12090 -14050 -16010 0
-13070 15030 0
-13070 16990 0
13070 -15030 -16990 0
-141 190 -14050 0
141 14050 0
-190 14050 0
-1121 1170 -15030 0
1121 15030 0
-1170 15030 0
141 -190 -16010 0
-141 16010 0
190 16010 0
1121 -1170 -16990 0
-1121 16990 0
1170 16990 0
12230 -11810 0
13210 -11810 0
-12230 -13210 11810 0
-12230 14190 0
-12230 16150 0
12230 -14190 -16150 0
-13210 15170 0
-13210 17130 0
13210 -15170 -17130 0
-281 330 -14190 0
281 14190 0
-330 14190 0
-1261 1310 -15170 0
1261 15170 0
-1310 15170 0
281 -330 -16150 0
-281 16150 0
330 16150 0
1261 -1310 -17130 0
-1261 17130 0
1310 17130 0
12370 -11810 0
13350 -11810 0
-12370 -13350 11810 0
-12370 14330 0
-12370 16290 0
12370 -14330 -16290 0
-13350 15310 0
-13350 17270 0
13350 -15310 -17270 0
-421 470 -14330 0
421 14330 0
-470 14330 0
-1401 1450 -15310 0
1401 15310 0
-1450 15310 0
421 -470 -16290 0
-421 16290 0
470 16290 0
1401 -1450 -17270 0
-1401 17270 0
1450 17270 0
12510 -11810 0
13490 -11810 0
-12510 -13490 11810 0
-12510 14470 0
-12510 16430 0
12510 -14470 -16430 0
-13490 15450 0
-13490 17410 0
13490 -15450 -17410 0
-561 610 -14470 0
561 14470 0
-610 14470 0
-1541 1590 -15450 0
1541 15450 0
-1590 15450 0
561 -610 -16430 0
-561 16430 0
610 16430 0
1541 -1590 -17410 0
-1541 17410 0
1590 17410 0
12650 -11810 0
13630 -11810 0
-12650 -13630 11810 0
-12650 14610 0
-12650 16570 0
12650 -14610 -16570 0
-13630 15590 0
-13630 17550 0
13630 -15590 -17550 0
-701 750 -14610 0
701 14610 0
-750 14610 0
-1681 1730 -15590 0
1681 15590 0
-1730 15590 0
701 -750 -16570 0
-701 16570 0
750 16570 0
1681 -1730 -17550 0
-1681 17550 0
1730 17550 0
12790 -11810 0
13770 -11810 0
-12790 -13770 11810 0
-12790 14750 0
-12790 16710 0
12790 -14750 -16710 0
-13770 15730 0
-13770 17690 0
13770 -15730 -17690 0
-841 890 -14750 0
841 14750 0
-890 14750 0
-1821 1870 -15730 0
1821 15730 0
-1870 15730 0
841 -890 -16710 0
-841 16710 0
890 16710 0
1821 -1870 -17690 0
-1821 17690 0
1870 17690 0
11951 -11811 0
12931 -11811 0
-11951 -12931 11811 0
-11951 13911 0
-11951 15871 0
11951 -13911 -15871 0
-12931 14891 0
-12931 16851 0
12931 -14891 -16851 0
-1 51 -13911 0
1 13911 0
-51 13911 0
-981 1031 -14891 0
981 14891 0
-1031 14891 0
1 -51 -15871 0
-1 15871 0
51 15871 0
981 -1031 -16851 0
-981 16851 0
1031 16851 0
12091 -11811 0
13071 -11811 0
-12091 -13071 11811 0
-12091 14051 0
-12091 16011 0
12091 -14051 -16011 0
-13071 15031 0
-13071 16991 0
13071 -15031 -16991 0
-141 191 -14051 0
141 14051 0
-191 14051 0
-1121 1171 -15031 0
1121 15031 0
-1171 15031 0
141 -191 -16011 0
-141 16011 0
191 16011 0
1121 -1171 -16991 0
-1121 16991 0
1171 16991 0
12231 -11811 0
13211 -11811 0
-12231 -13211 11811 0
-12231 14191 0
-12231 16151 0
12231 -14191 -16151 0
-13211 15171 0
-13211 17131 0
13211 -15171 -17131 0
-281 331 -14191 0
281 14191 0
-331 14191 0
-1261 1311 -15171 0
1261 15171 0
-1311 15171 0
281 -331 -16151 0
-281 16151 0
331 16151 0
1261 -1311 -17131 0
-1261 17131 0
1311 17131 0
12371 -11811 0
13351 -11811 0
-12371 -13351 11811 0
-12371 14331 0
-12371 16291 0
12371 -14331 -16291 0
-13351 15311 0
-13351 17271 0
13351 -15311 -17271 0
-421 471 -14331 0
421 14331 0
-471 14331 0
-1401 1451 -15311 0
1401 15311 0
-1451 15311 0
421 -471 -16291 0
-421 16291 0
471 16291 0
1401 -1451 -17271 0
-1401 17271 0
1451 17271 0
12511 -11811 0
13491 -11811 0
-12511 -13491 11811 0
-12511 14471 0
-12511 16431 0
12511 -14471 -16431 0
-13491 15451 0
-13491 17411 0
13491 -15451 -17411 0
-561 611 -14471 0
561 14471 0
-611 14471 0
-1541 1591 -15451 0
1541 15451 0
-1591 15451 0
561 -611 -16431 0
-561 16431 0
611 16431 0
1541 -1591 -17411 0
-1541 17411 0
1591 17411 0
12651 -11811 0
13631 -11811 0
-12651 -13631 11811 0
-12651 14611 0
-12651 16571 0
12651 -14611 -16571 0
-13631 15591 0
-13631 17551 0
13631 -15591 -17551 0
-701 751 -14611 0
701 14611 0
-751 14611 0
-1681 1731 -15591 0
1681 15591 0
-1731 15591 0
701 -751 -16571 0
-701 16571 0
751 16571 0
1681 -1731 -17551 0
-1681 17551 0
1731 17551 0
12791 -11811 0
13771 -11811 0
-12791 -13771 11811 0
-12791 14751 0
-12791 16711 0
12791 -14751 -16711 0
-13771 15731 0
-13771 17691 0
13771 -15731 -17691 0
-841 891 -14751 0
841 14751 0
-891 14751 0
-1821 1871 -15731 0
1821 15731 0
-1871 15731 0
841 -891 -16711 0
-841 16711 0
891 16711 0
1821 -1871 -17691 0
-1821 17691 0
1871 17691 0
11952 -11812 0
12932 -11812 0
-11952 -12932 11812 0
-11952 13912 0
-11952 15872 0
11952 -13912 -15872 0
-12932 14892 0
-12932 16852 0
12932 -14892 -16852 0
-1 52 -13912 0
1 13912 0
-52 13912 0
-981 1032 -14892 0
981 14892 0
-1032 14892 0
1 -52 -15872 0
-1 15872 0
52 15872 0
981 -1032 -16852 0
-981 16852 0
1032 16852 0
12092 -11812 0
13072 -11812 0
-12092 -13072 11812 0
-12092 14052 0
-12092 16012 0
12092 -14052 -16012 0
-13072 15032 0
-13072 16992 0
13072 -15032 -16992 0
-141 192 -14052 0
141 14052 0
-192 14052 0
-1121 1172 -15032 0
1121 15032 0
-1172 15032 0
141 -192 -16012 0
-141 16012 0
192 16012 0
1121 -1172 -16992 0
-1121 16992 0
1172 16992 0
12232 -11812 0
13212 -11812 0
-12232 -13212 11812 0
-12232 14192 0
-12232 16152 0
12232 -14192 -16152 0
-13212 15172 0
-13212 17132 0
13212 -15172 -17132 0
-281 332 -14192 0
281 14192 0
-332 14192 0
-1261 1312 -15172 0
1261 15172 0
-1312 15172 0
281 -332 -16152 0
-281 16152 0
332 16152 0
1261 -1312 -17132 0
-1261 17132 0
1312 17132 0
12372 -11812 0
13352 -11812 0
-12372 -13352 11812 0
-12372 14332 0
-12372 16292 0
12372 -14332 -16292 0
-13352 15312 0
-13352 17272 0
13352 -15312 -17272 0
-421 472 -14332 0
421 14332 0
-472 14332 0
-1401 1452 -15312 0
1401 15312 0
-1452 15312 0
421 -472 -16292 0
-421 16292 0
472 16292 0
1401 -1452 -17272 0
-1401 17272 0
1452 17272 0
12512 -11812 0
13492 -11812 0
-12512 -13492 11812 0
-12512 14472 0
-12512 16432 0
12512 -14472 -16432 0
-13492 15452 0
-13492 17412 0
13492 -15452 -17412 0
-561 612 -14472 0
561 14472 0
-612 14472 0
-1541 1592 -15452 0
1541 15452 0
-1592 15452 0
561 -612 -16432 0
-561 16432 0
612 16432 0
1541 -1592 -17412 0
-1541 17412 0
1592 17412 0
12652 -11812 0
13632 -11812 0
-12652 -13632 11812 0
-12652 14612 0
-12652 16572 0
12652 -14612 -16572 0
-13632 15592 0
-13632 17552 0
13632 -15592 -17552 0
-701 752 -14612 0
701 14612 0
-752 14612 0
-1681 1732 -15592 0
1681 15592 0
-1732 15592 0
701 -752 -16572 0
-701 16572 0
752 16572 0
1681 -1732 -17552 0
-1681 17552 0
1732 17552 0
12792 -11812 0
13772 -11812 0
-12792 -13772 11812 0
-12792 14752 0
-12792 16712 0
12792 -14752 -16712 0
-13772 15732 0
-13772 17692 0
13772 -15732 -17692 0
-841 892 -14752 0
841 14752 0
-892 14752 0
-1821 1872 -15732 0
1821 15732 0
-1872 15732 0
841 -892 -16712 0
-841 16712 0
892 16712 0
1821 -1872 -17692 0
-1821 17692 0
1872 17692 0
11953 -11813 0
12933 -11813 0
-11953 -12933 11813 0
-11953 13913 0
-11953 15873 0
11953 -13913 -15873 0
-12933 14893 0
-12933 16853 0
12933 -14893 -16853 0
-1 53 -13913 0
1 13913 0
-53 13913 0
-981 1033 -14893 0
981 14893 0
-1033 14893 0
1 -53 -15873 0
-1 15873 0
53 15873 0
981 -1033 -16853 0
-981 16853 0
1033 16853 0
12093 -11813 0
13073 -11813 0
-12093 -13073 11813 0
-12093 14053 0
-12093 16013 0
12093 -14053 -16013 0
-13073 15033 0
-13073 16993 0
13073 -15033 -16993 0
-141 193 -14053 0
141 14053 0
-193 14053 0
-1121 1173 -15033 0
1121 15033 0
-1173 15033 0
141 -193 -16013 0
-141 16013 0
193 16013 0
1121 -1173 -16993 0
-1121 16993 0
1173 16993 0
12233 -11813 0
13213 -11813 0
-12233 -13213 11813 0
-12233 14193 0
-12233 16153 0
12233 -14193 -16153 0
-13213 15173 0
-13213 17133 0
13213 -15173 -17133 0
-281 333 -14193 0
281 14193 0
-333 14193 0
-1261 1313 -15173 0
1261 15173 0
-1313 15173 0
281 -333 -16153 0
-281 16153 0
333 16153 0
1261 -1313 -17133 0
-1261 17133 0
1313 17133 0
12373 -11813 0
13353 -11813 0
-12373 -13353 11813 0
-12373 14333 0
-12373 16293 0
12373 -14333 -16293 0
-13353 15313 0
-13353 17273 0
13353 -15313 -17273 0
-421 473 -14333 0
421 14333 0
-473 14333 0
-1401 1453 -15313 0
1401 15313 0
-1453 15313 0
421 -473 -16293 0
-421 16293 0
473 16293 0
1401 -1453 -17273 0
-1401 17273 0
1453 17273 0
12513 -11813 0
13493 -11813 0
-12513 -13493 11813 0
-12513 14473 0
-12513 16433 0
12513 -14473 -16433 0
-13493 15453 0
-13493 17413 0
13493 -15453 -17413 0
-561 613 -14473 0
561 14473 0
-613 14473 0
-1541 1593 -15453 0
1541 15453 0
-1593 15453 0
561 -613 -16433 0
-561 16433 0
613 16433 0
1541 -1593 -17413 0
-1541 17413 0
1593 17413 0
12653 -11813 0
13633 -11813 0
-12653 -13633 11813 0
-12653 14613 0
-12653 16573 0
12653 -14613 -16573 0
-13633 15593 0
-13633 17553 0
13633 -15593 -17553 0
-701 753 -14613 0
701 14613 0
-753 14613 0
-1681 1733 -15593 0
1681 15593 0
-1733 15593 0
701 -753 -16573 0
-701 16573 0
753 16573 0
1681 -1733 -17553 0
-1681 17553 0
1733 17553 0
12793 -11813 0
13773 -11813 0
-12793 -13773 11813 0
-12793 14753 0
-12793 16713 0
12793 -14753 -16713 0
-13773 15733 0
-13773 17693 0
13773 -15733 -17693 0
-841 893 -14753 0
841 14753 0
-893 14753 0
-1821 1873 -15733 0
1821 15733 0
-1873 15733 0
841 -893 -16713 0
-841 16713 0
893 16713 0
1821 -1873 -17693 0
-1821 17693 0
1873 17693 0
11954 -11814 0
12934 -11814 0
-11954 -12934 11814 0
-11954 13914 0
-11954 15874 0
11954 -13914 -15874 0
-12934 14894 0
-12934 16854 0
12934 -14894 -16854 0
-1 54 -13914 0
1 13914 0
-54 13914 0
-981 1034 -14894 0
981 14894 0
-1034 14894 0
1 -54 -15874 0
-1 15874 0
54 15874 0
981 -1034 -16854 0
-981 16854 0
1034 16854 0
12094 -11814 0
13074 -11814 0
-12094 -13074 11814 0
-12094 14054 0
-12094 16014 0
12094 -14054 -16014 0
-13074 15034 0
-13074 16994 0
13074 -15034 -16994 0
-141 194 -14054 0
141 14054 0
-194 14054 0
-1121 1174 -15034 0
1121 15034 0
-1174 15034 0
141 -194 -16014 0
-141 16014 0
194 16014 0
1121 -1174 -16994 0
-1121 16994 0
1174 16994 0
12234 -11814 0
13214 -11814 0
-12234 -13214 11814 0
-12234 14194 0
-12234 16154 0
12234 -14194 -16154 0
-13214 15174 0
-13214 17134 0
13214 -15174 -17134 0
-281 334 -14194 0
281 14194 0
-334 14194 0
-1261 1314 -15174 0
1261 15174 0
-1314 15174 0
281 -334 -16154 0
-281 16154 0
334 16154 0
1261 -1314 -17134 0
-1261 17134 0
1314 17134 0
12374 -11814 0
13354 -11814 0
-12374 -13354 11814 0
-12374 14334 0
-12374 16294 0
12374 -14334 -16294 0
-13354 15314 0
-13354 17274 0
13354 -15314 -17274 0
-421 474 -14334 0
421 14334 0
-474 14334 0
-1401 1454 -15314 0
1401 15314 0
-1454 15314 0
421 -474 -16294 0
-421 16294 0
474 16294 0
1401 -1454 -17274 0
-1401 17274 0
1454 17274 0
12514 -11814 0
13494 -11814 0
-12514 -13494 11814 0
-12514 14474 0
-12514 16434 0
12514 -14474 -16434 0
-13494 15454 0
-13494 17414 0
13494 -15454 -17414 0
-561 614 -14474 0
561 14474 0
-614 14474 0
-1541 1594 -15454 0
1541 15454 0
-1594 15454 0
561 -614 -16434 0
-561 16434 0
614 16434 0
1541 -1594 -17414 0
-1541 17414 0
1594 17414 0
12654 -11814 0
13634 -11814 0
-12654 -13634 11814 0
-12654 14614 0
-12654 16574 0
12654 -14614 -16574 0
-13634 15594 0
-13634 17554 0
13634 -15594 -17554 0
-701 754 -14614 0
701 14614 0
-754 14614 0
-1681 1734 -15594 0
1681 15594 0
-1734 15594 0
701 -754 -16574 0
-701 16574 0
754 16574 0
1681 -1734 -17554 0
-1681 17554 0
1734 17554 0
12794 -11814 0
13774 -11814 0
-12794 -13774 11814 0
-12794 14754 0
-12794 16714 0
12794 -14754 -16714 0
-13774 15734 0
-13774 17694 0
13774 -15734 -17694 0
-841 894 -14754 0
841 14754 0
-894 14754 0
-1821 1874 -15734 0
1821 15734 0
-1874 15734 0
841 -894 -16714 0
-841 16714 0
894 16714 0
1821 -1874 -17694 0
-1821 17694 0
1874 17694 0
11955 -11815 0
12935 -11815 0
-11955 -12935 11815 0
-11955 13915 0
-11955 15875 0
11955 -13915 -15875 0
-12935 14895 0
-12935 16855 0
12935 -14895 -16855 0
-1 55 -13915 0
1 13915 0
-55 13915 0
-981 1035 -14895 0
981 14895 0
-1035 14895 0
1 -55 -15875 0
-1 15875 0
55 15875 0
981 -1035 -16855 0
-981 16855 0
1035 16855 0
12095 -11815 0
13075 -11815 0
-12095 -13075 11815 0
-12095 14055 0
-12095 16015 0
12095 -14055 -16015 0
-13075 15035 0
-13075 16995 0
13075 -15035 -16995 0
-141 195 -14055 0
141 14055 0
-195 14055 0
-1121 1175 -15035 0
1121 15035 0
-1175 15035 0
141 -195 -16015 0
-141 16015 0
195 16015 0
1121 -1175 -16995 0
-1121 16995 0
1175 16995 0
12235 -11815 0
13215 -11815 0
-12235 -13215 11815 0
-12235 14195 0
-12235 16155 0
12235 -14195 -16155 0
-13215 15175 0
-13215 17135 0
13215 -15175 -17135 0
-281 335 -14195 0
281 14195 0
-335 14195 0
-1261 1315 -15175 0
1261 15175 0
-1315 15175 0
281 -335 -16155 0
-281 16155 0
335 16155 0
1261 -1315 -17135 0
-1261 17135 0
1315 17135 0
12375 -11815 0
13355 -11815 0
-12375 -13355 11815 0
-12375 14335 0
-12375 16295 0
12375 -14335 -16295 0
-13355 15315 0
-13355 17275 0
13355 -15315 -17275 0
-421 475 -14335 0
421 14335 0
-475 14335 0
-1401 1455 -15315 0
1401 15315 0
-1455 15315 0
421 -475 -16295 0
-421 16295 0
475 16295 0
1401 -1455 -17275 0
-1401 17275 0
1455 17275 0
12515 -11815 0
13495 -11815 0
-12515 -13495 11815 0
-12515 14475 0
-12515 16435 0
12515 -14475 -16435 0
-13495 15455 0
-13495 17415 0
13495 -15455 -17415 0
-561 615 -14475 0
561 14475 0
-615 14475 0
-1541 1595 -15455 0
1541 15455 0
-1595 15455 0
561 -615 -16435 0
-561 16435 0
615 16435 0
1541 -1595 -17415 0
-1541 17415 0
1595 17415 0
12655 -11815 0
13635 -11815 0
-12655 -13635 11815 0
-12655 14615 0
-12655 16575 0
12655 -14615 -16575 0
-13635 15595 0
-13635 17555 0
13635 -15595 -17555 0
-701 755 -14615 0
701 14615 0
-755 14615 0
-1681 1735 -15595 0
1681 15595 0
-1735 15595 0
701 -755 -16575 0
-701 16575 0
755 16575 0
1681 -1735 -17555 0
-1681 17555 0
1735 17555 0
12795 -11815 0
13775 -11815 0
-12795 -13775 11815 0
-12795 14755 0
-12795 16715 0
12795 -14755 -16715 0
-13775 15735 0
-13775 17695 0
13775 -15735 -17695 0
-841 895 -14755 0
841 14755 0
-895 14755 0
-1821 1875 -15735 0
1821 15735 0
-1875 15735 0
841 -895 -16715 0
-841 16715 0
895 16715 0
1821 -1875 -17695 0
-1821 17695 0
1875 17695 0
11956 -11816 0
12936 -11816 0
-11956 -12936 11816 0
-11956 13916 0
-11956 15876 0
11956 -13916 -15876 0
-12936 14896 0
-12936 16856 0
12936 -14896 -16856 0
-1 56 -13916 0
1 13916 0
-56 13916 0
-981 1036 -14896 0
981 14896 0
-1036 14896 0
1 -56 -15876 0
-1 15876 0
56 15876 0
981 -1036 -16856 0
-981 16856 0
1036 16856 0
12096 -11816 0
13076 -11816 0
-12096 -13076 11816 0
-12096 14056 0
-12096 16016 0
12096 -14056 -16016 0
-13076 15036 0
-13076 16996 0
13076 -15036 -16996 0
-141 196 -14056 0
141 14056 0
-196 14056 0
-1121 1176 -15036 0
1121 15036 0
-1176 15036 0
141 -196 -16016 0
-141 16016 0
196 16016 0
1121 -1176 -16996 0
-1121 16996 0
1176 16996 0
12236 -11816 0
13216 -11816 0
-12236 -13216 11816 0
-12236 14196 0
-12236 16156 0
12236 -14196 -16156 0
-13216 15176 0
-13216 17136 0
13216 -15176 -17136 0
-281 336 -14196 0
281 14196 0
-336 14196 0
-1261 1316 -15176 0
1261 15176 0
-1316 15176 0
281 -336 -16156 0
-281 16156 0
336 16156 0
1261 -1316 -17136 0
-1261 17136 0
1316 17136 0
12376 -11816 0
13356 -11816 0
-12376 -13356 11816 0
-12376 14336 0
-12376 16296 0
12376 -14336 -16296 0
-13356 15316 0
-13356 17276 0
13356 -15316 -17276 0
-421 476 -14336 0
421 14336 0
-476 14336 0
-1401 1456 -15316 0
1401 15316 0
-1456 15316 0
421 -476 -16296 0
-421 16296 0
476 16296 0
1401 -1456 -17276 0
-1401 17276 0
1456 17276 0
12516 -11816 0
13496 -11816 0
-12516 -13496 11816 0
-12516 14476 0
-12516 16436 0
12516 -14476 -16436 0
-13496 15456 0
-13496 17416 0
13496 -15456 -17416 0
-561 616 -14476 0
561 14476 0
-616 14476 0
-1541 1596 -15456 0
1541 15456 0
-1596 15456 0
561 -616 -16436 0
-561 16436 0
616 16436 0
1541 -1596 -17416 0
-1541 17416 0
1596 17416 0
12656 -11816 0
13636 -11816 0
-12656 -13636 11816 0
-12656 14616 0
-12656 16576 0
12656 -14616 -16576 0
-13636 15596 0
-13636 17556 0
13636 -15596 -17556 0
-701 756 -14616 0
701 14616 0
-756 14616 0
-1681 1736 -15596 0
1681 15596 0
-1736 15596 0
701 -756 -16576 0
-701 16576 0
756 16576 0
1681 -1736 -17556 0
-1681 17556 0
1736 17556 0
12796 -11816 0
13776 -11816 0
-12796 -13776 11816 0
-12796 14756 0
-12796 16716 0
12796 -14756 -16716 0
-13776 15736 0
-13776 17696 0
13776 -15736 -17696 0
-841 896 -14756 0
841 14756 0
-896 14756 0
-1821 1876 -15736 0
1821 15736 0
-1876 15736 0
841 -896 -16716 0
-841 16716 0
896 16716 0
1821 -1876 -17696 0
-1821 17696 0
1876 17696 0
11957 -11817 0
12937 -11817 0
-11957 -12937 11817 0
-11957 13917 0
-11957 15877 0
11957 -13917 -15877 0
-12937 14897 0
-12937 16857 0
12937 -14897 -16857 0
-1 57 -13917 0
1 13917 0
-57 13917 0
-981 1037 -14897 0
981 14897 0
-1037 14897 0
1 -57 -15877 0
-1 15877 0
57 15877 0
981 -1037 -16857 0
-981 16857 0
1037 16857 0
12097 -11817 0
13077 -11817 0
-12097 -13077 11817 0
-12097 14057 0
-12097 16017 0
12097 -14057 -16017 0
-13077 15037 0
-13077 16997 0
13077 -15037 -16997 0
-141 197 -14057 0
141 14057 0
-197 14057 0
-1121 1177 -15037 0
1121 15037 0
-1177 15037 0
141 -197 -16017 0
-141 16017 0
197 16017 0
1121 -1177 -16997 0
-1121 16997 0
1177 16997 0
12237 -11817 0
13217 -11817 0
-12237 -13217 11817 0
-12237 14197 0
-12237 16157 0
12237 -14197 -16157 0
-13217 15177 0
-13217 17137 0
13217 -15177 -17137 0
-281 337 -14197 0
281 14197 0
-337 14197 0
-1261 1317 -15177 0
1261 15177 0
-1317 15177 0
281 -337 -16157 0
-281 16157 0
337 16157 0
1261 -1317 -17137 0
-1261 17137 0
1317 17137 0
12377 -11817 0
13357 -11817 0
-12377 -13357 11817 0
-12377 14337 0
-12377 16297 0
12377 -14337 -16297 0
-13357 15317 0
-13357 17277 0
13357 -15317 -17277 0
-421 477 -14337 0
421 14337 0
-477 14337 0
-1401 1457 -15317 0
1401 15317 0
-1457 15317 0
421 -477 -16297 0
-421 16297 0
477 16297 0
1401 -1457 -17277 0
-1401 17277 0
1457 17277 0
12517 -11817 0
13497 -11817 0
-12517 -13497 11817 0
-12517 14477 0
-12517 16437 0
12517 -14477 -16437 0
-13497 15457 0
-13497 17417 0
13497 -15457 -17417 0
-561 617 -14477 0
561 14477 0
-617 14477 0
-1541 1597 -15457 0
1541 15457 0
-1597 15457 0
561 -617 -16437 0
-561 16437 0
617 16437 0
1541 -1597 -17417 0
-1541 17417 0
1597 17417 0
12657 -11817 0
13637 -11817 0
-12657 -13637 11817 0
-12657 14617 0
-12657 16577 0
12657 -14617 -16577 0
-13637 15597 0
-13637 17557 0
13637 -15597 -17557 0
-701 757 -14617 0
701 14617 0
-757 14617 0
-1681 1737 -15597 0
1681 15597 0
-1737 15597 0
701 -757 -16577 0
-701 16577 0
757 16577 0
1681 -1737 -17557 0
-1681 17557 0
1737 17557 0
12797 -11817 0
13777 -11817 0
-12797 -13777 11817 0
-12797 14757 0
-12797 16717 0
12797 -14757 -16717 0
-13777 15737 0
-13777 17697 0
13777 -15737 -17697 0
-841 897 -14757 0
841 14757 0
-897 14757 0
-1821 1877 -15737 0
1821 15737 0
-1877 15737 0
841 -897 -16717 0
-841 16717 0
897 16717 0
1821 -1877 -17697 0
-1821 17697 0
1877 17697 0
11958 -11818 0
12938 -11818 0
-11958 -12938 11818 0
-11958 13918 0
-11958 15878 0
11958 -13918 -15878 0
-12938 14898 0
-12938 16858 0
12938 -14898 -16858 0
-1 58 -13918 0
1 13918 0
-58 13918 0
-981 1038 -14898 0
981 14898 0
-1038 14898 0
1 -58 -15878 0
-1 15878 0
58 15878 0
981 -1038 -16858 0
-981 16858 0
1038 16858 0
12098 -11818 0
13078 -11818 0
-12098 -13078 11818 0
-12098 14058 0
-12098 16018 0
12098 -14058 -16018 0
-13078 15038 0
-13078 16998 0
13078 -15038 -16998 0
-141 198 -14058 0
141 14058 0
-198 14058 0
-1121 1178 -15038 0
1121 15038 0
-1178 15038 0
141 -198 -16018 0
-141 16018 0
198 16018 0
1121 -1178 -16998 0
-1121 16998 0
1178 16998 0
12238 -11818 0
13218 -11818 0
-12238 -13218 11818 0
-12238 14198 0
-12238 16158 0
12238 -14198 -16158 0
-13218 15178 0
-13218 17138 0
13218 -15178 -17138 0
-281 338 -14198 0
281 14198 0
-338 14198 0
-1261 1318 -15178 0
1261 15178 0
-1318 15178 0
281 -338 -16158 0
-281 16158 0
338 16158 0
1261 -1318 -17138 0
-1261 17138 0
1318 17138 0
12378 -11818 0
13358 -11818 0
-12378 -13358 11818 0
-12378 14338 0
-12378 16298 0
12378 -14338 -16298 0
-13358 15318 0
-13358 17278 0
13358 -15318 -17278 0
-421 478 -14338 0
421 14338 0
-478 14338 0
-1401 1458 -15318 0
1401 15318 0
-1458 15318 0
421 -478 -16298 0
-421 16298 0
478 16298 0
1401 -1458 -17278 0
-1401 17278 0
1458 17278 0
12518 -11818 0
13498 -11818 0
-12518 -13498 11818 0
-12518 14478 0
-12518 16438 0
12518 -14478 -16438 0
-13498 15458 0
-13498 17418 0
13498 -15458 -17418 0
-561 618 -14478 0
561 14478 0
-618 14478 0
-1541 1598 -15458 0
1541 15458 0
-1598 15458 0
561 -618 -16438 0
-561 16438 0
618 16438 0
1541 -1598 -17418 0
-1541 17418 0
1598 17418 0
12658 -11818 0
13638 -11818 0
-12658 -13638 11818 0
-12658 14618 0
-12658 16578 0
12658 -14618 -16578 0
-13638 15598 0
-13638 17558 0
13638 -15598 -17558 0
-701 758 -14618 0
701 14618 0
-758 14618 0
-1681 1738 -15598 0
1681 15598 0
-1738 15598 0
701 -758 -16578 0
-701 16578 0
758 16578 0
1681 -1738 -17558 0
-1681 17558 0
1738 17558 0
12798 -11818 0
13778 -11818 0
-12798 -13778 11818 0
-12798 14758 0
-12798 16718 0
12798 -14758 -16718 0
-13778 15738 0
-13778 17698 0
13778 -15738 -17698 0
-841 898 -14758 0
841 14758 0
-898 14758 0
-1821 1878 -15738 0
1821 15738 0
-1878 15738 0
841 -898 -16718 0
-841 16718 0
898 16718 0
1821 -1878 -17698 0
-1821 17698 0
1878 17698 0
11959 -11819 0
12939 -11819 0
-11959 -12939 11819 0
-11959 13919 0
-11959 15879 0
11959 -13919 -15879 0
-12939 14899 0
-12939 16859 0
12939 -14899 -16859 0
-1 59 -13919 0
1 13919 0
-59 13919 0
-981 1039 -14899 0
981 14899 0
-1039 14899 0
1 -59 -15879 0
-1 15879 0
59 15879 0
981 -1039 -16859 0
-981 16859 0
1039 16859 0
12099 -11819 0
13079 -11819 0
-12099 -13079 11819 0
-12099 14059 0
-12099 16019 0
12099 -14059 -16019 0
-13079 15039 0
-13079 16999 0
13079 -15039 -16999 0
-141 199 -14059 0
141 14059 0
-199 14059 0
-1121 1179 -15039 0
1121 15039 0
-1179 15039 0
141 -199 -16019 0
-141 16019 0
199 16019 0
1121 -1179 -16999 0
-1121 16999 0
1179 16999 0
12239 -11819 0
13219 -11819 0
-12239 -13219 11819 0
-12239 14199 0
-12239 16159 0
12239 -14199 -16159 0
-13219 15179 0
-13219 17139 0
13219 -15179 -17139 0
-281 339 -14199 0
281 14199 0
-339 14199 0
-1261 1319 -15179 0
1261 15179 0
-1319 15179 0
281 -339 -16159 0
-281 16159 0
339 16159 0
1261 -1319 -17139 0
-1261 17139 0
1319 17139 0
12379 -11819 0
13359 -11819 0
-12379 -13359 11819 0
-12379 14339 0
-12379 16299 0
12379 -14339 -16299 0
-13359 15319 0
-13359 17279 0
13359 -15319 -17279 0
-421 479 -14339 0
421 14339 0
-479 14339 0
-1401 1459 -15319 0
1401 15319 0
-1459 15319 0
421 -479 -16299 0
-421 16299 0
479 16299 0
1401 -1459 -17279 0
-1401 17279 0
1459 17279 0
12519 -11819 0
13499 -11819 0
-12519 -13499 11819 0
-12519 14479 0
-12519 16439 0
12519 -14479 -16439 0
-13499 15459 0
-13499 17419 0
13499 -15459 -17419 0
-561 619 -14479 0
561 14479 0
-619 14479 0
-1541 1599 -15459 0
1541 15459 0
-1599 15459 0
561 -619 -16439 0
-561 16439 0
619 16439 0
1541 -1599 -17419 0
-1541 17419 0
1599 17419 0
12659 -11819 0
13639 -11819 0
-12659 -13639 11819 0
-12659 14619 0
-12659 16579 0
12659 -14619 -16579 0
-13639 15599 0
-13639 17559 0
13639 -15599 -17559 0
-701 759 -14619 0
701 14619 0
-759 14619 0
-1681 1739 -15599 0
1681 15599 0
-1739 15599 0
701 -759 -16579 0
-701 16579 0
759 16579 0
1681 -1739 -17559 0
-1681 17559 0
1739 17559 0
12799 -11819 0
13779 -11819 0
-12799 -13779 11819 0
-12799 14759 0
-12799 16719 0
12799 -14759 -16719 0
-13779 15739 0
-13779 17699 0
13779 -15739 -17699 0
-841 899 -14759 0
841 14759 0
-899 14759 0
-1821 1879 -15739 0
1821 15739 0
-1879 15739 0
841 -899 -16719 0
-841 16719 0
899 16719 0
1821 -1879 -17699 0
-1821 17699 0
1879 17699 0
11960 -11820 0
12940 -11820 0
-11960 -12940 11820 0
-11960 13920 0
-11960 15880 0
11960 -13920 -15880 0
-12940 14900 0
-12940 16860 0
12940 -14900 -16860 0
-1 60 -13920 0
1 13920 0
-60 13920 0
-981 1040 -14900 0
981 14900 0
-1040 14900 0
1 -60 -15880 0
-1 15880 0
60 15880 0
981 -1040 -16860 0
-981 16860 0
1040 16860 0
12100 -11820 0
13080 -11820 0
-12100 -13080 11820 0
-12100 14060 0
-12100 16020 0
12100 -14060 -16020 0
-13080 15040 0
-13080 17000 0
13080 -15040 -17000 0
-141 200 -14060 0
141 14060 0
-200 14060 0
-1121 1180 -15040 0
1121 15040 0
-1180 15040 0
141 -200 -16020 0
-141 16020 0
200 16020 0
1121 -1180 -17000 0
-1121 17000 0
1180 17000 0
12240 -11820 0
13220 -11820 0
-12240 -13220 11820 0
-12240 14200 0
-12240 16160 0
12240 -14200 -16160 0
-13220 15180 0
-13220 17140 0
13220 -15180 -17140 0
-281 340 -14200 0
281 14200 0
-340 14200 0
-1261 1320 -15180 0
1261 15180 0
-1320 15180 0
281 -340 -16160 0
-281 16160 0
340 16160 0
1261 -1320 -17140 0
-1261 17140 0
1320 17140 0
12380 -11820 0
13360 -11820 0
-12380 -13360 11820 0
-12380 14340 0
-12380 16300 0
12380 -14340 -16300 0
-13360 15320 0
-13360 17280 0
13360 -15320 -17280 0
-421 480 -14340 0
421 14340 0
-480 14340 0
-1401 1460 -15320 0
1401 15320 0
-1460 15320 0
421 -480 -16300 0
-421 16300 0
480 16300 0
1401 -1460 -17280 0
-1401 17280 0
1460 17280 0
12520 -11820 0
13500 -11820 0
-12520 -13500 11820 0
-12520 14480 0
-12520 16440 0
12520 -14480 -16440 0
-13500 15460 0
-13500 17420 0
13500 -15460 -17420 0
-561 620 -14480 0
561 14480 0
-620 14480 0
-1541 1600 -15460 0
1541 15460 0
-1600 15460 0
561 -620 -16440 0
-561 16440 0
620 16440 0
1541 -1600 -17420 0
-1541 17420 0
1600 17420 0
12660 -11820 0
13640 -11820 0
-12660 -13640 11820 0
-12660 14620 0
-12660 16580 0
12660 -14620 -16580 0
-13640 15600 0
-13640 17560 0
13640 -15600 -17560 0
-701 760 -14620 0
701 14620 0
-760 14620 0
-1681 1740 -15600 0
1681 15600 0
-1740 15600 0
701 -760 -16580 0
-701 16580 0
760 16580 0
1681 -1740 -17560 0
-1681 17560 0
1740 17560 0
12800 -11820 0
13780 -11820 0
-12800 -13780 11820 0
-12800 14760 0
-12800 16720 0
12800 -14760 -16720 0
-13780 15740 0
-13780 17700 0
13780 -15740 -17700 0
-841 900 -14760 0
841 14760 0
-900 14760 0
-1821 1880 -15740 0
1821 15740 0
-1880 15740 0
841 -900 -16720 0
-841 16720 0
900 16720 0
1821 -1880 -17700 0
-1821 17700 0
1880 17700 0
11961 -11821 0
12941 -11821 0
-11961 -12941 11821 0
-11961 13921 0
-11961 15881 0
11961 -13921 -15881 0
-12941 14901 0
-12941 16861 0
12941 -14901 -16861 0
-1 61 -13921 0
1 13921 0
-61 13921 0
-981 1041 -14901 0
981 14901 0
-1041 14901 0
1 -61 -15881 0
-1 15881 0
61 15881 0
981 -1041 -16861 0
-981 16861 0
1041 16861 0
12101 -11821 0
13081 -11821 0
-12101 -13081 11821 0
-12101 14061 0
-12101 16021 0
12101 -14061 -16021 0
-13081 15041 0
-13081 17001 0
13081 -15041 -17001 0
-141 201 -14061 0
141 14061 0
-201 14061 0
-1121 1181 -15041 0
1121 15041 0
-1181 15041 0
141 -201 -16021 0
-141 16021 0
201 16021 0
1121 -1181 -17001 0
-1121 17001 0
1181 17001 0
12241 -11821 0
13221 -11821 0
-12241 -13221 11821 0
-12241 14201 0
-12241 16161 0
12241 -14201 -16161 0
-13221 15181 0
-13221 17141 0
13221 -15181 -17141 0
-281 341 -14201 0
281 14201 0
-341 14201 0
-1261 1321 -15181 0
1261 15181 0
-1321 15181 0
281 -341 -16161 0
-281 16161 0
341 16161 0
1261 -1321 -17141 0
-1261 17141 0
1321 17141 0
12381 -11821 0
13361 -11821 0
-12381 -13361 11821 0
-12381 14341 0
-12381 16301 0
12381 -14341 -16301 0
-13361 15321 0
-13361 17281 0
13361 -15321 -17281 0
-421 481 -14341 0
421 14341 0
-481 14341 0
-1401 1461 -15321 0
1401 15321 0
-1461 15321 0
421 -481 -16301 0
-421 16301 0
481 16301 0
1401 -1461 -17281 0
-1401 17281 0
1461 17281 0
12521 -11821 0
13501 -11821 0
-12521 -13501 11821 0
-12521 14481 0
-12521 16441 0
12521 -14481 -16441 0
-13501 15461 0
-13501 17421 0
13501 -15461 -17421 0
-561 621 -14481 0
561 14481 0
-621 14481 0
-1541 1601 -15461 0
1541 15461 0
-1601 15461 0
561 -621 -16441 0
-561 16441 0
621 16441 0
1541 -1601 -17421 0
-1541 17421 0
1601 17421 0
12661 -11821 0
13641 -11821 0
-12661 -13641 11821 0
-12661 14621 0
-12661 16581 0
12661 -14621 -16581 0
-13641 15601 0
-13641 17561 0
13641 -15601 -17561 0
-701 761 -14621 0
701 14621 0
-761 14621 0
-1681 1741 -15601 0
1681 15601 0
-1741 15601 0
701 -761 -16581 0
-701 16581 0
761 16581 0
1681 -1741 -17561 0
-1681 17561 0
1741 17561 0
12801 -11821 0
13781 -11821 0
-12801 -13781 11821 0
-12801 14761 0
-12801 16721 0
12801 -14761 -16721 0
-13781 15741 0
-13781 17701 0
13781 -15741 -17701 0
-841 901 -14761 0
841 14761 0
-901 14761 0
-1821 1881 -15741 0
1821 15741 0
-1881 15741 0
841 -901 -16721 0
-841 16721 0
901 16721 0
1821 -1881 -17701 0
-1821 17701 0
1881 17701 0
11962 -11822 0
12942 -11822 0
-11962 -12942 11822 0
-11962 13922 0
-11962 15882 0
11962 -13922 -15882 0
-12942 14902 0
-12942 16862 0
12942 -14902 -16862 0
-1 62 -13922 0
1 13922 0
-62 13922 0
-981 1042 -14902 0
981 14902 0
-1042 14902 0
1 -62 -15882 0
-1 15882 0
62 15882 0
981 -1042 -16862 0
-981 16862 0
1042 16862 0
12102 -11822 0
13082 -11822 0
-12102 -13082 11822 0
-12102 14062 0
-12102 16022 0
12102 -14062 -16022 0
-13082 15042 0
-13082 17002 0
13082 -15042 -17002 0
-141 202 -14062 0
141 14062 0
-202 14062 0
-1121 1182 -15042 0
1121 15042 0
-1182 15042 0
141 -202 -16022 0
-141 16022 0
202 16022 0
1121 -1182 -17002 0
-1121 17002 0
1182 17002 0
12242 -11822 0
13222 -11822 0
-12242 -13222 11822 0
-12242 14202 0
-12242 16162 0
12242 -14202 -16162 0
-13222 15182 0
-13222 17142 0
13222 -15182 -17142 0
-281 342 -14202 0
281 14202 0
-342 14202 0
-1261 1322 -15182 0
1261 15182 0
-1322 15182 0
281 -342 -16162 0
-281 16162 0
342 16162 0
1261 -1322 -17142 0
-1261 17142 0
1322 17142 0
12382 -11822 0
13362 -11822 0
-12382 -13362 11822 0
-12382 14342 0
-12382 16302 0
12382 -14342 -16302 0
-13362 15322 0
-13362 17282 0
13362 -15322 -17282 0
-421 482 -14342 0
421 14342 0
-482 14342 0
-1401 1462 -15322 0
1401 15322 0
-1462 15322 0
421 -482 -16302 0
-421 16302 0
482 16302 0
1401 -1462 -17282 0
-1401 17282 0
1462 17282 0
12522 -11822 0
13502 -11822 0
-12522 -13502 11822 0
-12522 14482 0
-12522 16442 0
12522 -14482 -16442 0
-13502 15462 0
-13502 17422 0
13502 -15462 -17422 0
-561 622 -14482 0
561 14482 0
-622 14482 0
-1541 1602 -15462 0
1541 15462 0
-1602 15462 0
561 -622 -16442 0
-561 16442 0
622 16442 0
1541 -1602 -17422 0
-1541 17422 0
1602 17422 0
12662 -11822 0
13642 -11822 0
-12662 -13642 11822 0
-12662 14622 0
-12662 16582 0
12662 -14622 -16582 0
-13642 15602 0
-13642 17562 0
13642 -15602 -17562 0
-701 762 -14622 0
701 14622 0
-762 14622 0
-1681 1742 -15602 0
1681 15602 0
-1742 15602 0
701 -762 -16582 0
-701 16582 0
762 16582 0
1681 -1742 -17562 0
-1681 17562 0
1742 17562 0
12802 -11822 0
13782 -11822 0
-12802 -13782 11822 0
-12802 14762 0
-12802 16722 0
12802 -14762 -16722 0
-13782 15742 0
-13782 17702 0
13782 -15742 -17702 0
-841 902 -14762 0
841 14762 0
-902 14762 0
-1821 1882 -15742 0
1821 15742 0
-1882 15742 0
841 -902 -16722 0
-841 16722 0
902 16722 0
1821 -1882 -17702 0
-1821 17702 0
1882 17702 0
11963 -11823 0
12943 -11823 0
-11963 -12943 11823 0
-11963 13923 0
-11963 15883 0
11963 -13923 -15883 0
-12943 14903 0
-12943 16863 0
12943 -14903 -16863 0
-1 63 -13923 0
1 13923 0
-63 13923 0
-981 1043 -14903 0
981 14903 0
-1043 14903 0
1 -63 -15883 0
-1 15883 0
63 15883 0
981 -1043 -16863 0
-981 16863 0
1043 16863 0
12103 -11823 0
13083 -11823 0
-12103 -13083 11823 0
-12103 14063 0
-12103 16023 0
12103 -14063 -16023 0
-13083 15043 0
-13083 17003 0
13083 -15043 -17003 0
-141 203 -14063 0
141 14063 0
-203 14063 0
-1121 1183 -15043 0
1121 15043 0
-1183 15043 0
141 -203 -16023 0
-141 16023 0
203 16023 0
1121 -1183 -17003 0
-1121 17003 0
1183 17003 0
12243 -11823 0
13223 -11823 0
-12243 -13223 11823 0
-12243 14203 0
-12243 16163 0
12243 -14203 -16163 0
-13223 15183 0
-13223 17143 0
13223 -15183 -17143 0
-281 343 -14203 0
281 14203 0
-343 14203 0
-1261 1323 -15183 0
1261 15183 0
-1323 15183 0
281 -343 -16163 0
-281 16163 0
343 16163 0
1261 -1323 -17143 0
-1261 17143 0
1323 17143 0
12383 -11823 0
13363 -11823 0
-12383 -13363 11823 0
-12383 14343 0
-12383 16303 0
12383 -14343 -16303 0
-13363 15323 0
-13363 17283 0
13363 -15323 -17283 0
-421 483 -14343 0
421 14343 0
-483 14343 0
-1401 1463 -15323 0
1401 15323 0
-1463 15323 0
421 -483 -16303 0
-421 16303 0
483 16303 0
1401 -1463 -17283 0
-1401 17283 0
1463 17283 0
12523 -11823 0
13503 -11823 0
-12523 -13503 11823 0
-12523 14483 0
-12523 16443 0
12523 -14483 -16443 0
-13503 15463 0
-13503 17423 0
13503 -15463 -17423 0
-561 623 -14483 0
561 14483 0
-623 14483 0
-1541 1603 -15463 0
1541 15463 0
-1603 15463 0
561 -623 -16443 0
-561 16443 0
623 16443 0
1541 -1603 -17423 0
-1541 17423 0
1603 17423 0
12663 -11823 0
13643 -11823 0
-12663 -13643 11823 0
-12663 14623 0
-12663 16583 0
12663 -14623 -16583 0
-13643 15603 0
-13643 17563 0
13643 -15603 -17563 0
-701 763 -14623 0
701 14623 0
-763 14623 0
-1681 1743 -15603 0
1681 15603 0
-1743 15603 0
701 -763 -16583 0
-701 16583 0
763 16583 0
1681 -1743 -17563 0
-1681 17563 0
1743 17563 0
12803 -11823 0
13783 -11823 0
-12803 -13783 11823 0
-12803 14763 0
-12803 16723 0
12803 -14763 -16723 0
-13783 15743 0
-13783 17703 0
13783 -15743 -17703 0
-841 903 -14763 0
841 14763 0
-903 14763 0
-1821 1883 -15743 0
1821 15743 0
-1883 15743 0
841 -903 -16723 0
-841 16723 0
903 16723 0
1821 -1883 -17703 0
-1821 17703 0
1883 17703 0
11964 -11824 0
12944 -11824 0
-11964 -12944 11824 0
-11964 13924 0
-11964 15884 0
11964 -13924 -15884 0
-12944 14904 0
-12944 16864 0
12944 -14904 -16864 0
-1 64 -13924 0
1 13924 0
-64 13924 0
-981 1044 -14904 0
981 14904 0
-1044 14904 0
1 -64 -15884 0
-1 15884 0
64 15884 0
981 -1044 -16864 0
-981 16864 0
1044 16864 0
12104 -11824 0
13084 -11824 0
-12104 -13084 11824 0
-12104 14064 0
-12104 16024 0
12104 -14064 -16024 0
-13084 15044 0
-13084 17004 0
13084 -15044 -17004 0
-141 204 -14064 0
141 14064 0
-204 14064 0
-1121 1184 -15044 0
1121 15044 0
-1184 15044 0
141 -204 -16024 0
-141 16024 0
204 16024 0
1121 -1184 -17004 0
-1121 17004 0
1184 17004 0
12244 -11824 0
13224 -11824 0
-12244 -13224 11824 0
-12244 14204 0
-12244 16164 0
12244 -14204 -16164 0
-13224 15184 0
-13224 17144 0
13224 -15184 -17144 0
-281 344 -14204 0
281 14204 0
-344 14204 0
-1261 1324 -15184 0
1261 15184 0
-1324 15184 0
281 -344 -16164 0
-281 16164 0
344 16164 0
1261 -1324 -17144 0
-1261 17144 0
1324 17144 0
12384 -11824 0
13364 -11824 0
-12384 -13364 11824 0
-12384 14344 0
-12384 16304 0
12384 -14344 -16304 0
-13364 15324 0
-13364 17284 0
13364 -15324 -17284 0
-421 484 -14344 0
421 14344 0
-484 14344 0
-1401 1464 -15324 0
1401 15324 0
-1464 15324 0
421 -484 -16304 0
-421 16304 0
484 16304 0
1401 -1464 -17284 0
-1401 17284 0
1464 17284 0
12524 -11824 0
13504 -11824 0
-12524 -13504 11824 0
-12524 14484 0
-12524 16444 0
12524 -14484 -16444 0
-13504 15464 0
-13504 17424 0
13504 -15464 -17424 0
-561 624 -14484 0
561 14484 0
-624 14484 0
-1541 1604 -15464 0
1541 15464 0
-1604 15464 0
561 -624 -16444 0
-561 16444 0
624 16444 0
1541 -1604 -17424 0
-1541 17424 0
1604 17424 0
12664 -11824 0
13644 -11824 0
-12664 -13644 11824 0
-12664 14624 0
-12664 16584 0
12664 -14624 -16584 0
-13644 15604 0
-13644 17564 0
13644 -15604 -17564 0
-701 764 -14624 0
701 14624 0
-764 14624 0
-1681 1744 -15604 0
1681 15604 0
-1744 15604 0
701 -764 -16584 0
-701 16584 0
764 16584 0
1681 -1744 -17564 0
-1681 17564 0
1744 17564 0
12804 -11824 0
13784 -11824 0
-12804 -13784 11824 0
-12804 14764 0
-12804 16724 0
12804 -14764 -16724 0
-13784 15744 0
-13784 17704 0
13784 -15744 -17704 0
-841 904 -14764 0
841 14764 0
-904 14764 0
-1821 1884 -15744 0
1821 15744 0
-1884 15744 0
841 -904 -16724 0
-841 16724 0
904 16724 0
1821 -1884 -17704 0
-1821 17704 0
1884 17704 0
11965 -11825 0
12945 -11825 0
-11965 -12945 11825 0
-11965 13925 0
-11965 15885 0
11965 -13925 -15885 0
-12945 14905 0
-12945 16865 0
12945 -14905 -16865 0
-1 65 -13925 0
1 13925 0
-65 13925 0
-981 1045 -14905 0
981 14905 0
-1045 14905 0
1 -65 -15885 0
-1 15885 0
65 15885 0
981 -1045 -16865 0
-981 16865 0
1045 16865 0
12105 -11825 0
13085 -11825 0
-12105 -13085 11825 0
-12105 14065 0
-12105 16025 0
12105 -14065 -16025 0
-13085 15045 0
-13085 17005 0
13085 -15045 -17005 0
-141 205 -14065 0
141 14065 0
-205 14065 0
-1121 1185 -15045 0
1121 15045 0
-1185 15045 0
141 -205 -16025 0
-141 16025 0
205 16025 0
1121 -1185 -17005 0
-1121 17005 0
1185 17005 0
12245 -11825 0
13225 -11825 0
-12245 -13225 11825 0
-12245 14205 0
-12245 16165 0
12245 -14205 -16165 0
-13225 15185 0
-13225 17145 0
13225 -15185 -17145 0
-281 345 -14205 0
281 14205 0
-345 14205 0
-1261 1325 -15185 0
1261 15185 0
-1325 15185 0
281 -345 -16165 0
-281 16165 0
345 16165 0
1261 -1325 -17145 0
-1261 17145 0
1325 17145 0
12385 -11825 0
13365 -11825 0
-12385 -13365 11825 0
-12385 14345 0
-12385 16305 0
12385 -14345 -16305 0
-13365 15325 0
-13365 17285 0
13365 -15325 -17285 0
-421 485 -14345 0
421 14345 0
-485 14345 0
-1401 1465 -15325 0
1401 15325 0
-1465 15325 0
421 -485 -16305 0
-421 16305 0
485 16305 0
1401 -1465 -17285 0
-1401 17285 0
1465 17285 0
12525 -11825 0
13505 -11825 0
-12525 -13505 11825 0
-12525 14485 0
-12525 16445 0
12525 -14485 -16445 0
-13505 15465 0
-13505 17425 0
13505 -15465 -17425 0
-561 625 -14485 0
561 14485 0
-625 14485 0
-1541 1605 -15465 0
1541 15465 0
-1605 15465 0
561 -625 -16445 0
-561 16445 0
625 16445 0
1541 -1605 -17425 0
-1541 17425 0
1605 17425 0
12665 -11825 0
13645 -11825 0
-12665 -13645 11825 0
-12665 14625 0
-12665 16585 0
12665 -14625 -16585 0
-13645 15605 0
-13645 17565 0
13645 -15605 -17565 0
-701 765 -14625 0
701 14625 0
-765 14625 0
-1681 1745 -15605 0
1681 15605 0
-1745 15605 0
701 -765 -16585 0
-701 16585 0
765 16585 0
1681 -1745 -17565 0
-1681 17565 0
1745 17565 0
12805 -11825 0
13785 -11825 0
-12805 -13785 11825 0
-12805 14765 0
-12805 16725 0
12805 -14765 -16725 0
-13785 15745 0
-13785 17705 0
13785 -15745 -17705 0
-841 905 -14765 0
841 14765 0
-905 14765 0
-1821 1885 -15745 0
1821 15745 0
-1885 15745 0
841 -905 -16725 0
-841 16725 0
905 16725 0
1821 -1885 -17705 0
-1821 17705 0
1885 17705 0
11966 -11826 0
12946 -11826 0
-11966 -12946 11826 0
-11966 13926 0
-11966 15886 0
11966 -13926 -15886 0
-12946 14906 0
-12946 16866 0
12946 -14906 -16866 0
-1 66 -13926 0
1 13926 0
-66 13926 0
-981 1046 -14906 0
981 14906 0
-1046 14906 0
1 -66 -15886 0
-1 15886 0
66 15886 0
981 -1046 -16866 0
-981 16866 0
1046 16866 0
12106 -11826 0
13086 -11826 0
-12106 -13086 11826 0
-12106 14066 0
-12106 16026 0
12106 -14066 -16026 0
-13086 15046 0
-13086 17006 0
13086 -15046 -17006 0
-141 206 -14066 0
141 14066 0
-206 14066 0
-1121 1186 -15046 0
1121 15046 0
-1186 15046 0
141 -206 -16026 0
-141 16026 0
206 16026 0
1121 -1186 -17006 0
-1121 17006 0
1186 17006 0
12246 -11826 0
13226 -11826 0
-12246 -13226 11826 0
-12246 14206 0
-12246 16166 0
12246 -14206 -16166 0
-13226 15186 0
-13226 17146 0
13226 -15186 -17146 0
-281 346 -14206 0
281 14206 0
-346 14206 0
-1261 1326 -15186 0
1261 15186 0
-1326 15186 0
281 -346 -16166 0
-281 16166 0
346 16166 0
1261 -1326 -17146 0
-1261 17146 0
1326 17146 0
12386 -11826 0
13366 -11826 0
-12386 -13366 11826 0
-12386 14346 0
-12386 16306 0
12386 -14346 -16306 0
-13366 15326 0
-13366 17286 0
13366 -15326 -17286 0
-421 486 -14346 0
421 14346 0
-486 14346 0
-1401 1466 -15326 0
1401 15326 0
-1466 15326 0
421 -486 -16306 0
-421 16306 0
486 16306 0
1401 -1466 -17286 0
-1401 17286 0
1466 17286 0
12526 -11826 0
13506 -11826 0
-12526 -13506 11826 0
-12526 14486 0
-12526 16446 0
12526 -14486 -16446 0
-13506 15466 0
-13506 17426 0
13506 -15466 -17426 0
-561 626 -14486 0
561 14486 0
-626 14486 0
-1541 1606 -15466 0
1541 15466 0
-1606 15466 0
561 -626 -16446 0
-561 16446 0
626 16446 0
1541 -1606 -17426 0
-1541 17426 0
1606 17426 0
12666 -11826 0
13646 -11826 0
-12666 -13646 11826 0
-12666 14626 0
-12666 16586 0
12666 -14626 -16586 0
-13646 15606 0
-13646 17566 0
13646 -15606 -17566 0
-701 766 -14626 0
701 14626 0
-766 14626 0
-1681 1746 -15606 0
1681 15606 0
-1746 15606 0
701 -766 -16586 0
-701 16586 0
766 16586 0
1681 -1746 -17566 0
-1681 17566 0
1746 17566 0
12806 -11826 0
13786 -11826 0
-12806 -13786 11826 0
-12806 14766 0
-12806 16726 0
12806 -14766 -16726 0
-13786 15746 0
-13786 17706 0
13786 -15746 -17706 0
-841 906 -14766 0
841 14766 0
-906 14766 0
-1821 1886 -15746 0
1821 15746 0
-1886 15746 0
841 -906 -16726 0
-841 16726 0
906 16726 0
1821 -1886 -17706 0
-1821 17706 0
1886 17706 0
11967 -11827 0
12947 -11827 0
-11967 -12947 11827 0
-11967 13927 0
-11967 15887 0
11967 -13927 -15887 0
-12947 14907 0
-12947 16867 0
12947 -14907 -16867 0
-1 67 -13927 0
1 13927 0
-67 13927 0
-981 1047 -14907 0
981 14907 0
-1047 14907 0
1 -67 -15887 0
-1 15887 0
67 15887 0
981 -1047 -16867 0
-981 16867 0
1047 16867 0
12107 -11827 0
13087 -11827 0
-12107 -13087 11827 0
-12107 14067 0
-12107 16027 0
12107 -14067 -16027 0
-13087 15047 0
-13087 17007 0
13087 -15047 -17007 0
-141 207 -14067 0
141 14067 0
-207 14067 0
-1121 1187 -15047 0
1121 15047 0
-1187 15047 0
141 -207 -16027 0
-141 16027 0
207 16027 0
1121 -1187 -17007 0
-1121 17007 0
1187 17007 0
12247 -11827 0
13227 -11827 0
-12247 -13227 11827 0
-12247 14207 0
-12247 16167 0
12247 -14207 -16167 0
-13227 15187 0
-13227 17147 0
13227 -15187 -17147 0
-281 347 -14207 0
281 14207 0
-347 14207 0
-1261 1327 -15187 0
1261 15187 0
-1327 15187 0
281 -347 -16167 0
-281 16167 0
347 16167 0
1261 -1327 -17147 0
-1261 17147 0
1327 17147 0
12387 -11827 0
13367 -11827 0
-12387 -13367 11827 0
-12387 14347 0
-12387 16307 0
12387 -14347 -16307 0
-13367 15327 0
-13367 17287 0
13367 -15327 -17287 0
-421 487 -14347 0
421 14347 0
-487 14347 0
-1401 1467 -15327 0
1401 15327 0
-1467 15327 0
421 -487 -16307 0
-421 16307 0
487 16307 0
1401 -1467 -17287 0
-1401 17287 0
1467 17287 0
12527 -11827 0
13507 -11827 0
-12527 -13507 11827 0
-12527 14487 0
-12527 16447 0
12527 -14487 -16447 0
-13507 15467 0
-13507 17427 0
13507 -15467 -17427 0
-561 627 -14487 0
561 14487 0
-627 14487 0
-1541 1607 -15467 0
1541 15467 0
-1607 15467 0
561 -627 -16447 0
-561 16447 0
627 16447 0
1541 -1607 -17427 0
-1541 17427 0
1607 17427 0
12667 -11827 0
13647 -11827 0
-12667 -13647 11827 0
-12667 14627 0
-12667 16587 0
12667 -14627 -16587 0
-13647 15607 0
-13647 17567 0
13647 -15607 -17567 0
-701 767 -14627 0
701 14627 0
-767 14627 0
-1681 1747 -15607 0
1681 15607 0
-1747 15607 0
701 -767 -16587 0
-701 16587 0
767 16587 0
1681 -1747 -17567 0
-1681 17567 0
1747 17567 0
12807 -11827 0
13787 -11827 0
-12807 -13787 11827 0
-12807 14767 0
-12807 16727 0
12807 -14767 -16727 0
-13787 15747 0
-13787 17707 0
13787 -15747 -17707 0
-841 907 -14767 0
841 14767 0
-907 14767 0
-1821 1887 -15747 0
1821 15747 0
-1887 15747 0
841 -907 -16727 0
-841 16727 0
907 16727 0
1821 -1887 -17707 0
-1821 17707 0
1887 17707 0
11968 -11828 0
12948 -11828 0
-11968 -12948 11828 0
-11968 13928 0
-11968 15888 0
11968 -13928 -15888 0
-12948 14908 0
-12948 16868 0
12948 -14908 -16868 0
-1 68 -13928 0
1 13928 0
-68 13928 0
-981 1048 -14908 0
981 14908 0
-1048 14908 0
1 -68 -15888 0
-1 15888 0
68 15888 0
981 -1048 -16868 0
-981 16868 0
1048 16868 0
12108 -11828 0
13088 -11828 0
-12108 -13088 11828 0
-12108 14068 0
-12108 16028 0
12108 -14068 -16028 0
-13088 15048 0
-13088 17008 0
13088 -15048 -17008 0
-141 208 -14068 0
141 14068 0
-208 14068 0
-1121 1188 -15048 0
1121 15048 0
-1188 15048 0
141 -208 -16028 0
-141 16028 0
208 16028 0
1121 -1188 -17008 0
-1121 17008 0
1188 17008 0
12248 -11828 0
13228 -11828 0
-12248 -13228 11828 0
-12248 14208 0
-12248 16168 0
12248 -14208 -16168 0
-13228 15188 0
-13228 17148 0
13228 -15188 -17148 0
-281 348 -14208 0
281 14208 0
-348 14208 0
-1261 1328 -15188 0
1261 15188 0
-1328 15188 0
281 -348 -16168 0
-281 16168 0
348 16168 0
1261 -1328 -17148 0
-1261 17148 0
1328 17148 0
12388 -11828 0
13368 -11828 0
-12388 -13368 11828 0
-12388 14348 0
-12388 16308 0
12388 -14348 -16308 0
-13368 15328 0
-13368 17288 0
13368 -15328 -17288 0
-421 488 -14348 0
421 14348 0
-488 14348 0
-1401 1468 -15328 0
1401 15328 0
-1468 15328 0
421 -488 -16308 0
-421 16308 0
488 16308 0
1401 -1468 -17288 0
-1401 17288 0
1468 17288 0
12528 -11828 0
13508 -11828 0
-12528 -13508 11828 0
-12528 14488 0
-12528 16448 0
12528 -14488 -16448 0
-13508 15468 0
-13508 17428 0
13508 -15468 -17428 0
-561 628 -14488 0
561 14488 0
-628 14488 0
-1541 1608 -15468 0
1541 15468 0
-1608 15468 0
561 -628 -16448 0
-561 16448 0
628 16448 0
1541 -1608 -17428 0
-1541 17428 0
1608 17428 0
12668 -11828 0
13648 -11828 0
-12668 -13648 11828 0
-12668 14628 0
-12668 16588 0
12668 -14628 -16588 0
-13648 15608 0
-13648 17568 0
13648 -15608 -17568 0
-701 768 -14628 0
701 14628 0
-768 14628 0
-1681 1748 -15608 0
1681 15608 0
-1748 15608 0
701 -768 -16588 0
-701 16588 0
768 16588 0
1681 -1748 -17568 0
-1681 17568 0
1748 17568 0
12808 -11828 0
13788 -11828 0
-12808 -13788 11828 0
-12808 14768 0
-12808 16728 0
12808 -14768 -16728 0
-13788 15748 0
-13788 17708 0
13788 -15748 -17708 0
-841 908 -14768 0
841 14768 0
-908 14768 0
-1821 1888 -15748 0
1821 15748 0
-1888 15748 0
841 -908 -16728 0
-841 16728 0
908 16728 0
1821 -1888 -17708 0
-1821 17708 0
1888 17708 0
11969 -11829 0
12949 -11829 0
-11969 -12949 11829 0
-11969 13929 0
-11969 15889 0
11969 -13929 -15889 0
-12949 14909 0
-12949 16869 0
12949 -14909 -16869 0
-1 69 -13929 0
1 13929 0
-69 13929 0
-981 1049 -14909 0
981 14909 0
-1049 14909 0
1 -69 -15889 0
-1 15889 0
69 15889 0
981 -1049 -16869 0
-981 16869 0
1049 16869 0
12109 -11829 0
13089 -11829 0
-12109 -13089 11829 0
-12109 14069 0
-12109 16029 0
12109 -14069 -16029 0
-13089 15049 0
-13089 17009 0
13089 -15049 -17009 0
-141 209 -14069 0
141 14069 0
-209 14069 0
-1121 1189 -15049 0
1121 15049 0
-1189 15049 0
141 -209 -16029 0
-141 16029 0
209 16029 0
1121 -1189 -17009 0
-1121 17009 0
1189 17009 0
12249 -11829 0
13229 -11829 0
-12249 -13229 11829 0
-12249 14209 0
-12249 16169 0
12249 -14209 -16169 0
-13229 15189 0
-13229 17149 0
13229 -15189 -17149 0
-281 349 -14209 0
281 14209 0
-349 14209 0
-1261 1329 -15189 0
1261 15189 0
-1329 15189 0
281 -349 -16169 0
-281 16169 0
349 16169 0
1261 -1329 -17149 0
-1261 17149 0
1329 17149 0
12389 -11829 0
13369 -11829 0
-12389 -13369 11829 0
-12389 14349 0
-12389 16309 0
12389 -14349 -16309 0
-13369 15329 0
-13369 17289 0
13369 -15329 -17289 0
-421 489 -14349 0
421 14349 0
-489 14349 0
-1401 1469 -15329 0
1401 15329 0
-1469 15329 0
421 -489 -16309 0
-421 16309 0
489 16309 0
1401 -1469 -17289 0
-1401 17289 0
1469 17289 0
12529 -11829 0
13509 -11829 0
-12529 -13509 11829 0
-12529 14489 0
-12529 16449 0
12529 -14489 -16449 0
-13509 15469 0
-13509 17429 0
13509 -15469 -17429 0
-561 629 -14489 0
561 14489 0
-629 14489 0
-1541 1609 -15469 0
1541 15469 0
-1609 15469 0
561 -629 -16449 0
-561 16449 0
629 16449 0
1541 -1609 -17429 0
-1541 17429 0
1609 17429 0
12669 -11829 0
13649 -11829 0
-12669 -13649 11829 0
-12669 14629 0
-12669 16589 0
12669 -14629 -16589 0
-13649 15609 0
-13649 17569 0
13649 -15609 -17569 0
-701 769 -14629 0
701 14629 0
-769 14629 0
-1681 1749 -15609 0
1681 15609 0
-1749 15609 0
701 -769 -16589 0
-701 16589 0
769 16589 0
1681 -1749 -17569 0
-1681 17569 0
1749 17569 0
12809 -11829 0
13789 -11829 0
-12809 -13789 11829 0
-12809 14769 0
-12809 16729 0
12809 -14769 -16729 0
-13789 15749 0
-13789 17709 0
13789 -15749 -17709 0
-841 909 -14769 0
841 14769 0
-909 14769 0
-1821 1889 -15749 0
1821 15749 0
-1889 15749 0
841 -909 -16729 0
-841 16729 0
909 16729 0
1821 -1889 -17709 0
-1821 17709 0
1889 17709 0
11970 -11830 0
12950 -11830 0
-11970 -12950 11830 0
-11970 13930 0
-11970 15890 0
11970 -13930 -15890 0
-12950 14910 0
-12950 16870 0
12950 -14910 -16870 0
-1 70 -13930 0
1 13930 0
-70 13930 0
-981 1050 -14910 0
981 14910 0
-1050 14910 0
1 -70 -15890 0
-1 15890 0
70 15890 0
981 -1050 -16870 0
-981 16870 0
1050 16870 0
12110 -11830 0
13090 -11830 0
-12110 -13090 11830 0
-12110 14070 0
-12110 16030 0
12110 -14070 -16030 0
-13090 15050 0
-13090 17010 0
13090 -15050 -17010 0
-141 210 -14070 0
141 14070 0
-210 14070 0
-1121 1190 -15050 0
1121 15050 0
-1190 15050 0
141 -210 -16030 0
-141 16030 0
210 16030 0
1121 -1190 -17010 0
-1121 17010 0
1190 17010 0
12250 -11830 0
13230 -11830 0
-12250 -13230 11830 0
-12250 14210 0
-12250 16170 0
12250 -14210 -16170 0
-13230 15190 0
-13230 17150 0
13230 -15190 -17150 0
-281 350 -14210 0
281 14210 0
-350 14210 0
-1261 1330 -15190 0
1261 15190 0
-1330 15190 0
281 -350 -16170 0
-281 16170 0
350 16170 0
1261 -1330 -17150 0
-1261 17150 0
1330 17150 0
12390 -11830 0
13370 -11830 0
-12390 -13370 11830 0
-12390 14350 0
-12390 16310 0
12390 -14350 -16310 0
-13370 15330 0
-13370 17290 0
13370 -15330 -17290 0
-421 490 -14350 0
421 14350 0
-490 14350 0
-1401 1470 -15330 0
1401 15330 0
-1470 15330 0
421 -490 -16310 0
-421 16310 0
490 16310 0
1401 -1470 -17290 0
-1401 17290 0
1470 17290 0
12530 -11830 0
13510 -11830 0
-12530 -13510 11830 0
-12530 14490 0
-12530 16450 0
12530 -14490 -16450 0
-13510 15470 0
-13510 17430 0
13510 -15470 -17430 0
-561 630 -14490 0
561 14490 0
-630 14490 0
-1541 1610 -15470 0
1541 15470 0
-1610 15470 0
561 -630 -16450 0
-561 16450 0
630 16450 0
1541 -1610 -17430 0
-1541 17430 0
1610 17430 0
12670 -11830 0
13650 -11830 0
-12670 -13650 11830 0
-12670 14630 0
-12670 16590 0
12670 -14630 -16590 0
-13650 15610 0
-13650 17570 0
13650 -15610 -17570 0
-701 770 -14630 0
701 14630 0
-770 14630 0
-1681 1750 -15610 0
1681 15610 0
-1750 15610 0
701 -770 -16590 0
-701 16590 0
770 16590 0
1681 -1750 -17570 0
-1681 17570 0
1750 17570 0
12810 -11830 0
13790 -11830 0
-12810 -13790 11830 0
-12810 14770 0
-12810 16730 0
12810 -14770 -16730 0
-13790 15750 0
-13790 17710 0
13790 -15750 -17710 0
-841 910 -14770 0
841 14770 0
-910 14770 0
-1821 1890 -15750 0
1821 15750 0
-1890 15750 0
841 -910 -16730 0
-841 16730 0
910 16730 0
1821 -1890 -17710 0
-1821 17710 0
1890 17710 0
11971 -11831 0
12951 -11831 0
-11971 -12951 11831 0
-11971 13931 0
-11971 15891 0
11971 -13931 -15891 0
-12951 14911 0
-12951 16871 0
12951 -14911 -16871 0
-1 71 -13931 0
1 13931 0
-71 13931 0
-981 1051 -14911 0
981 14911 0
-1051 14911 0
1 -71 -15891 0
-1 15891 0
71 15891 0
981 -1051 -16871 0
-981 16871 0
1051 16871 0
12111 -11831 0
13091 -11831 0
-12111 -13091 11831 0
-12111 14071 0
-12111 16031 0
12111 -14071 -16031 0
-13091 15051 0
-13091 17011 0
13091 -15051 -17011 0
-141 211 -14071 0
141 14071 0
-211 14071 0
-1121 1191 -15051 0
1121 15051 0
-1191 15051 0
141 -211 -16031 0
-141 16031 0
211 16031 0
1121 -1191 -17011 0
-1121 17011 0
1191 17011 0
12251 -11831 0
13231 -11831 0
-12251 -13231 11831 0
-12251 14211 0
-12251 16171 0
12251 -14211 -16171 0
-13231 15191 0
-13231 17151 0
13231 -15191 -17151 0
-281 351 -14211 0
281 14211 0
-351 14211 0
-1261 1331 -15191 0
1261 15191 0
-1331 15191 0
281 -351 -16171 0
-281 16171 0
351 16171 0
1261 -1331 -17151 0
-1261 17151 0
1331 17151 0
12391 -11831 0
13371 -11831 0
-12391 -13371 11831 0
-12391 14351 0
-12391 16311 0
12391 -14351 -16311 0
-13371 15331 0
-13371 17291 0
13371 -15331 -17291 0
-421 491 -14351 0
421 14351 0
-491 14351 0
-1401 1471 -15331 0
1401 15331 0
-1471 15331 0
421 -491 -16311 0
-421 16311 0
491 16311 0
1401 -1471 -17291 0
-1401 17291 0
1471 17291 0
12531 -11831 0
13511 -11831 0
-12531 -13511 11831 0
-12531 14491 0
-12531 16451 0
12531 -14491 -16451 0
-13511 15471 0
-13511 17431 0
13511 -15471 -17431 0
-561 631 -14491 0
561 14491 0
-631 14491 0
-1541 1611 -15471 0
1541 15471 0
-1611 15471 0
561 -631 -16451 0
-561 16451 0
631 16451 0
1541 -1611 -17431 0
-1541 17431 0
1611 17431 0
12671 -11831 0
13651 -11831 0
-12671 -13651 11831 0
-12671 14631 0
-12671 16591 0
12671 -14631 -16591 0
-13651 15611 0
-13651 17571 0
13651 -15611 -17571 0
-701 771 -14631 0
701 14631 0
-771 14631 0
-1681 1751 -15611 0
1681 15611 0
-1751 15611 0
701 -771 -16591 0
-701 16591 0
771 16591 0
1681 -1751 -17571 0
-1681 17571 0
1751 17571 0
12811 -11831 0
13791 -11831 0
-12811 -13791 11831 0
-12811 14771 0
-12811 16731 0
12811 -14771 -16731 0
-13791 15751 0
-13791 17711 0
13791 -15751 -17711 0
-841 911 -14771 0
841 14771 0
-911 14771 0
-1821 1891 -15751 0
1821 15751 0
-1891 15751 0
841 -911 -16731 0
-841 16731 0
911 16731 0
1821 -1891 -17711 0
-1821 17711 0
1891 17711 0
11972 -11832 0
12952 -11832 0
-11972 -12952 11832 0
-11972 13932 0
-11972 15892 0
11972 -13932 -15892 0
-12952 14912 0
-12952 16872 0
12952 -14912 -16872 0
-1 72 -13932 0
1 13932 0
-72 13932 0
-981 1052 -14912 0
981 14912 0
-1052 14912 0
1 -72 -15892 0
-1 15892 0
72 15892 0
981 -1052 -16872 0
-981 16872 0
1052 16872 0
12112 -11832 0
13092 -11832 0
-12112 -13092 11832 0
-12112 14072 0
-12112 16032 0
12112 -14072 -16032 0
-13092 15052 0
-13092 17012 0
13092 -15052 -17012 0
-141 212 -14072 0
141 14072 0
-212 14072 0
-1121 1192 -15052 0
1121 15052 0
-1192 15052 0
141 -212 -16032 0
-141 16032 0
212 16032 0
1121 -1192 -17012 0
-1121 17012 0
1192 17012 0
12252 -11832 0
13232 -11832 0
-12252 -13232 11832 0
-12252 14212 0
-12252 16172 0
12252 -14212 -16172 0
-13232 15192 0
-13232 17152 0
13232 -15192 -17152 0
-281 352 -14212 0
281 14212 0
-352 14212 0
-1261 1332 -15192 0
1261 15192 0
-1332 15192 0
281 -352 -16172 0
-281 16172 0
352 16172 0
1261 -1332 -17152 0
-1261 17152 0
1332 17152 0
12392 -11832 0
13372 -11832 0
-12392 -13372 11832 0
-12392 14352 0
-12392 16312 0
12392 -14352 -16312 0
-13372 15332 0
-13372 17292 0
13372 -15332 -17292 0
-421 492 -14352 0
421 14352 0
-492 14352 0
-1401 1472 -15332 0
1401 15332 0
-1472 15332 0
421 -492 -16312 0
-421 16312 0
492 16312 0
1401 -1472 -17292 0
-1401 17292 0
1472 17292 0
12532 -11832 0
13512 -11832 0
-12532 -13512 11832 0
-12532 14492 0
-12532 16452 0
12532 -14492 -16452 0
-13512 15472 0
-13512 17432 0
13512 -15472 -17432 0
-561 632 -14492 0
561 14492 0
-632 14492 0
-1541 1612 -15472 0
1541 15472 0
-1612 15472 0
561 -632 -16452 0
-561 16452 0
632 16452 0
1541 -1612 -17432 0
-1541 17432 0
1612 17432 0
12672 -11832 0
13652 -11832 0
-12672 -13652 11832 0
-12672 14632 0
-12672 16592 0
12672 -14632 -16592 0
-13652 15612 0
-13652 17572 0
13652 -15612 -17572 0
-701 772 -14632 0
701 14632 0
-772 14632 0
-1681 1752 -15612 0
1681 15612 0
-1752 15612 0
701 -772 -16592 0
-701 16592 0
772 16592 0
1681 -1752 -17572 0
-1681 17572 0
1752 17572 0
12812 -11832 0
13792 -11832 0
-12812 -13792 11832 0
-12812 14772 0
-12812 16732 0
12812 -14772 -16732 0
-13792 15752 0
-13792 17712 0
13792 -15752 -17712 0
-841 912 -14772 0
841 14772 0
-912 14772 0
-1821 1892 -15752 0
1821 15752 0
-1892 15752 0
841 -912 -16732 0
-841 16732 0
912 16732 0
1821 -1892 -17712 0
-1821 17712 0
1892 17712 0
11973 -11833 0
12953 -11833 0
-11973 -12953 11833 0
-11973 13933 0
-11973 15893 0
11973 -13933 -15893 0
-12953 14913 0
-12953 16873 0
12953 -14913 -16873 0
-1 73 -13933 0
1 13933 0
-73 13933 0
-981 1053 -14913 0
981 14913 0
-1053 14913 0
1 -73 -15893 0
-1 15893 0
73 15893 0
981 -1053 -16873 0
-981 16873 0
1053 16873 0
12113 -11833 0
13093 -11833 0
-12113 -13093 11833 0
-12113 14073 0
-12113 16033 0
12113 -14073 -16033 0
-13093 15053 0
-13093 17013 0
13093 -15053 -17013 0
-141 213 -14073 0
141 14073 0
-213 14073 0
-1121 1193 -15053 0
1121 15053 0
-1193 15053 0
141 -213 -16033 0
-141 16033 0
213 16033 0
1121 -1193 -17013 0
-1121 17013 0
1193 17013 0
12253 -11833 0
13233 -11833 0
-12253 -13233 11833 0
-12253 14213 0
-12253 16173 0
12253 -14213 -16173 0
-13233 15193 0
-13233 17153 0
13233 -15193 -17153 0
-281 353 -14213 0
281 14213 0
-353 14213 0
-1261 1333 -15193 0
1261 15193 0
-1333 15193 0
281 -353 -16173 0
-281 16173 0
353 16173 0
1261 -1333 -17153 0
-1261 17153 0
1333 17153 0
12393 -11833 0
13373 -11833 0
-12393 -13373 11833 0
-12393 14353 0
-12393 16313 0
12393 -14353 -16313 0
-13373 15333 0
-13373 17293 0
13373 -15333 -17293 0
-421 493 -14353 0
421 14353 0
-493 14353 0
-1401 1473 -15333 0
1401 15333 0
-1473 15333 0
421 -493 -16313 0
-421 16313 0
493 16313 0
1401 -1473 -17293 0
-1401 17293 0
1473 17293 0
12533 -11833 0
13513 -11833 0
-12533 -13513 11833 0
-12533 14493 0
-12533 16453 0
12533 -14493 -16453 0
-13513 15473 0
-13513 17433 0
13513 -15473 -17433 0
-561 633 -14493 0
561 14493 0
-633 14493 0
-1541 1613 -15473 0
1541 15473 0
-1613 15473 0
561 -633 -16453 0
-561 16453 0
633 16453 0
1541 -1613 -17433 0
-1541 17433 0
1613 17433 0
12673 -11833 0
13653 -11833 0
-12673 -13653 11833 0
-12673 14633 0
-12673 16593 0
12673 -14633 -16593 0
-13653 15613 0
-13653 17573 0
13653 -15613 -17573 0
-701 773 -14633 0
701 14633 0
-773 14633 0
-1681 1753 -15613 0
1681 15613 0
-1753 15613 0
701 -773 -16593 0
-701 16593 0
773 16593 0
1681 -1753 -17573 0
-1681 17573 0
1753 17573 0
12813 -11833 0
13793 -11833 0
-12813 -13793 11833 0
-12813 14773 0
-12813 16733 0
12813 -14773 -16733 0
-13793 15753 0
-13793 17713 0
13793 -15753 -17713 0
-841 913 -14773 0
841 14773 0
-913 14773 0
-1821 1893 -15753 0
1821 15753 0
-1893 15753 0
841 -913 -16733 0
-841 16733 0
913 16733 0
1821 -1893 -17713 0
-1821 17713 0
1893 17713 0
11974 -11834 0
12954 -11834 0
-11974 -12954 11834 0
-11974 13934 0
-11974 15894 0
11974 -13934 -15894 0
-12954 14914 0
-12954 16874 0
12954 -14914 -16874 0
-1 74 -13934 0
1 13934 0
-74 13934 0
-981 1054 -14914 0
981 14914 0
-1054 14914 0
1 -74 -15894 0
-1 15894 0
74 15894 0
981 -1054 -16874 0
-981 16874 0
1054 16874 0
12114 -11834 0
13094 -11834 0
-12114 -13094 11834 0
-12114 14074 0
-12114 16034 0
12114 -14074 -16034 0
-13094 15054 0
-13094 17014 0
13094 -15054 -17014 0
-141 214 -14074 0
141 14074 0
-214 14074 0
-1121 1194 -15054 0
1121 15054 0
-1194 15054 0
141 -214 -16034 0
-141 16034 0
214 16034 0
1121 -1194 -17014 0
-1121 17014 0
1194 17014 0
12254 -11834 0
13234 -11834 0
-12254 -13234 11834 0
-12254 14214 0
-12254 16174 0
12254 -14214 -16174 0
-13234 15194 0
-13234 17154 0
13234 -15194 -17154 0
-281 354 -14214 0
281 14214 0
-354 14214 0
-1261 1334 -15194 0
1261 15194 0
-1334 15194 0
281 -354 -16174 0
-281 16174 0
354 16174 0
1261 -1334 -17154 0
-1261 17154 0
1334 17154 0
12394 -11834 0
13374 -11834 0
-12394 -13374 11834 0
-12394 14354 0
-12394 16314 0
12394 -14354 -16314 0
-13374 15334 0
-13374 17294 0
13374 -15334 -17294 0
-421 494 -14354 0
421 14354 0
-494 14354 0
-1401 1474 -15334 0
1401 15334 0
-1474 15334 0
421 -494 -16314 0
-421 16314 0
494 16314 0
1401 -1474 -17294 0
-1401 17294 0
1474 17294 0
12534 -11834 0
13514 -11834 0
-12534 -13514 11834 0
-12534 14494 0
-12534 16454 0
12534 -14494 -16454 0
-13514 15474 0
-13514 17434 0
13514 -15474 -17434 0
-561 634 -14494 0
561 14494 0
-634 14494 0
-1541 1614 -15474 0
1541 15474 0
-1614 15474 0
561 -634 -16454 0
-561 16454 0
634 16454 0
1541 -1614 -17434 0
-1541 17434 0
1614 17434 0
12674 -11834 0
13654 -11834 0
-12674 -13654 11834 0
-12674 14634 0
-12674 16594 0
12674 -14634 -16594 0
-13654 15614 0
-13654 17574 0
13654 -15614 -17574 0
-701 774 -14634 0
701 14634 0
-774 14634 0
-1681 1754 -15614 0
1681 15614 0
-1754 15614 0
701 -774 -16594 0
-701 16594 0
774 16594 0
1681 -1754 -17574 0
-1681 17574 0
1754 17574 0
12814 -11834 0
13794 -11834 0
-12814 -13794 11834 0
-12814 14774 0
-12814 16734 0
12814 -14774 -16734 0
-13794 15754 0
-13794 17714 0
13794 -15754 -17714 0
-841 914 -14774 0
841 14774 0
-914 14774 0
-1821 1894 -15754 0
1821 15754 0
-1894 15754 0
841 -914 -16734 0
-841 16734 0
914 16734 0
1821 -1894 -17714 0
-1821 17714 0
1894 17714 0
11975 -11835 0
12955 -11835 0
-11975 -12955 11835 0
-11975 13935 0
-11975 15895 0
11975 -13935 -15895 0
-12955 14915 0
-12955 16875 0
12955 -14915 -16875 0
-1 75 -13935 0
1 13935 0
-75 13935 0
-981 1055 -14915 0
981 14915 0
-1055 14915 0
1 -75 -15895 0
-1 15895 0
75 15895 0
981 -1055 -16875 0
-981 16875 0
1055 16875 0
12115 -11835 0
13095 -11835 0
-12115 -13095 11835 0
-12115 14075 0
-12115 16035 0
12115 -14075 -16035 0
-13095 15055 0
-13095 17015 0
13095 -15055 -17015 0
-141 215 -14075 0
141 14075 0
-215 14075 0
-1121 1195 -15055 0
1121 15055 0
-1195 15055 0
141 -215 -16035 0
-141 16035 0
215 16035 0
1121 -1195 -17015 0
-1121 17015 0
1195 17015 0
12255 -11835 0
13235 -11835 0
-12255 -13235 11835 0
-12255 14215 0
-12255 16175 0
12255 -14215 -16175 0
-13235 15195 0
-13235 17155 0
13235 -15195 -17155 0
-281 355 -14215 0
281 14215 0
-355 14215 0
-1261 1335 -15195 0
1261 15195 0
-1335 15195 0
281 -355 -16175 0
-281 16175 0
355 16175 0
1261 -1335 -17155 0
-1261 17155 0
1335 17155 0
12395 -11835 0
13375 -11835 0
-12395 -13375 11835 0
-12395 14355 0
-12395 16315 0
12395 -14355 -16315 0
-13375 15335 0
-13375 17295 0
13375 -15335 -17295 0
-421 495 -14355 0
421 14355 0
-495 14355 0
-1401 1475 -15335 0
1401 15335 0
-1475 15335 0
421 -495 -16315 0
-421 16315 0
495 16315 0
1401 -1475 -17295 0
-1401 17295 0
1475 17295 0
12535 -11835 0
13515 -11835 0
-12535 -13515 11835 0
-12535 14495 0
-12535 16455 0
12535 -14495 -16455 0
-13515 15475 0
-13515 17435 0
13515 -15475 -17435 0
-561 635 -14495 0
561 14495 0
-635 14495 0
-1541 1615 -15475 0
1541 15475 0
-1615 15475 0
561 -635 -16455 0
-561 16455 0
635 16455 0
1541 -1615 -17435 0
-1541 17435 0
1615 17435 0
12675 -11835 0
13655 -11835 0
-12675 -13655 11835 0
-12675 14635 0
-12675 16595 0
12675 -14635 -16595 0
-13655 15615 0
-13655 17575 0
13655 -15615 -17575 0
-701 775 -14635 0
701 14635 0
-775 14635 0
-1681 1755 -15615 0
1681 15615 0
-1755 15615 0
701 -775 -16595 0
-701 16595 0
775 16595 0
1681 -1755 -17575 0
-1681 17575 0
1755 17575 0
12815 -11835 0
13795 -11835 0
-12815 -13795 11835 0
-12815 14775 0
-12815 16735 0
12815 -14775 -16735 0
-13795 15755 0
-13795 17715 0
13795 -15755 -17715 0
-841 915 -14775 0
841 14775 0
-915 14775 0
-1821 1895 -15755 0
1821 15755 0
-1895 15755 0
841 -915 -16735 0
-841 16735 0
915 16735 0
1821 -1895 -17715 0
-1821 17715 0
1895 17715 0
11976 -11836 0
12956 -11836 0
-11976 -12956 11836 0
-11976 13936 0
-11976 15896 0
11976 -13936 -15896 0
-12956 14916 0
-12956 16876 0
12956 -14916 -16876 0
-1 76 -13936 0
1 13936 0
-76 13936 0
-981 1056 -14916 0
981 14916 0
-1056 14916 0
1 -76 -15896 0
-1 15896 0
76 15896 0
981 -1056 -16876 0
-981 16876 0
1056 16876 0
12116 -11836 0
13096 -11836 0
-12116 -13096 11836 0
-12116 14076 0
-12116 16036 0
12116 -14076 -16036 0
-13096 15056 0
-13096 17016 0
13096 -15056 -17016 0
-141 216 -14076 0
141 14076 0
-216 14076 0
-1121 1196 -15056 0
1121 15056 0
-1196 15056 0
141 -216 -16036 0
-141 16036 0
216 16036 0
1121 -1196 -17016 0
-1121 17016 0
1196 17016 0
12256 -11836 0
13236 -11836 0
-12256 -13236 11836 0
-12256 14216 0
-12256 16176 0
12256 -14216 -16176 0
-13236 15196 0
-13236 17156 0
13236 -15196 -17156 0
-281 356 -14216 0
281 14216 0
-356 14216 0
-1261 1336 -15196 0
1261 15196 0
-1336 15196 0
281 -356 -16176 0
-281 16176 0
356 16176 0
1261 -1336 -17156 0
-1261 17156 0
1336 17156 0
12396 -11836 0
13376 -11836 0
-12396 -13376 11836 0
-12396 14356 0
-12396 16316 0
12396 -14356 -16316 0
-13376 15336 0
-13376 17296 0
13376 -15336 -17296 0
-421 496 -14356 0
421 14356 0
-496 14356 0
-1401 1476 -15336 0
1401 15336 0
-1476 15336 0
421 -496 -16316 0
-421 16316 0
496 16316 0
1401 -1476 -17296 0
-1401 17296 0
1476 17296 0
12536 -11836 0
13516 -11836 0
-12536 -13516 11836 0
-12536 14496 0
-12536 16456 0
12536 -14496 -16456 0
-13516 15476 0
-13516 17436 0
13516 -15476 -17436 0
-561 636 -14496 0
561 14496 0
-636 14496 0
-1541 1616 -15476 0
1541 15476 0
-1616 15476 0
561 -636 -16456 0
-561 16456 0
636 16456 0
1541 -1616 -17436 0
-1541 17436 0
1616 17436 0
12676 -11836 0
13656 -11836 0
-12676 -13656 11836 0
-12676 14636 0
-12676 16596 0
12676 -14636 -16596 0
-13656 15616 0
-13656 17576 0
13656 -15616 -17576 0
-701 776 -14636 0
701 14636 0
-776 14636 0
-1681 1756 -15616 0
1681 15616 0
-1756 15616 0
701 -776 -16596 0
-701 16596 0
776 16596 0
1681 -1756 -17576 0
-1681 17576 0
1756 17576 0
12816 -11836 0
13796 -11836 0
-12816 -13796 11836 0
-12816 14776 0
-12816 16736 0
12816 -14776 -16736 0
-13796 15756 0
-13796 17716 0
13796 -15756 -17716 0
-841 916 -14776 0
841 14776 0
-916 14776 0
-1821 1896 -15756 0
1821 15756 0
-1896 15756 0
841 -916 -16736 0
-841 16736 0
916 16736 0
1821 -1896 -17716 0
-1821 17716 0
1896 17716 0
11977 -11837 0
12957 -11837 0
-11977 -12957 11837 0
-11977 13937 0
-11977 15897 0
11977 -13937 -15897 0
-12957 14917 0
-12957 16877 0
12957 -14917 -16877 0
-1 77 -13937 0
1 13937 0
-77 13937 0
-981 1057 -14917 0
981 14917 0
-1057 14917 0
1 -77 -15897 0
-1 15897 0
77 15897 0
981 -1057 -16877 0
-981 16877 0
1057 16877 0
12117 -11837 0
13097 -11837 0
-12117 -13097 11837 0
-12117 14077 0
-12117 16037 0
12117 -14077 -16037 0
-13097 15057 0
-13097 17017 0
13097 -15057 -17017 0
-141 217 -14077 0
141 14077 0
-217 14077 0
-1121 1197 -15057 0
1121 15057 0
-1197 15057 0
141 -217 -16037 0
-141 16037 0
217 16037 0
1121 -1197 -17017 0
-1121 17017 0
1197 17017 0
12257 -11837 0
13237 -11837 0
-12257 -13237 11837 0
-12257 14217 0
-12257 16177 0
12257 -14217 -16177 0
-13237 15197 0
-13237 17157 0
13237 -15197 -17157 0
-281 357 -14217 0
281 14217 0
-357 14217 0
-1261 1337 -15197 0
1261 15197 0
-1337 15197 0
281 -357 -16177 0
-281 16177 0
357 16177 0
1261 -1337 -17157 0
-1261 17157 0
1337 17157 0
12397 -11837 0
13377 -11837 0
-12397 -13377 11837 0
-12397 14357 0
-12397 16317 0
12397 -14357 -16317 0
-13377 15337 0
-13377 17297 0
13377 -15337 -17297 0
-421 497 -14357 0
421 14357 0
-497 14357 0
-1401 1477 -15337 0
1401 15337 0
-1477 15337 0
421 -497 -16317 0
-421 16317 0
497 16317 0
1401 -1477 -17297 0
-1401 17297 0
1477 17297 0
12537 -11837 0
13517 -11837 0
-12537 -13517 11837 0
-12537 14497 0
-12537 16457 0
12537 -14497 -16457 0
-13517 15477 0
-13517 17437 0
13517 -15477 -17437 0
-561 637 -14497 0
561 14497 0
-637 14497 0
-1541 1617 -15477 0
1541 15477 0
-1617 15477 0
561 -637 -16457 0
-561 16457 0
637 16457 0
1541 -1617 -17437 0
-1541 17437 0
1617 17437 0
12677 -11837 0
13657 -11837 0
-12677 -13657 11837 0
-12677 14637 0
-12677 16597 0
12677 -14637 -16597 0
-13657 15617 0
-13657 17577 0
13657 -15617 -17577 0
-701 777 -14637 0
701 14637 0
-777 14637 0
-1681 1757 -15617 0
1681 15617 0
-1757 15617 0
701 -777 -16597 0
-701 16597 0
777 16597 0
1681 -1757 -17577 0
-1681 17577 0
1757 17577 0
12817 -11837 0
13797 -11837 0
-12817 -13797 11837 0
-12817 14777 0
-12817 16737 0
12817 -14777 -16737 0
-13797 15757 0
-13797 17717 0
13797 -15757 -17717 0
-841 917 -14777 0
841 14777 0
-917 14777 0
-1821 1897 -15757 0
1821 15757 0
-1897 15757 0
841 -917 -16737 0
-841 16737 0
917 16737 0
1821 -1897 -17717 0
-1821 17717 0
1897 17717 0
11978 -11838 0
12958 -11838 0
-11978 -12958 11838 0
-11978 13938 0
-11978 15898 0
11978 -13938 -15898 0
-12958 14918 0
-12958 16878 0
12958 -14918 -16878 0
-1 78 -13938 0
1 13938 0
-78 13938 0
-981 1058 -14918 0
981 14918 0
-1058 14918 0
1 -78 -15898 0
-1 15898 0
78 15898 0
981 -1058 -16878 0
-981 16878 0
1058 16878 0
12118 -11838 0
13098 -11838 0
-12118 -13098 11838 0
-12118 14078 0
-12118 16038 0
12118 -14078 -16038 0
-13098 15058 0
-13098 17018 0
13098 -15058 -17018 0
-141 218 -14078 0
141 14078 0
-218 14078 0
-1121 1198 -15058 0
1121 15058 0
-1198 15058 0
141 -218 -16038 0
-141 16038 0
218 16038 0
1121 -1198 -17018 0
-1121 17018 0
1198 17018 0
12258 -11838 0
13238 -11838 0
-12258 -13238 11838 0
-12258 14218 0
-12258 16178 0
12258 -14218 -16178 0
-13238 15198 0
-13238 17158 0
13238 -15198 -17158 0
-281 358 -14218 0
281 14218 0
-358 14218 0
-1261 1338 -15198 0
1261 15198 0
-1338 15198 0
281 -358 -16178 0
-281 16178 0
358 16178 0
1261 -1338 -17158 0
-1261 17158 0
1338 17158 0
12398 -11838 0
13378 -11838 0
-12398 -13378 11838 0
-12398 14358 0
-12398 16318 0
12398 -14358 -16318 0
-13378 15338 0
-13378 17298 0
13378 -15338 -17298 0
-421 498 -14358 0
421 14358 0
-498 14358 0
-1401 1478 -15338 0
1401 15338 0
-1478 15338 0
421 -498 -16318 0
-421 16318 0
498 16318 0
1401 -1478 -17298 0
-1401 17298 0
1478 17298 0
12538 -11838 0
13518 -11838 0
-12538 -13518 11838 0
-12538 14498 0
-12538 16458 0
12538 -14498 -16458 0
-13518 15478 0
-13518 17438 0
13518 -15478 -17438 0
-561 638 -14498 0
561 14498 0
-638 14498 0
-1541 1618 -15478 0
1541 15478 0
-1618 15478 0
561 -638 -16458 0
-561 16458 0
638 16458 0
1541 -1618 -17438 0
-1541 17438 0
1618 17438 0
12678 -11838 0
13658 -11838 0
-12678 -13658 11838 0
-12678 14638 0
-12678 16598 0
12678 -14638 -16598 0
-13658 15618 0
-13658 17578 0
13658 -15618 -17578 0
-701 778 -14638 0
701 14638 0
-778 14638 0
-1681 1758 -15618 0
1681 15618 0
-1758 15618 0
701 -778 -16598 0
-701 16598 0
778 16598 0
1681 -1758 -17578 0
-1681 17578 0
1758 17578 0
12818 -11838 0
13798 -11838 0
-12818 -13798 11838 0
-12818 14778 0
-12818 16738 0
12818 -14778 -16738 0
-13798 15758 0
-13798 17718 0
13798 -15758 -17718 0
-841 918 -14778 0
841 14778 0
-918 14778 0
-1821 1898 -15758 0
1821 15758 0
-1898 15758 0
841 -918 -16738 0
-841 16738 0
918 16738 0
1821 -1898 -17718 0
-1821 17718 0
1898 17718 0
11979 -11839 0
12959 -11839 0
-11979 -12959 11839 0
-11979 13939 0
-11979 15899 0
11979 -13939 -15899 0
-12959 14919 0
-12959 16879 0
12959 -14919 -16879 0
-1 79 -13939 0
1 13939 0
-79 13939 0
-981 1059 -14919 0
981 14919 0
-1059 14919 0
1 -79 -15899 0
-1 15899 0
79 15899 0
981 -1059 -16879 0
-981 16879 0
1059 16879 0
12119 -11839 0
13099 -11839 0
-12119 -13099 11839 0
-12119 14079 0
-12119 16039 0
12119 -14079 -16039 0
-13099 15059 0
-13099 17019 0
13099 -15059 -17019 0
-141 219 -14079 0
141 14079 0
-219 14079 0
-1121 1199 -15059 0
1121 15059 0
-1199 15059 0
141 -219 -16039 0
-141 16039 0
219 16039 0
1121 -1199 -17019 0
-1121 17019 0
1199 17019 0
12259 -11839 0
13239 -11839 0
-12259 -13239 11839 0
-12259 14219 0
-12259 16179 0
12259 -14219 -16179 0
-13239 15199 0
-13239 17159 0
13239 -15199 -17159 0
-281 359 -14219 0
281 14219 0
-359 14219 0
-1261 1339 -15199 0
1261 15199 0
-1339 15199 0
281 -359 -16179 0
-281 16179 0
359 16179 0
1261 -1339 -17159 0
-1261 17159 0
1339 17159 0
12399 -11839 0
13379 -11839 0
-12399 -13379 11839 0
-12399 14359 0
-12399 16319 0
12399 -14359 -16319 0
-13379 15339 0
-13379 17299 0
13379 -15339 -17299 0
-421 499 -14359 0
421 14359 0
-499 14359 0
-1401 1479 -15339 0
1401 15339 0
-1479 15339 0
421 -499 -16319 0
-421 16319 0
499 16319 0
1401 -1479 -17299 0
-1401 17299 0
1479 17299 0
12539 -11839 0
13519 -11839 0
-12539 -13519 11839 0
-12539 14499 0
-12539 16459 0
12539 -14499 -16459 0
-13519 15479 0
-13519 17439 0
13519 -15479 -17439 0
-561 639 -14499 0
561 14499 0
-639 14499 0
-1541 1619 -15479 0
1541 15479 0
-1619 15479 0
561 -639 -16459 0
-561 16459 0
639 16459 0
1541 -1619 -17439 0
-1541 17439 0
1619 17439 0
12679 -11839 0
13659 -11839 0
-12679 -13659 11839 0
-12679 14639 0
-12679 16599 0
12679 -14639 -16599 0
-13659 15619 0
-13659 17579 0
13659 -15619 -17579 0
-701 779 -14639 0
701 14639 0
-779 14639 0
-1681 1759 -15619 0
1681 15619 0
-1759 15619 0
701 -779 -16599 0
-701 16599 0
779 16599 0
1681 -1759 -17579 0
-1681 17579 0
1759 17579 0
12819 -11839 0
13799 -11839 0
-12819 -13799 11839 0
-12819 14779 0
-12819 16739 0
12819 -14779 -16739 0
-13799 15759 0
-13799 17719 0
13799 -15759 -17719 0
-841 919 -14779 0
841 14779 0
-919 14779 0
-1821 1899 -15759 0
1821 15759 0
-1899 15759 0
841 -919 -16739 0
-841 16739 0
919 16739 0
1821 -1899 -17719 0
-1821 17719 0
1899 17719 0
11980 -11840 0
12960 -11840 0
-11980 -12960 11840 0
-11980 13940 0
-11980 15900 0
11980 -13940 -15900 0
-12960 14920 0
-12960 16880 0
12960 -14920 -16880 0
-1 80 -13940 0
1 13940 0
-80 13940 0
-981 1060 -14920 0
981 14920 0
-1060 14920 0
1 -80 -15900 0
-1 15900 0
80 15900 0
981 -1060 -16880 0
-981 16880 0
1060 16880 0
12120 -11840 0
13100 -11840 0
-12120 -13100 11840 0
-12120 14080 0
-12120 16040 0
12120 -14080 -16040 0
-13100 15060 0
-13100 17020 0
13100 -15060 -17020 0
-141 220 -14080 0
141 14080 0
-220 14080 0
-1121 1200 -15060 0
1121 15060 0
-1200 15060 0
141 -220 -16040 0
-141 16040 0
220 16040 0
1121 -1200 -17020 0
-1121 17020 0
1200 17020 0
12260 -11840 0
13240 -11840 0
-12260 -13240 11840 0
-12260 14220 0
-12260 16180 0
12260 -14220 -16180 0
-13240 15200 0
-13240 17160 0
13240 -15200 -17160 0
-281 360 -14220 0
281 14220 0
-360 14220 0
-1261 1340 -15200 0
1261 15200 0
-1340 15200 0
281 -360 -16180 0
-281 16180 0
360 16180 0
1261 -1340 -17160 0
-1261 17160 0
1340 17160 0
12400 -11840 0
13380 -11840 0
-12400 -13380 11840 0
-12400 14360 0
-12400 16320 0
12400 -14360 -16320 0
-13380 15340 0
-13380 17300 0
13380 -15340 -17300 0
-421 500 -14360 0
421 14360 0
-500 14360 0
-1401 1480 -15340 0
1401 15340 0
-1480 15340 0
421 -500 -16320 0
-421 16320 0
500 16320 0
1401 -1480 -17300 0
-1401 17300 0
1480 17300 0
12540 -11840 0
13520 -11840 0
-12540 -13520 11840 0
-12540 14500 0
-12540 16460 0
12540 -14500 -16460 0
-13520 15480 0
-13520 17440 0
13520 -15480 -17440 0
-561 640 -14500 0
561 14500 0
-640 14500 0
-1541 1620 -15480 0
1541 15480 0
-1620 15480 0
561 -640 -16460 0
-561 16460 0
640 16460 0
1541 -1620 -17440 0
-1541 17440 0
1620 17440 0
12680 -11840 0
13660 -11840 0
-12680 -13660 11840 0
-12680 14640 0
-12680 16600 0
12680 -14640 -16600 0
-13660 15620 0
-13660 17580 0
13660 -15620 -17580 0
-701 780 -14640 0
701 14640 0
-780 14640 0
-1681 1760 -15620 0
1681 15620 0
-1760 15620 0
701 -780 -16600 0
-701 16600 0
780 16600 0
1681 -1760 -17580 0
-1681 17580 0
1760 17580 0
12820 -11840 0
13800 -11840 0
-12820 -13800 11840 0
-12820 14780 0
-12820 16740 0
12820 -14780 -16740 0
-13800 15760 0
-13800 17720 0
13800 -15760 -17720 0
-841 920 -14780 0
841 14780 0
-920 14780 0
-1821 1900 -15760 0
1821 15760 0
-1900 15760 0
841 -920 -16740 0
-841 16740 0
920 16740 0
1821 -1900 -17720 0
-1821 17720 0
1900 17720 0
11981 -11841 0
12961 -11841 0
-11981 -12961 11841 0
-11981 13941 0
-11981 15901 0
11981 -13941 -15901 0
-12961 14921 0
-12961 16881 0
12961 -14921 -16881 0
-1 81 -13941 0
1 13941 0
-81 13941 0
-981 1061 -14921 0
981 14921 0
-1061 14921 0
1 -81 -15901 0
-1 15901 0
81 15901 0
981 -1061 -16881 0
-981 16881 0
1061 16881 0
12121 -11841 0
13101 -11841 0
-12121 -13101 11841 0
-12121 14081 0
-12121 16041 0
12121 -14081 -16041 0
-13101 15061 0
-13101 17021 0
13101 -15061 -17021 0
-141 221 -14081 0
141 14081 0
-221 14081 0
-1121 1201 -15061 0
1121 15061 0
-1201 15061 0
141 -221 -16041 0
-141 16041 0
221 16041 0
1121 -1201 -17021 0
-1121 17021 0
1201 17021 0
12261 -11841 0
13241 -11841 0
-12261 -13241 11841 0
-12261 14221 0
-12261 16181 0
12261 -14221 -16181 0
-13241 15201 0
-13241 17161 0
13241 -15201 -17161 0
-281 361 -14221 0
281 14221 0
-361 14221 0
-1261 1341 -15201 0
1261 15201 0
-1341 15201 0
281 -361 -16181 0
-281 16181 0
361 16181 0
1261 -1341 -17161 0
-1261 17161 0
1341 17161 0
12401 -11841 0
13381 -11841 0
-12401 -13381 11841 0
-12401 14361 0
-12401 16321 0
12401 -14361 -16321 0
-13381 15341 0
-13381 17301 0
13381 -15341 -17301 0
-421 501 -14361 0
421 14361 0
-501 14361 0
-1401 1481 -15341 0
1401 15341 0
-1481 15341 0
421 -501 -16321 0
-421 16321 0
501 16321 0
1401 -1481 -17301 0
-1401 17301 0
1481 17301 0
12541 -11841 0
13521 -11841 0
-12541 -13521 11841 0
-12541 14501 0
-12541 16461 0
12541 -14501 -16461 0
-13521 15481 0
-13521 17441 0
13521 -15481 -17441 0
-561 641 -14501 0
561 14501 0
-641 14501 0
-1541 1621 -15481 0
1541 15481 0
-1621 15481 0
561 -641 -16461 0
-561 16461 0
641 16461 0
1541 -1621 -17441 0
-1541 17441 0
1621 17441 0
12681 -11841 0
13661 -11841 0
-12681 -13661 11841 0
-12681 14641 0
-12681 16601 0
12681 -14641 -16601 0
-13661 15621 0
-13661 17581 0
13661 -15621 -17581 0
-701 781 -14641 0
701 14641 0
-781 14641 0
-1681 1761 -15621 0
1681 15621 0
-1761 15621 0
701 -781 -16601 0
-701 16601 0
781 16601 0
1681 -1761 -17581 0
-1681 17581 0
1761 17581 0
12821 -11841 0
13801 -11841 0
-12821 -13801 11841 0
-12821 14781 0
-12821 16741 0
12821 -14781 -16741 0
-13801 15761 0
-13801 17721 0
13801 -15761 -17721 0
-841 921 -14781 0
841 14781 0
-921 14781 0
-1821 1901 -15761 0
1821 15761 0
-1901 15761 0
841 -921 -16741 0
-841 16741 0
921 16741 0
1821 -1901 -17721 0
-1821 17721 0
1901 17721 0
11982 -11842 0
12962 -11842 0
-11982 -12962 11842 0
-11982 13942 0
-11982 15902 0
11982 -13942 -15902 0
-12962 14922 0
-12962 16882 0
12962 -14922 -16882 0
-1 82 -13942 0
1 13942 0
-82 13942 0
-981 1062 -14922 0
981 14922 0
-1062 14922 0
1 -82 -15902 0
-1 15902 0
82 15902 0
981 -1062 -16882 0
-981 16882 0
1062 16882 0
12122 -11842 0
13102 -11842 0
-12122 -13102 11842 0
-12122 14082 0
-12122 16042 0
12122 -14082 -16042 0
-13102 15062 0
-13102 17022 0
13102 -15062 -17022 0
-141 222 -14082 0
141 14082 0
-222 14082 0
-1121 1202 -15062 0
1121 15062 0
-1202 15062 0
141 -222 -16042 0
-141 16042 0
222 16042 0
1121 -1202 -17022 0
-1121 17022 0
1202 17022 0
12262 -11842 0
13242 -11842 0
-12262 -13242 11842 0
-12262 14222 0
-12262 16182 0
12262 -14222 -16182 0
-13242 15202 0
-13242 17162 0
13242 -15202 -17162 0
-281 362 -14222 0
281 14222 0
-362 14222 0
-1261 1342 -15202 0
1261 15202 0
-1342 15202 0
281 -362 -16182 0
-281 16182 0
362 16182 0
1261 -1342 -17162 0
-1261 17162 0
1342 17162 0
12402 -11842 0
13382 -11842 0
-12402 -13382 11842 0
-12402 14362 0
-12402 16322 0
12402 -14362 -16322 0
-13382 15342 0
-13382 17302 0
13382 -15342 -17302 0
-421 502 -14362 0
421 14362 0
-502 14362 0
-1401 1482 -15342 0
1401 15342 0
-1482 15342 0
421 -502 -16322 0
-421 16322 0
502 16322 0
1401 -1482 -17302 0
-1401 17302 0
1482 17302 0
12542 -11842 0
13522 -11842 0
-12542 -13522 11842 0
-12542 14502 0
-12542 16462 0
12542 -14502 -16462 0
-13522 15482 0
-13522 17442 0
13522 -15482 -17442 0
-561 642 -14502 0
561 14502 0
-642 14502 0
-1541 1622 -15482 0
1541 15482 0
-1622 15482 0
561 -642 -16462 0
-561 16462 0
642 16462 0
1541 -1622 -17442 0
-1541 17442 0
1622 17442 0
12682 -11842 0
13662 -11842 0
-12682 -13662 11842 0
-12682 14642 0
-12682 16602 0
12682 -14642 -16602 0
-13662 15622 0
-13662 17582 0
13662 -15622 -17582 0
-701 782 -14642 0
701 14642 0
-782 14642 0
-1681 1762 -15622 0
1681 15622 0
-1762 15622 0
701 -782 -16602 0
-701 16602 0
782 16602 0
1681 -1762 -17582 0
-1681 17582 0
1762 17582 0
12822 -11842 0
13802 -11842 0
-12822 -13802 11842 0
-12822 14782 0
-12822 16742 0
12822 -14782 -16742 0
-13802 15762 0
-13802 17722 0
13802 -15762 -17722 0
-841 922 -14782 0
841 14782 0
-922 14782 0
-1821 1902 -15762 0
1821 15762 0
-1902 15762 0
841 -922 -16742 0
-841 16742 0
922 16742 0
1821 -1902 -17722 0
-1821 17722 0
1902 17722 0
11983 -11843 0
12963 -11843 0
-11983 -12963 11843 0
-11983 13943 0
-11983 15903 0
11983 -13943 -15903 0
-12963 14923 0
-12963 16883 0
12963 -14923 -16883 0
-1 83 -13943 0
1 13943 0
-83 13943 0
-981 1063 -14923 0
981 14923 0
-1063 14923 0
1 -83 -15903 0
-1 15903 0
83 15903 0
981 -1063 -16883 0
-981 16883 0
1063 16883 0
12123 -11843 0
13103 -11843 0
-12123 -13103 11843 0
-12123 14083 0
-12123 16043 0
12123 -14083 -16043 0
-13103 15063 0
-13103 17023 0
13103 -15063 -17023 0
-141 223 -14083 0
141 14083 0
-223 14083 0
-1121 1203 -15063 0
1121 15063 0
-1203 15063 0
141 -223 -16043 0
-141 16043 0
223 16043 0
1121 -1203 -17023 0
-1121 17023 0
1203 17023 0
12263 -11843 0
13243 -11843 0
-12263 -13243 11843 0
-12263 14223 0
-12263 16183 0
12263 -14223 -16183 0
-13243 15203 0
-13243 17163 0
13243 -15203 -17163 0
-281 363 -14223 0
281 14223 0
-363 14223 0
-1261 1343 -15203 0
1261 15203 0
-1343 15203 0
281 -363 -16183 0
-281 16183 0
363 16183 0
1261 -1343 -17163 0
-1261 17163 0
1343 17163 0
12403 -11843 0
13383 -11843 0
-12403 -13383 11843 0
-12403 14363 0
-12403 16323 0
12403 -14363 -16323 0
-13383 15343 0
-13383 17303 0
13383 -15343 -17303 0
-421 503 -14363 0
421 14363 0
-503 14363 0
-1401 1483 -15343 0
1401 15343 0
-1483 15343 0
421 -503 -16323 0
-421 16323 0
503 16323 0
1401 -1483 -17303 0
-1401 17303 0
1483 17303 0
12543 -11843 0
13523 -11843 0
-12543 -13523 11843 0
-12543 14503 0
-12543 16463 0
12543 -14503 -16463 0
-13523 15483 0
-13523 17443 0
13523 -15483 -17443 0
-561 643 -14503 0
561 14503 0
-643 14503 0
-1541 1623 -15483 0
1541 15483 0
-1623 15483 0
561 -643 -16463 0
-561 16463 0
643 16463 0
1541 -1623 -17443 0
-1541 17443 0
1623 17443 0
12683 -11843 0
13663 -11843 0
-12683 -13663 11843 0
-12683 14643 0
-12683 16603 0
12683 -14643 -16603 0
-13663 15623 0
-13663 17583 0
13663 -15623 -17583 0
-701 783 -14643 0
701 14643 0
-783 14643 0
-1681 1763 -15623 0
1681 15623 0
-1763 15623 0
701 -783 -16603 0
-701 16603 0
783 16603 0
1681 -1763 -17583 0
-1681 17583 0
1763 17583 0
12823 -11843 0
13803 -11843 0
-12823 -13803 11843 0
-12823 14783 0
-12823 16743 0
12823 -14783 -16743 0
-13803 15763 0
-13803 17723 0
13803 -15763 -17723 0
-841 923 -14783 0
841 14783 0
-923 14783 0
-1821 1903 -15763 0
1821 15763 0
-1903 15763 0
841 -923 -16743 0
-841 16743 0
923 16743 0
1821 -1903 -17723 0
-1821 17723 0
1903 17723 0
11984 -11844 0
12964 -11844 0
-11984 -12964 11844 0
-11984 13944 0
-11984 15904 0
11984 -13944 -15904 0
-12964 14924 0
-12964 16884 0
12964 -14924 -16884 0
-1 84 -13944 0
1 13944 0
-84 13944 0
-981 1064 -14924 0
981 14924 0
-1064 14924 0
1 -84 -15904 0
-1 15904 0
84 15904 0
981 -1064 -16884 0
-981 16884 0
1064 16884 0
12124 -11844 0
13104 -11844 0
-12124 -13104 11844 0
-12124 14084 0
-12124 16044 0
12124 -14084 -16044 0
-13104 15064 0
-13104 17024 0
13104 -15064 -17024 0
-141 224 -14084 0
141 14084 0
-224 14084 0
-1121 1204 -15064 0
1121 15064 0
-1204 15064 0
141 -224 -16044 0
-141 16044 0
224 16044 0
1121 -1204 -17024 0
-1121 17024 0
1204 17024 0
12264 -11844 0
13244 -11844 0
-12264 -13244 11844 0
-12264 14224 0
-12264 16184 0
12264 -14224 -16184 0
-13244 15204 0
-13244 17164 0
13244 -15204 -17164 0
-281 364 -14224 0
281 14224 0
-364 14224 0
-1261 1344 -15204 0
1261 15204 0
-1344 15204 0
281 -364 -16184 0
-281 16184 0
364 16184 0
1261 -1344 -17164 0
-1261 17164 0
1344 17164 0
12404 -11844 0
13384 -11844 0
-12404 -13384 11844 0
-12404 14364 0
-12404 16324 0
12404 -14364 -16324 0
-13384 15344 0
-13384 17304 0
13384 -15344 -17304 0
-421 504 -14364 0
421 14364 0
-504 14364 0
-1401 1484 -15344 0
1401 15344 0
-1484 15344 0
421 -504 -16324 0
-421 16324 0
504 16324 0
1401 -1484 -17304 0
-1401 17304 0
1484 17304 0
12544 -11844 0
13524 -11844 0
-12544 -13524 11844 0
-12544 14504 0
-12544 16464 0
12544 -14504 -16464 0
-13524 15484 0
-13524 17444 0
13524 -15484 -17444 0
-561 644 -14504 0
561 14504 0
-644 14504 0
-1541 1624 -15484 0
1541 15484 0
-1624 15484 0
561 -644 -16464 0
-561 16464 0
644 16464 0
1541 -1624 -17444 0
-1541 17444 0
1624 17444 0
12684 -11844 0
13664 -11844 0
-12684 -13664 11844 0
-12684 14644 0
-12684 16604 0
12684 -14644 -16604 0
-13664 15624 0
-13664 17584 0
13664 -15624 -17584 0
-701 784 -14644 0
701 14644 0
-784 14644 0
-1681 1764 -15624 0
1681 15624 0
-1764 15624 0
701 -784 -16604 0
-701 16604 0
784 16604 0
1681 -1764 -17584 0
-1681 17584 0
1764 17584 0
12824 -11844 0
13804 -11844 0
-12824 -13804 11844 0
-12824 14784 0
-12824 16744 0
12824 -14784 -16744 0
-13804 15764 0
-13804 17724 0
13804 -15764 -17724 0
-841 924 -14784 0
841 14784 0
-924 14784 0
-1821 1904 -15764 0
1821 15764 0
-1904 15764 0
841 -924 -16744 0
-841 16744 0
924 16744 0
1821 -1904 -17724 0
-1821 17724 0
1904 17724 0
11985 -11845 0
12965 -11845 0
-11985 -12965 11845 0
-11985 13945 0
-11985 15905 0
11985 -13945 -15905 0
-12965 14925 0
-12965 16885 0
12965 -14925 -16885 0
-1 85 -13945 0
1 13945 0
-85 13945 0
-981 1065 -14925 0
981 14925 0
-1065 14925 0
1 -85 -15905 0
-1 15905 0
85 15905 0
981 -1065 -16885 0
-981 16885 0
1065 16885 0
12125 -11845 0
13105 -11845 0
-12125 -13105 11845 0
-12125 14085 0
-12125 16045 0
12125 -14085 -16045 0
-13105 15065 0
-13105 17025 0
13105 -15065 -17025 0
-141 225 -14085 0
141 14085 0
-225 14085 0
-1121 1205 -15065 0
1121 15065 0
-1205 15065 0
141 -225 -16045 0
-141 16045 0
225 16045 0
1121 -1205 -17025 0
-1121 17025 0
1205 17025 0
12265 -11845 0
13245 -11845 0
-12265 -13245 11845 0
-12265 14225 0
-12265 16185 0
12265 -14225 -16185 0
-13245 15205 0
-13245 17165 0
13245 -15205 -17165 0
-281 365 -14225 0
281 14225 0
-365 14225 0
-1261 1345 -15205 0
1261 15205 0
-1345 15205 0
281 -365 -16185 0
-281 16185 0
365 16185 0
1261 -1345 -17165 0
-1261 17165 0
1345 17165 0
12405 -11845 0
13385 -11845 0
-12405 -13385 11845 0
-12405 14365 0
-12405 16325 0
12405 -14365 -16325 0
-13385 15345 0
-13385 17305 0
13385 -15345 -17305 0
-421 505 -14365 0
421 14365 0
-505 14365 0
-1401 1485 -15345 0
1401 15345 0
-1485 15345 0
421 -505 -16325 0
-421 16325 0
505 16325 0
1401 -1485 -17305 0
-1401 17305 0
1485 17305 0
12545 -11845 0
13525 -11845 0
-12545 -13525 11845 0
-12545 14505 0
-12545 16465 0
12545 -14505 -16465 0
-13525 15485 0
-13525 17445 0
13525 -15485 -17445 0
-561 645 -14505 0
561 14505 0
-645 14505 0
-1541 1625 -15485 0
1541 15485 0
-1625 15485 0
561 -645 -16465 0
-561 16465 0
645 16465 0
1541 -1625 -17445 0
-1541 17445 0
1625 17445 0
12685 -11845 0
13665 -11845 0
-12685 -13665 11845 0
-12685 14645 0
-12685 16605 0
12685 -14645 -16605 0
-13665 15625 0
-13665 17585 0
13665 -15625 -17585 0
-701 785 -14645 0
701 14645 0
-785 14645 0
-1681 1765 -15625 0
1681 15625 0
-1765 15625 0
701 -785 -16605 0
-701 16605 0
785 16605 0
1681 -1765 -17585 0
-1681 17585 0
1765 17585 0
12825 -11845 0
13805 -11845 0
-12825 -13805 11845 0
-12825 14785 0
-12825 16745 0
12825 -14785 -16745 0
-13805 15765 0
-13805 17725 0
13805 -15765 -17725 0
-841 925 -14785 0
841 14785 0
-925 14785 0
-1821 1905 -15765 0
1821 15765 0
-1905 15765 0
841 -925 -16745 0
-841 16745 0
925 16745 0
1821 -1905 -17725 0
-1821 17725 0
1905 17725 0
11986 -11846 0
12966 -11846 0
-11986 -12966 11846 0
-11986 13946 0
-11986 15906 0
11986 -13946 -15906 0
-12966 14926 0
-12966 16886 0
12966 -14926 -16886 0
-1 86 -13946 0
1 13946 0
-86 13946 0
-981 1066 -14926 0
981 14926 0
-1066 14926 0
1 -86 -15906 0
-1 15906 0
86 15906 0
981 -1066 -16886 0
-981 16886 0
1066 16886 0
12126 -11846 0
13106 -11846 0
-12126 -13106 11846 0
-12126 14086 0
-12126 16046 0
12126 -14086 -16046 0
-13106 15066 0
-13106 17026 0
13106 -15066 -17026 0
-141 226 -14086 0
141 14086 0
-226 14086 0
-1121 1206 -15066 0
1121 15066 0
-1206 15066 0
141 -226 -16046 0
-141 16046 0
226 16046 0
1121 -1206 -17026 0
-1121 17026 0
1206 17026 0
12266 -11846 0
13246 -11846 0
-12266 -13246 11846 0
-12266 14226 0
-12266 16186 0
12266 -14226 -16186 0
-13246 15206 0
-13246 17166 0
13246 -15206 -17166 0
-281 366 -14226 0
281 14226 0
-366 14226 0
-1261 1346 -15206 0
1261 15206 0
-1346 15206 0
281 -366 -16186 0
-281 16186 0
366 16186 0
1261 -1346 -17166 0
-1261 17166 0
1346 17166 0
12406 -11846 0
13386 -11846 0
-12406 -13386 11846 0
-12406 14366 0
-12406 16326 0
12406 -14366 -16326 0
-13386 15346 0
-13386 17306 0
13386 -15346 -17306 0
-421 506 -14366 0
421 14366 0
-506 14366 0
-1401 1486 -15346 0
1401 15346 0
-1486 15346 0
421 -506 -16326 0
-421 16326 0
506 16326 0
1401 -1486 -17306 0
-1401 17306 0
1486 17306 0
12546 -11846 0
13526 -11846 0
-12546 -13526 11846 0
-12546 14506 0
-12546 16466 0
12546 -14506 -16466 0
-13526 15486 0
-13526 17446 0
13526 -15486 -17446 0
-561 646 -14506 0
561 14506 0
-646 14506 0
-1541 1626 -15486 0
1541 15486 0
-1626 15486 0
561 -646 -16466 0
-561 16466 0
646 16466 0
1541 -1626 -17446 0
-1541 17446 0
1626 17446 0
12686 -11846 0
13666 -11846 0
-12686 -13666 11846 0
-12686 14646 0
-12686 16606 0
12686 -14646 -16606 0
-13666 15626 0
-13666 17586 0
13666 -15626 -17586 0
-701 786 -14646 0
701 14646 0
-786 14646 0
-1681 1766 -15626 0
1681 15626 0
-1766 15626 0
701 -786 -16606 0
-701 16606 0
786 16606 0
1681 -1766 -17586 0
-1681 17586 0
1766 17586 0
12826 -11846 0
13806 -11846 0
-12826 -13806 11846 0
-12826 14786 0
-12826 16746 0
12826 -14786 -16746 0
-13806 15766 0
-13806 17726 0
13806 -15766 -17726 0
-841 926 -14786 0
841 14786 0
-926 14786 0
-1821 1906 -15766 0
1821 15766 0
-1906 15766 0
841 -926 -16746 0
-841 16746 0
926 16746 0
1821 -1906 -17726 0
-1821 17726 0
1906 17726 0
11987 -11847 0
12967 -11847 0
-11987 -12967 11847 0
-11987 13947 0
-11987 15907 0
11987 -13947 -15907 0
-12967 14927 0
-12967 16887 0
12967 -14927 -16887 0
-1 87 -13947 0
1 13947 0
-87 13947 0
-981 1067 -14927 0
981 14927 0
-1067 14927 0
1 -87 -15907 0
-1 15907 0
87 15907 0
981 -1067 -16887 0
-981 16887 0
1067 16887 0
12127 -11847 0
13107 -11847 0
-12127 -13107 11847 0
-12127 14087 0
-12127 16047 0
12127 -14087 -16047 0
-13107 15067 0
-13107 17027 0
13107 -15067 -17027 0
-141 227 -14087 0
141 14087 0
-227 14087 0
-1121 1207 -15067 0
1121 15067 0
-1207 15067 0
141 -227 -16047 0
-141 16047 0
227 16047 0
1121 -1207 -17027 0
-1121 17027 0
1207 17027 0
12267 -11847 0
13247 -11847 0
-12267 -13247 11847 0
-12267 14227 0
-12267 16187 0
12267 -14227 -16187 0
-13247 15207 0
-13247 17167 0
13247 -15207 -17167 0
-281 367 -14227 0
281 14227 0
-367 14227 0
-1261 1347 -15207 0
1261 15207 0
-1347 15207 0
281 -367 -16187 0
-281 16187 0
367 16187 0
1261 -1347 -17167 0
-1261 17167 0
1347 17167 0
12407 -11847 0
13387 -11847 0
-12407 -13387 11847 0
-12407 14367 0
-12407 16327 0
12407 -14367 -16327 0
-13387 15347 0
-13387 17307 0
13387 -15347 -17307 0
-421 507 -14367 0
421 14367 0
-507 14367 0
-1401 1487 -15347 0
1401 15347 0
-1487 15347 0
421 -507 -16327 0
-421 16327 0
507 16327 0
1401 -1487 -17307 0
-1401 17307 0
1487 17307 0
12547 -11847 0
13527 -11847 0
-12547 -13527 11847 0
-12547 14507 0
-12547 16467 0
12547 -14507 -16467 0
-13527 15487 0
-13527 17447 0
13527 -15487 -17447 0
-561 647 -14507 0
561 14507 0
-647 14507 0
-1541 1627 -15487 0
1541 15487 0
-1627 15487 0
561 -647 -16467 0
-561 16467 0
647 16467 0
1541 -1627 -17447 0
-1541 17447 0
1627 17447 0
12687 -11847 0
13667 -11847 0
-12687 -13667 11847 0
-12687 14647 0
-12687 16607 0
12687 -14647 -16607 0
-13667 15627 0
-13667 17587 0
13667 -15627 -17587 0
-701 787 -14647 0
701 14647 0
-787 14647 0
-1681 1767 -15627 0
1681 15627 0
-1767 15627 0
701 -787 -16607 0
-701 16607 0
787 16607 0
1681 -1767 -17587 0
-1681 17587 0
1767 17587 0
12827 -11847 0
13807 -11847 0
-12827 -13807 11847 0
-12827 14787 0
-12827 16747 0
12827 -14787 -16747 0
-13807 15767 0
-13807 17727 0
13807 -15767 -17727 0
-841 927 -14787 0
841 14787 0
-927 14787 0
-1821 1907 -15767 0
1821 15767 0
-1907 15767 0
841 -927 -16747 0
-841 16747 0
927 16747 0
1821 -1907 -17727 0
-1821 17727 0
1907 17727 0
11988 -11848 0
12968 -11848 0
-11988 -12968 11848 0
-11988 13948 0
-11988 15908 0
11988 -13948 -15908 0
-12968 14928 0
-12968 16888 0
12968 -14928 -16888 0
-1 88 -13948 0
1 13948 0
-88 13948 0
-981 1068 -14928 0
981 14928 0
-1068 14928 0
1 -88 -15908 0
-1 15908 0
88 15908 0
981 -1068 -16888 0
-981 16888 0
1068 16888 0
12128 -11848 0
13108 -11848 0
-12128 -13108 11848 0
-12128 14088 0
-12128 16048 0
12128 -14088 -16048 0
-13108 15068 0
-13108 17028 0
13108 -15068 -17028 0
-141 228 -14088 0
141 14088 0
-228 14088 0
-1121 1208 -15068 0
1121 15068 0
-1208 15068 0
141 -228 -16048 0
-141 16048 0
228 16048 0
1121 -1208 -17028 0
-1121 17028 0
1208 17028 0
12268 -11848 0
13248 -11848 0
-12268 -13248 11848 0
-12268 14228 0
-12268 16188 0
12268 -14228 -16188 0
-13248 15208 0
-13248 17168 0
13248 -15208 -17168 0
-281 368 -14228 0
281 14228 0
-368 14228 0
-1261 1348 -15208 0
1261 15208 0
-1348 15208 0
281 -368 -16188 0
-281 16188 0
368 16188 0
1261 -1348 -17168 0
-1261 17168 0
1348 17168 0
12408 -11848 0
13388 -11848 0
-12408 -13388 11848 0
-12408 14368 0
-12408 16328 0
12408 -14368 -16328 0
-13388 15348 0
-13388 17308 0
13388 -15348 -17308 0
-421 508 -14368 0
421 14368 0
-508 14368 0
-1401 1488 -15348 0
1401 15348 0
-1488 15348 0
421 -508 -16328 0
-421 16328 0
508 16328 0
1401 -1488 -17308 0
-1401 17308 0
1488 17308 0
12548 -11848 0
13528 -11848 0
-12548 -13528 11848 0
-12548 14508 0
-12548 16468 0
12548 -14508 -16468 0
-13528 15488 0
-13528 17448 0
13528 -15488 -17448 0
-561 648 -14508 0
561 14508 0
-648 14508 0
-1541 1628 -15488 0
1541 15488 0
-1628 15488 0
561 -648 -16468 0
-561 16468 0
648 16468 0
1541 -1628 -17448 0
-1541 17448 0
1628 17448 0
12688 -11848 0
13668 -11848 0
-12688 -13668 11848 0
-12688 14648 0
-12688 16608 0
12688 -14648 -16608 0
-13668 15628 0
-13668 17588 0
13668 -15628 -17588 0
-701 788 -14648 0
701 14648 0
-788 14648 0
-1681 1768 -15628 0
1681 15628 0
-1768 15628 0
701 -788 -16608 0
-701 16608 0
788 16608 0
1681 -1768 -17588 0
-1681 17588 0
1768 17588 0
12828 -11848 0
13808 -11848 0
-12828 -13808 11848 0
-12828 14788 0
-12828 16748 0
12828 -14788 -16748 0
-13808 15768 0
-13808 17728 0
13808 -15768 -17728 0
-841 928 -14788 0
841 14788 0
-928 14788 0
-1821 1908 -15768 0
1821 15768 0
-1908 15768 0
841 -928 -16748 0
-841 16748 0
928 16748 0
1821 -1908 -17728 0
-1821 17728 0
1908 17728 0
11989 -11849 0
12969 -11849 0
-11989 -12969 11849 0
-11989 13949 0
-11989 15909 0
11989 -13949 -15909 0
-12969 14929 0
-12969 16889 0
12969 -14929 -16889 0
-1 89 -13949 0
1 13949 0
-89 13949 0
-981 1069 -14929 0
981 14929 0
-1069 14929 0
1 -89 -15909 0
-1 15909 0
89 15909 0
981 -1069 -16889 0
-981 16889 0
1069 16889 0
12129 -11849 0
13109 -11849 0
-12129 -13109 11849 0
-12129 14089 0
-12129 16049 0
12129 -14089 -16049 0
-13109 15069 0
-13109 17029 0
13109 -15069 -17029 0
-141 229 -14089 0
141 14089 0
-229 14089 0
-1121 1209 -15069 0
1121 15069 0
-1209 15069 0
141 -229 -16049 0
-141 16049 0
229 16049 0
1121 -1209 -17029 0
-1121 17029 0
1209 17029 0
12269 -11849 0
13249 -11849 0
-12269 -13249 11849 0
-12269 14229 0
-12269 16189 0
12269 -14229 -16189 0
-13249 15209 0
-13249 17169 0
13249 -15209 -17169 0
-281 369 -14229 0
281 14229 0
-369 14229 0
-1261 1349 -15209 0
1261 15209 0
-1349 15209 0
281 -369 -16189 0
-281 16189 0
369 16189 0
1261 -1349 -17169 0
-1261 17169 0
1349 17169 0
12409 -11849 0
13389 -11849 0
-12409 -13389 11849 0
-12409 14369 0
-12409 16329 0
12409 -14369 -16329 0
-13389 15349 0
-13389 17309 0
13389 -15349 -17309 0
-421 509 -14369 0
421 14369 0
-509 14369 0
-1401 1489 -15349 0
1401 15349 0
-1489 15349 0
421 -509 -16329 0
-421 16329 0
509 16329 0
1401 -1489 -17309 0
-1401 17309 0
1489 17309 0
12549 -11849 0
13529 -11849 0
-12549 -13529 11849 0
-12549 14509 0
-12549 16469 0
12549 -14509 -16469 0
-13529 15489 0
-13529 17449 0
13529 -15489 -17449 0
-561 649 -14509 0
561 14509 0
-649 14509 0
-1541 1629 -15489 0
1541 15489 0
-1629 15489 0
561 -649 -16469 0
-561 16469 0
649 16469 0
1541 -1629 -17449 0
-1541 17449 0
1629 17449 0
12689 -11849 0
13669 -11849 0
-12689 -13669 11849 0
-12689 14649 0
-12689 16609 0
12689 -14649 -16609 0
-13669 15629 0
-13669 17589 0
13669 -15629 -17589 0
-701 789 -14649 0
701 14649 0
-789 14649 0
-1681 1769 -15629 0
1681 15629 0
-1769 15629 0
701 -789 -16609 0
-701 16609 0
789 16609 0
1681 -1769 -17589 0
-1681 17589 0
1769 17589 0
12829 -11849 0
13809 -11849 0
-12829 -13809 11849 0
-12829 14789 0
-12829 16749 0
12829 -14789 -16749 0
-13809 15769 0
-13809 17729 0
13809 -15769 -17729 0
-841 929 -14789 0
841 14789 0
-929 14789 0
-1821 1909 -15769 0
1821 15769 0
-1909 15769 0
841 -929 -16749 0
-841 16749 0
929 16749 0
1821 -1909 -17729 0
-1821 17729 0
1909 17729 0
11990 -11850 0
12970 -11850 0
-11990 -12970 11850 0
-11990 13950 0
-11990 15910 0
11990 -13950 -15910 0
-12970 14930 0
-12970 16890 0
12970 -14930 -16890 0
-1 90 -13950 0
1 13950 0
-90 13950 0
-981 1070 -14930 0
981 14930 0
-1070 14930 0
1 -90 -15910 0
-1 15910 0
90 15910 0
981 -1070 -16890 0
-981 16890 0
1070 16890 0
12130 -11850 0
13110 -11850 0
-12130 -13110 11850 0
-12130 14090 0
-12130 16050 0
12130 -14090 -16050 0
-13110 15070 0
-13110 17030 0
13110 -15070 -17030 0
-141 230 -14090 0
141 14090 0
-230 14090 0
-1121 1210 -15070 0
1121 15070 0
-1210 15070 0
141 -230 -16050 0
-141 16050 0
230 16050 0
1121 -1210 -17030 0
-1121 17030 0
1210 17030 0
12270 -11850 0
13250 -11850 0
-12270 -13250 11850 0
-12270 14230 0
-12270 16190 0
12270 -14230 -16190 0
-13250 15210 0
-13250 17170 0
13250 -15210 -17170 0
-281 370 -14230 0
281 14230 0
-370 14230 0
-1261 1350 -15210 0
1261 15210 0
-1350 15210 0
281 -370 -16190 0
-281 16190 0
370 16190 0
1261 -1350 -17170 0
-1261 17170 0
1350 17170 0
12410 -11850 0
13390 -11850 0
-12410 -13390 11850 0
-12410 14370 0
-12410 16330 0
12410 -14370 -16330 0
-13390 15350 0
-13390 17310 0
13390 -15350 -17310 0
-421 510 -14370 0
421 14370 0
-510 14370 0
-1401 1490 -15350 0
1401 15350 0
-1490 15350 0
421 -510 -16330 0
-421 16330 0
510 16330 0
1401 -1490 -17310 0
-1401 17310 0
1490 17310 0
12550 -11850 0
13530 -11850 0
-12550 -13530 11850 0
-12550 14510 0
-12550 16470 0
12550 -14510 -16470 0
-13530 15490 0
-13530 17450 0
13530 -15490 -17450 0
-561 650 -14510 0
561 14510 0
-650 14510 0
-1541 1630 -15490 0
1541 15490 0
-1630 15490 0
561 -650 -16470 0
-561 16470 0
650 16470 0
1541 -1630 -17450 0
-1541 17450 0
1630 17450 0
12690 -11850 0
13670 -11850 0
-12690 -13670 11850 0
-12690 14650 0
-12690 16610 0
12690 -14650 -16610 0
-13670 15630 0
-13670 17590 0
13670 -15630 -17590 0
-701 790 -14650 0
701 14650 0
-790 14650 0
-1681 1770 -15630 0
1681 15630 0
-1770 15630 0
701 -790 -16610 0
-701 16610 0
790 16610 0
1681 -1770 -17590 0
-1681 17590 0
1770 17590 0
12830 -11850 0
13810 -11850 0
-12830 -13810 11850 0
-12830 14790 0
-12830 16750 0
12830 -14790 -16750 0
-13810 15770 0
-13810 17730 0
13810 -15770 -17730 0
-841 930 -14790 0
841 14790 0
-930 14790 0
-1821 1910 -15770 0
1821 15770 0
-1910 15770 0
841 -930 -16750 0
-841 16750 0
930 16750 0
1821 -1910 -17730 0
-1821 17730 0
1910 17730 0
11991 -11851 0
12971 -11851 0
-11991 -12971 11851 0
-11991 13951 0
-11991 15911 0
11991 -13951 -15911 0
-12971 14931 0
-12971 16891 0
12971 -14931 -16891 0
-1 91 -13951 0
1 13951 0
-91 13951 0
-981 1071 -14931 0
981 14931 0
-1071 14931 0
1 -91 -15911 0
-1 15911 0
91 15911 0
981 -1071 -16891 0
-981 16891 0
1071 16891 0
12131 -11851 0
13111 -11851 0
-12131 -13111 11851 0
-12131 14091 0
-12131 16051 0
12131 -14091 -16051 0
-13111 15071 0
-13111 17031 0
13111 -15071 -17031 0
-141 231 -14091 0
141 14091 0
-231 14091 0
-1121 1211 -15071 0
1121 15071 0
-1211 15071 0
141 -231 -16051 0
-141 16051 0
231 16051 0
1121 -1211 -17031 0
-1121 17031 0
1211 17031 0
12271 -11851 0
13251 -11851 0
-12271 -13251 11851 0
-12271 14231 0
-12271 16191 0
12271 -14231 -16191 0
-13251 15211 0
-13251 17171 0
13251 -15211 -17171 0
-281 371 -14231 0
281 14231 0
-371 14231 0
-1261 1351 -15211 0
1261 15211 0
-1351 15211 0
281 -371 -16191 0
-281 16191 0
371 16191 0
1261 -1351 -17171 0
-1261 17171 0
1351 17171 0
12411 -11851 0
13391 -11851 0
-12411 -13391 11851 0
-12411 14371 0
-12411 16331 0
12411 -14371 -16331 0
-13391 15351 0
-13391 17311 0
13391 -15351 -17311 0
-421 511 -14371 0
421 14371 0
-511 14371 0
-1401 1491 -15351 0
1401 15351 0
-1491 15351 0
421 -511 -16331 0
-421 16331 0
511 16331 0
1401 -1491 -17311 0
-1401 17311 0
1491 17311 0
12551 -11851 0
13531 -11851 0
-12551 -13531 11851 0
-12551 14511 0
-12551 16471 0
12551 -14511 -16471 0
-13531 15491 0
-13531 17451 0
13531 -15491 -17451 0
-561 651 -14511 0
561 14511 0
-651 14511 0
-1541 1631 -15491 0
1541 15491 0
-1631 15491 0
561 -651 -16471 0
-561 16471 0
651 16471 0
1541 -1631 -17451 0
-1541 17451 0
1631 17451 0
12691 -11851 0
13671 -11851 0
-12691 -13671 11851 0
-12691 14651 0
-12691 16611 0
12691 -14651 -16611 0
-13671 15631 0
-13671 17591 0
13671 -15631 -17591 0
-701 791 -14651 0
701 14651 0
-791 14651 0
-1681 1771 -15631 0
1681 15631 0
-1771 15631 0
701 -791 -16611 0
-701 16611 0
791 16611 0
1681 -1771 -17591 0
-1681 17591 0
1771 17591 0
12831 -11851 0
13811 -11851 0
-12831 -13811 11851 0
-12831 14791 0
-12831 16751 0
12831 -14791 -16751 0
-13811 15771 0
-13811 17731 0
13811 -15771 -17731 0
-841 931 -14791 0
841 14791 0
-931 14791 0
-1821 1911 -15771 0
1821 15771 0
-1911 15771 0
841 -931 -16751 0
-841 16751 0
931 16751 0
1821 -1911 -17731 0
-1821 17731 0
1911 17731 0
11992 -11852 0
12972 -11852 0
-11992 -12972 11852 0
-11992 13952 0
-11992 15912 0
11992 -13952 -15912 0
-12972 14932 0
-12972 16892 0
12972 -14932 -16892 0
-1 92 -13952 0
1 13952 0
-92 13952 0
-981 1072 -14932 0
981 14932 0
-1072 14932 0
1 -92 -15912 0
-1 15912 0
92 15912 0
981 -1072 -16892 0
-981 16892 0
1072 16892 0
12132 -11852 0
13112 -11852 0
-12132 -13112 11852 0
-12132 14092 0
-12132 16052 0
12132 -14092 -16052 0
-13112 15072 0
-13112 17032 0
13112 -15072 -17032 0
-141 232 -14092 0
141 14092 0
-232 14092 0
-1121 1212 -15072 0
1121 15072 0
-1212 15072 0
141 -232 -16052 0
-141 16052 0
232 16052 0
1121 -1212 -17032 0
-1121 17032 0
1212 17032 0
12272 -11852 0
13252 -11852 0
-12272 -13252 11852 0
-12272 14232 0
-12272 16192 0
12272 -14232 -16192 0
-13252 15212 0
-13252 17172 0
13252 -15212 -17172 0
-281 372 -14232 0
281 14232 0
-372 14232 0
-1261 1352 -15212 0
1261 15212 0
-1352 15212 0
281 -372 -16192 0
-281 16192 0
372 16192 0
1261 -1352 -17172 0
-1261 17172 0
1352 17172 0
12412 -11852 0
13392 -11852 0
-12412 -13392 11852 0
-12412 14372 0
-12412 16332 0
12412 -14372 -16332 0
-13392 15352 0
-13392 17312 0
13392 -15352 -17312 0
-421 512 -14372 0
421 14372 0
-512 14372 0
-1401 1492 -15352 0
1401 15352 0
-1492 15352 0
421 -512 -16332 0
-421 16332 0
512 16332 0
1401 -1492 -17312 0
-1401 17312 0
1492 17312 0
12552 -11852 0
13532 -11852 0
-12552 -13532 11852 0
-12552 14512 0
-12552 16472 0
12552 -14512 -16472 0
-13532 15492 0
-13532 17452 0
13532 -15492 -17452 0
-561 652 -14512 0
561 14512 0
-652 14512 0
-1541 1632 -15492 0
1541 15492 0
-1632 15492 0
561 -652 -16472 0
-561 16472 0
652 16472 0
1541 -1632 -17452 0
-1541 17452 0
1632 17452 0
12692 -11852 0
13672 -11852 0
-12692 -13672 11852 0
-12692 14652 0
-12692 16612 0
12692 -14652 -16612 0
-13672 15632 0
-13672 17592 0
13672 -15632 -17592 0
-701 792 -14652 0
701 14652 0
-792 14652 0
-1681 1772 -15632 0
1681 15632 0
-1772 15632 0
701 -792 -16612 0
-701 16612 0
792 16612 0
1681 -1772 -17592 0
-1681 17592 0
1772 17592 0
12832 -11852 0
13812 -11852 0
-12832 -13812 11852 0
-12832 14792 0
-12832 16752 0
12832 -14792 -16752 0
-13812 15772 0
-13812 17732 0
13812 -15772 -17732 0
-841 932 -14792 0
841 14792 0
-932 14792 0
-1821 1912 -15772 0
1821 15772 0
-1912 15772 0
841 -932 -16752 0
-841 16752 0
932 16752 0
1821 -1912 -17732 0
-1821 17732 0
1912 17732 0
11993 -11853 0
12973 -11853 0
-11993 -12973 11853 0
-11993 13953 0
-11993 15913 0
11993 -13953 -15913 0
-12973 14933 0
-12973 16893 0
12973 -14933 -16893 0
-1 93 -13953 0
1 13953 0
-93 13953 0
-981 1073 -14933 0
981 14933 0
-1073 14933 0
1 -93 -15913 0
-1 15913 0
93 15913 0
981 -1073 -16893 0
-981 16893 0
1073 16893 0
12133 -11853 0
13113 -11853 0
-12133 -13113 11853 0
-12133 14093 0
-12133 16053 0
12133 -14093 -16053 0
-13113 15073 0
-13113 17033 0
13113 -15073 -17033 0
-141 233 -14093 0
141 14093 0
-233 14093 0
-1121 1213 -15073 0
1121 15073 0
-1213 15073 0
141 -233 -16053 0
-141 16053 0
233 16053 0
1121 -1213 -17033 0
-1121 17033 0
1213 17033 0
12273 -11853 0
13253 -11853 0
-12273 -13253 11853 0
-12273 14233 0
-12273 16193 0
12273 -14233 -16193 0
-13253 15213 0
-13253 17173 0
13253 -15213 -17173 0
-281 373 -14233 0
281 14233 0
-373 14233 0
-1261 1353 -15213 0
1261 15213 0
-1353 15213 0
281 -373 -16193 0
-281 16193 0
373 16193 0
1261 -1353 -17173 0
-1261 17173 0
1353 17173 0
12413 -11853 0
13393 -11853 0
-12413 -13393 11853 0
-12413 14373 0
-12413 16333 0
12413 -14373 -16333 0
-13393 15353 0
-13393 17313 0
13393 -15353 -17313 0
-421 513 -14373 0
421 14373 0
-513 14373 0
-1401 1493 -15353 0
1401 15353 0
-1493 15353 0
421 -513 -16333 0
-421 16333 0
513 16333 0
1401 -1493 -17313 0
-1401 17313 0
1493 17313 0
12553 -11853 0
13533 -11853 0
-12553 -13533 11853 0
-12553 14513 0
-12553 16473 0
12553 -14513 -16473 0
-13533 15493 0
-13533 17453 0
13533 -15493 -17453 0
-561 653 -14513 0
561 14513 0
-653 14513 0
-1541 1633 -15493 0
1541 15493 0
-1633 15493 0
561 -653 -16473 0
-561 16473 0
653 16473 0
1541 -1633 -17453 0
-1541 17453 0
1633 17453 0
12693 -11853 0
13673 -11853 0
-12693 -13673 11853 0
-12693 14653 0
-12693 16613 0
12693 -14653 -16613 0
-13673 15633 0
-13673 17593 0
13673 -15633 -17593 0
-701 793 -14653 0
701 14653 0
-793 14653 0
-1681 1773 -15633 0
1681 15633 0
-1773 15633 0
701 -793 -16613 0
-701 16613 0
793 16613 0
1681 -1773 -17593 0
-1681 17593 0
1773 17593 0
12833 -11853 0
13813 -11853 0
-12833 -13813 11853 0
-12833 14793 0
-12833 16753 0
12833 -14793 -16753 0
-13813 15773 0
-13813 17733 0
13813 -15773 -17733 0
-841 933 -14793 0
841 14793 0
-933 14793 0
-1821 1913 -15773 0
1821 15773 0
-1913 15773 0
841 -933 -16753 0
-841 16753 0
933 16753 0
1821 -1913 -17733 0
-1821 17733 0
1913 17733 0
11994 -11854 0
12974 -11854 0
-11994 -12974 11854 0
-11994 13954 0
-11994 15914 0
11994 -13954 -15914 0
-12974 14934 0
-12974 16894 0
12974 -14934 -16894 0
-1 94 -13954 0
1 13954 0
-94 13954 0
-981 1074 -14934 0
981 14934 0
-1074 14934 0
1 -94 -15914 0
-1 15914 0
94 15914 0
981 -1074 -16894 0
-981 16894 0
1074 16894 0
12134 -11854 0
13114 -11854 0
-12134 -13114 11854 0
-12134 14094 0
-12134 16054 0
12134 -14094 -16054 0
-13114 15074 0
-13114 17034 0
13114 -15074 -17034 0
-141 234 -14094 0
141 14094 0
-234 14094 0
-1121 1214 -15074 0
1121 15074 0
-1214 15074 0
141 -234 -16054 0
-141 16054 0
234 16054 0
1121 -1214 -17034 0
-1121 17034 0
1214 17034 0
12274 -11854 0
13254 -11854 0
-12274 -13254 11854 0
-12274 14234 0
-12274 16194 0
12274 -14234 -16194 0
-13254 15214 0
-13254 17174 0
13254 -15214 -17174 0
-281 374 -14234 0
281 14234 0
-374 14234 0
-1261 1354 -15214 0
1261 15214 0
-1354 15214 0
281 -374 -16194 0
-281 16194 0
374 16194 0
1261 -1354 -17174 0
-1261 17174 0
1354 17174 0
12414 -11854 0
13394 -11854 0
-12414 -13394 11854 0
-12414 14374 0
-12414 16334 0
12414 -14374 -16334 0
-13394 15354 0
-13394 17314 0
13394 -15354 -17314 0
-421 514 -14374 0
421 14374 0
-514 14374 0
-1401 1494 -15354 0
1401 15354 0
-1494 15354 0
421 -514 -16334 0
-421 16334 0
514 16334 0
1401 -1494 -17314 0
-1401 17314 0
1494 17314 0
12554 -11854 0
13534 -11854 0
-12554 -13534 11854 0
-12554 14514 0
-12554 16474 0
12554 -14514 -16474 0
-13534 15494 0
-13534 17454 0
13534 -15494 -17454 0
-561 654 -14514 0
561 14514 0
-654 14514 0
-1541 1634 -15494 0
1541 15494 0
-1634 15494 0
561 -654 -16474 0
-561 16474 0
654 16474 0
1541 -1634 -17454 0
-1541 17454 0
1634 17454 0
12694 -11854 0
13674 -11854 0
-12694 -13674 11854 0
-12694 14654 0
-12694 16614 0
12694 -14654 -16614 0
-13674 15634 0
-13674 17594 0
13674 -15634 -17594 0
-701 794 -14654 0
701 14654 0
-794 14654 0
-1681 1774 -15634 0
1681 15634 0
-1774 15634 0
701 -794 -16614 0
-701 16614 0
794 16614 0
1681 -1774 -17594 0
-1681 17594 0
1774 17594 0
12834 -11854 0
13814 -11854 0
-12834 -13814 11854 0
-12834 14794 0
-12834 16754 0
12834 -14794 -16754 0
-13814 15774 0
-13814 17734 0
13814 -15774 -17734 0
-841 934 -14794 0
841 14794 0
-934 14794 0
-1821 1914 -15774 0
1821 15774 0
-1914 15774 0
841 -934 -16754 0
-841 16754 0
934 16754 0
1821 -1914 -17734 0
-1821 17734 0
1914 17734 0
11995 -11855 0
12975 -11855 0
-11995 -12975 11855 0
-11995 13955 0
-11995 15915 0
11995 -13955 -15915 0
-12975 14935 0
-12975 16895 0
12975 -14935 -16895 0
-1 95 -13955 0
1 13955 0
-95 13955 0
-981 1075 -14935 0
981 14935 0
-1075 14935 0
1 -95 -15915 0
-1 15915 0
95 15915 0
981 -1075 -16895 0
-981 16895 0
1075 16895 0
12135 -11855 0
13115 -11855 0
-12135 -13115 11855 0
-12135 14095 0
-12135 16055 0
12135 -14095 -16055 0
-13115 15075 0
-13115 17035 0
13115 -15075 -17035 0
-141 235 -14095 0
141 14095 0
-235 14095 0
-1121 1215 -15075 0
1121 15075 0
-1215 15075 0
141 -235 -16055 0
-141 16055 0
235 16055 0
1121 -1215 -17035 0
-1121 17035 0
1215 17035 0
12275 -11855 0
13255 -11855 0
-12275 -13255 11855 0
-12275 14235 0
-12275 16195 0
12275 -14235 -16195 0
-13255 15215 0
-13255 17175 0
13255 -15215 -17175 0
-281 375 -14235 0
281 14235 0
-375 14235 0
-1261 1355 -15215 0
1261 15215 0
-1355 15215 0
281 -375 -16195 0
-281 16195 0
375 16195 0
1261 -1355 -17175 0
-1261 17175 0
1355 17175 0
12415 -11855 0
13395 -11855 0
-12415 -13395 11855 0
-12415 14375 0
-12415 16335 0
12415 -14375 -16335 0
-13395 15355 0
-13395 17315 0
13395 -15355 -17315 0
-421 515 -14375 0
421 14375 0
-515 14375 0
-1401 1495 -15355 0
1401 15355 0
-1495 15355 0
421 -515 -16335 0
-421 16335 0
515 16335 0
1401 -1495 -17315 0
-1401 17315 0
1495 17315 0
12555 -11855 0
13535 -11855 0
-12555 -13535 11855 0
-12555 14515 0
-12555 16475 0
12555 -14515 -16475 0
-13535 15495 0
-13535 17455 0
13535 -15495 -17455 0
-561 655 -14515 0
561 14515 0
-655 14515 0
-1541 1635 -15495 0
1541 15495 0
-1635 15495 0
561 -655 -16475 0
-561 16475 0
655 16475 0
1541 -1635 -17455 0
-1541 17455 0
1635 17455 0
12695 -11855 0
13675 -11855 0
-12695 -13675 11855 0
-12695 14655 0
-12695 16615 0
12695 -14655 -16615 0
-13675 15635 0
-13675 17595 0
13675 -15635 -17595 0
-701 795 -14655 0
701 14655 0
-795 14655 0
-1681 1775 -15635 0
1681 15635 0
-1775 15635 0
701 -795 -16615 0
-701 16615 0
795 16615 0
1681 -1775 -17595 0
-1681 17595 0
1775 17595 0
12835 -11855 0
13815 -11855 0
-12835 -13815 11855 0
-12835 14795 0
-12835 16755 0
12835 -14795 -16755 0
-13815 15775 0
-13815 17735 0
13815 -15775 -17735 0
-841 935 -14795 0
841 14795 0
-935 14795 0
-1821 1915 -15775 0
1821 15775 0
-1915 15775 0
841 -935 -16755 0
-841 16755 0
935 16755 0
1821 -1915 -17735 0
-1821 17735 0
1915 17735 0
11996 -11856 0
12976 -11856 0
-11996 -12976 11856 0
-11996 13956 0
-11996 15916 0
11996 -13956 -15916 0
-12976 14936 0
-12976 16896 0
12976 -14936 -16896 0
-1 96 -13956 0
1 13956 0
-96 13956 0
-981 1076 -14936 0
981 14936 0
-1076 14936 0
1 -96 -15916 0
-1 15916 0
96 15916 0
981 -1076 -16896 0
-981 16896 0
1076 16896 0
12136 -11856 0
13116 -11856 0
-12136 -13116 11856 0
-12136 14096 0
-12136 16056 0
12136 -14096 -16056 0
-13116 15076 0
-13116 17036 0
13116 -15076 -17036 0
-141 236 -14096 0
141 14096 0
-236 14096 0
-1121 1216 -15076 0
1121 15076 0
-1216 15076 0
141 -236 -16056 0
-141 16056 0
236 16056 0
1121 -1216 -17036 0
-1121 17036 0
1216 17036 0
12276 -11856 0
13256 -11856 0
-12276 -13256 11856 0
-12276 14236 0
-12276 16196 0
12276 -14236 -16196 0
-13256 15216 0
-13256 17176 0
13256 -15216 -17176 0
-281 376 -14236 0
281 14236 0
-376 14236 0
-1261 1356 -15216 0
1261 15216 0
-1356 15216 0
281 -376 -16196 0
-281 16196 0
376 16196 0
1261 -1356 -17176 0
-1261 17176 0
1356 17176 0
12416 -11856 0
13396 -11856 0
-12416 -13396 11856 0
-12416 14376 0
-12416 16336 0
12416 -14376 -16336 0
-13396 15356 0
-13396 17316 0
13396 -15356 -17316 0
-421 516 -14376 0
421 14376 0
-516 14376 0
-1401 1496 -15356 0
1401 15356 0
-1496 15356 0
421 -516 -16336 0
-421 16336 0
516 16336 0
1401 -1496 -17316 0
-1401 17316 0
1496 17316 0
12556 -11856 0
13536 -11856 0
-12556 -13536 11856 0
-12556 14516 0
-12556 16476 0
12556 -14516 -16476 0
-13536 15496 0
-13536 17456 0
13536 -15496 -17456 0
-561 656 -14516 0
561 14516 0
-656 14516 0
-1541 1636 -15496 0
1541 15496 0
-1636 15496 0
561 -656 -16476 0
-561 16476 0
656 16476 0
1541 -1636 -17456 0
-1541 17456 0
1636 17456 0
12696 -11856 0
13676 -11856 0
-12696 -13676 11856 0
-12696 14656 0
-12696 16616 0
12696 -14656 -16616 0
-13676 15636 0
-13676 17596 0
13676 -15636 -17596 0
-701 796 -14656 0
701 14656 0
-796 14656 0
-1681 1776 -15636 0
1681 15636 0
-1776 15636 0
701 -796 -16616 0
-701 16616 0
796 16616 0
1681 -1776 -17596 0
-1681 17596 0
1776 17596 0
12836 -11856 0
13816 -11856 0
-12836 -13816 11856 0
-12836 14796 0
-12836 16756 0
12836 -14796 -16756 0
-13816 15776 0
-13816 17736 0
13816 -15776 -17736 0
-841 936 -14796 0
841 14796 0
-936 14796 0
-1821 1916 -15776 0
1821 15776 0
-1916 15776 0
841 -936 -16756 0
-841 16756 0
936 16756 0
1821 -1916 -17736 0
-1821 17736 0
1916 17736 0
11997 -11857 0
12977 -11857 0
-11997 -12977 11857 0
-11997 13957 0
-11997 15917 0
11997 -13957 -15917 0
-12977 14937 0
-12977 16897 0
12977 -14937 -16897 0
-1 97 -13957 0
1 13957 0
-97 13957 0
-981 1077 -14937 0
981 14937 0
-1077 14937 0
1 -97 -15917 0
-1 15917 0
97 15917 0
981 -1077 -16897 0
-981 16897 0
1077 16897 0
12137 -11857 0
13117 -11857 0
-12137 -13117 11857 0
-12137 14097 0
-12137 16057 0
12137 -14097 -16057 0
-13117 15077 0
-13117 17037 0
13117 -15077 -17037 0
-141 237 -14097 0
141 14097 0
-237 14097 0
-1121 1217 -15077 0
1121 15077 0
-1217 15077 0
141 -237 -16057 0
-141 16057 0
237 16057 0
1121 -1217 -17037 0
-1121 17037 0
1217 17037 0
12277 -11857 0
13257 -11857 0
-12277 -13257 11857 0
-12277 14237 0
-12277 16197 0
12277 -14237 -16197 0
-13257 15217 0
-13257 17177 0
13257 -15217 -17177 0
-281 377 -14237 0
281 14237 0
-377 14237 0
-1261 1357 -15217 0
1261 15217 0
-1357 15217 0
281 -377 -16197 0
-281 16197 0
377 16197 0
1261 -1357 -17177 0
-1261 17177 0
1357 17177 0
12417 -11857 0
13397 -11857 0
-12417 -13397 11857 0
-12417 14377 0
-12417 16337 0
12417 -14377 -16337 0
-13397 15357 0
-13397 17317 0
13397 -15357 -17317 0
-421 517 -14377 0
421 14377 0
-517 14377 0
-1401 1497 -15357 0
1401 15357 0
-1497 15357 0
421 -517 -16337 0
-421 16337 0
517 16337 0
1401 -1497 -17317 0
-1401 17317 0
1497 17317 0
12557 -11857 0
13537 -11857 0
-12557 -13537 11857 0
-12557 14517 0
-12557 16477 0
12557 -14517 -16477 0
-13537 15497 0
-13537 17457 0
13537 -15497 -17457 0
-561 657 -14517 0
561 14517 0
-657 14517 0
-1541 1637 -15497 0
1541 15497 0
-1637 15497 0
561 -657 -16477 0
-561 16477 0
657 16477 0
1541 -1637 -17457 0
-1541 17457 0
1637 17457 0
12697 -11857 0
13677 -11857 0
-12697 -13677 11857 0
-12697 14657 0
-12697 16617 0
12697 -14657 -16617 0
-13677 15637 0
-13677 17597 0
13677 -15637 -17597 0
-701 797 -14657 0
701 14657 0
-797 14657 0
-1681 1777 -15637 0
1681 15637 0
-1777 15637 0
701 -797 -16617 0
-701 16617 0
797 16617 0
1681 -1777 -17597 0
-1681 17597 0
1777 17597 0
12837 -11857 0
13817 -11857 0
-12837 -13817 11857 0
-12837 14797 0
-12837 16757 0
12837 -14797 -16757 0
-13817 15777 0
-13817 17737 0
13817 -15777 -17737 0
-841 937 -14797 0
841 14797 0
-937 14797 0
-1821 1917 -15777 0
1821 15777 0
-1917 15777 0
841 -937 -16757 0
-841 16757 0
937 16757 0
1821 -1917 -17737 0
-1821 17737 0
1917 17737 0
11998 -11858 0
12978 -11858 0
-11998 -12978 11858 0
-11998 13958 0
-11998 15918 0
11998 -13958 -15918 0
-12978 14938 0
-12978 16898 0
12978 -14938 -16898 0
-1 98 -13958 0
1 13958 0
-98 13958 0
-981 1078 -14938 0
981 14938 0
-1078 14938 0
1 -98 -15918 0
-1 15918 0
98 15918 0
981 -1078 -16898 0
-981 16898 0
1078 16898 0
12138 -11858 0
13118 -11858 0
-12138 -13118 11858 0
-12138 14098 0
-12138 16058 0
12138 -14098 -16058 0
-13118 15078 0
-13118 17038 0
13118 -15078 -17038 0
-141 238 -14098 0
141 14098 0
-238 14098 0
-1121 1218 -15078 0
1121 15078 0
-1218 15078 0
141 -238 -16058 0
-141 16058 0
238 16058 0
1121 -1218 -17038 0
-1121 17038 0
1218 17038 0
12278 -11858 0
13258 -11858 0
-12278 -13258 11858 0
-12278 14238 0
-12278 16198 0
12278 -14238 -16198 0
-13258 15218 0
-13258 17178 0
13258 -15218 -17178 0
-281 378 -14238 0
281 14238 0
-378 14238 0
-1261 1358 -15218 0
1261 15218 0
-1358 15218 0
281 -378 -16198 0
-281 16198 0
378 16198 0
1261 -1358 -17178 0
-1261 17178 0
1358 17178 0
12418 -11858 0
13398 -11858 0
-12418 -13398 11858 0
-12418 14378 0
-12418 16338 0
12418 -14378 -16338 0
-13398 15358 0
-13398 17318 0
13398 -15358 -17318 0
-421 518 -14378 0
421 14378 0
-518 14378 0
-1401 1498 -15358 0
1401 15358 0
-1498 15358 0
421 -518 -16338 0
-421 16338 0
518 16338 0
1401 -1498 -17318 0
-1401 17318 0
1498 17318 0
12558 -11858 0
13538 -11858 0
-12558 -13538 11858 0
-12558 14518 0
-12558 16478 0
12558 -14518 -16478 0
-13538 15498 0
-13538 17458 0
13538 -15498 -17458 0
-561 658 -14518 0
561 14518 0
-658 14518 0
-1541 1638 -15498 0
1541 15498 0
-1638 15498 0
561 -658 -16478 0
-561 16478 0
658 16478 0
1541 -1638 -17458 0
-1541 17458 0
1638 17458 0
12698 -11858 0
13678 -11858 0
-12698 -13678 11858 0
-12698 14658 0
-12698 16618 0
12698 -14658 -16618 0
-13678 15638 0
-13678 17598 0
13678 -15638 -17598 0
-701 798 -14658 0
701 14658 0
-798 14658 0
-1681 1778 -15638 0
1681 15638 0
-1778 15638 0
701 -798 -16618 0
-701 16618 0
798 16618 0
1681 -1778 -17598 0
-1681 17598 0
1778 17598 0
12838 -11858 0
13818 -11858 0
-12838 -13818 11858 0
-12838 14798 0
-12838 16758 0
12838 -14798 -16758 0
-13818 15778 0
-13818 17738 0
13818 -15778 -17738 0
-841 938 -14798 0
841 14798 0
-938 14798 0
-1821 1918 -15778 0
1821 15778 0
-1918 15778 0
841 -938 -16758 0
-841 16758 0
938 16758 0
1821 -1918 -17738 0
-1821 17738 0
1918 17738 0
11999 -11859 0
12979 -11859 0
-11999 -12979 11859 0
-11999 13959 0
-11999 15919 0
11999 -13959 -15919 0
-12979 14939 0
-12979 16899 0
12979 -14939 -16899 0
-1 99 -13959 0
1 13959 0
-99 13959 0
-981 1079 -14939 0
981 14939 0
-1079 14939 0
1 -99 -15919 0
-1 15919 0
99 15919 0
981 -1079 -16899 0
-981 16899 0
1079 16899 0
12139 -11859 0
13119 -11859 0
-12139 -13119 11859 0
-12139 14099 0
-12139 16059 0
12139 -14099 -16059 0
-13119 15079 0
-13119 17039 0
13119 -15079 -17039 0
-141 239 -14099 0
141 14099 0
-239 14099 0
-1121 1219 -15079 0
1121 15079 0
-1219 15079 0
141 -239 -16059 0
-141 16059 0
239 16059 0
1121 -1219 -17039 0
-1121 17039 0
1219 17039 0
12279 -11859 0
13259 -11859 0
-12279 -13259 11859 0
-12279 14239 0
-12279 16199 0
12279 -14239 -16199 0
-13259 15219 0
-13259 17179 0
13259 -15219 -17179 0
-281 379 -14239 0
281 14239 0
-379 14239 0
-1261 1359 -15219 0
1261 15219 0
-1359 15219 0
281 -379 -16199 0
-281 16199 0
379 16199 0
1261 -1359 -17179 0
-1261 17179 0
1359 17179 0
12419 -11859 0
13399 -11859 0
-12419 -13399 11859 0
-12419 14379 0
-12419 16339 0
12419 -14379 -16339 0
-13399 15359 0
-13399 17319 0
13399 -15359 -17319 0
-421 519 -14379 0
421 14379 0
-519 14379 0
-1401 1499 -15359 0
1401 15359 0
-1499 15359 0
421 -519 -16339 0
-421 16339 0
519 16339 0
1401 -1499 -17319 0
-1401 17319 0
1499 17319 0
12559 -11859 0
13539 -11859 0
-12559 -13539 11859 0
-12559 14519 0
-12559 16479 0
12559 -14519 -16479 0
-13539 15499 0
-13539 17459 0
13539 -15499 -17459 0
-561 659 -14519 0
561 14519 0
-659 14519 0
-1541 1639 -15499 0
1541 15499 0
-1639 15499 0
561 -659 -16479 0
-561 16479 0
659 16479 0
1541 -1639 -17459 0
-1541 17459 0
1639 17459 0
12699 -11859 0
13679 -11859 0
-12699 -13679 11859 0
-12699 14659 0
-12699 16619 0
12699 -14659 -16619 0
-13679 15639 0
-13679 17599 0
13679 -15639 -17599 0
-701 799 -14659 0
701 14659 0
-799 14659 0
-1681 1779 -15639 0
1681 15639 0
-1779 15639 0
701 -799 -16619 0
-701 16619 0
799 16619 0
1681 -1779 -17599 0
-1681 17599 0
1779 17599 0
12839 -11859 0
13819 -11859 0
-12839 -13819 11859 0
-12839 14799 0
-12839 16759 0
12839 -14799 -16759 0
-13819 15779 0
-13819 17739 0
13819 -15779 -17739 0
-841 939 -14799 0
841 14799 0
-939 14799 0
-1821 1919 -15779 0
1821 15779 0
-1919 15779 0
841 -939 -16759 0
-841 16759 0
939 16759 0
1821 -1919 -17739 0
-1821 17739 0
1919 17739 0
12000 -11860 0
12980 -11860 0
-12000 -12980 11860 0
-12000 13960 0
-12000 15920 0
12000 -13960 -15920 0
-12980 14940 0
-12980 16900 0
12980 -14940 -16900 0
-1 100 -13960 0
1 13960 0
-100 13960 0
-981 1080 -14940 0
981 14940 0
-1080 14940 0
1 -100 -15920 0
-1 15920 0
100 15920 0
981 -1080 -16900 0
-981 16900 0
1080 16900 0
12140 -11860 0
13120 -11860 0
-12140 -13120 11860 0
-12140 14100 0
-12140 16060 0
12140 -14100 -16060 0
-13120 15080 0
-13120 17040 0
13120 -15080 -17040 0
-141 240 -14100 0
141 14100 0
-240 14100 0
-1121 1220 -15080 0
1121 15080 0
-1220 15080 0
141 -240 -16060 0
-141 16060 0
240 16060 0
1121 -1220 -17040 0
-1121 17040 0
1220 17040 0
12280 -11860 0
13260 -11860 0
-12280 -13260 11860 0
-12280 14240 0
-12280 16200 0
12280 -14240 -16200 0
-13260 15220 0
-13260 17180 0
13260 -15220 -17180 0
-281 380 -14240 0
281 14240 0
-380 14240 0
-1261 1360 -15220 0
1261 15220 0
-1360 15220 0
281 -380 -16200 0
-281 16200 0
380 16200 0
1261 -1360 -17180 0
-1261 17180 0
1360 17180 0
12420 -11860 0
13400 -11860 0
-12420 -13400 11860 0
-12420 14380 0
-12420 16340 0
12420 -14380 -16340 0
-13400 15360 0
-13400 17320 0
13400 -15360 -17320 0
-421 520 -14380 0
421 14380 0
-520 14380 0
-1401 1500 -15360 0
1401 15360 0
-1500 15360 0
421 -520 -16340 0
-421 16340 0
520 16340 0
1401 -1500 -17320 0
-1401 17320 0
1500 17320 0
12560 -11860 0
13540 -11860 0
-12560 -13540 11860 0
-12560 14520 0
-12560 16480 0
12560 -14520 -16480 0
-13540 15500 0
-13540 17460 0
13540 -15500 -17460 0
-561 660 -14520 0
561 14520 0
-660 14520 0
-1541 1640 -15500 0
1541 15500 0
-1640 15500 0
561 -660 -16480 0
-561 16480 0
660 16480 0
1541 -1640 -17460 0
-1541 17460 0
1640 17460 0
12700 -11860 0
13680 -11860 0
-12700 -13680 11860 0
-12700 14660 0
-12700 16620 0
12700 -14660 -16620 0
-13680 15640 0
-13680 17600 0
13680 -15640 -17600 0
-701 800 -14660 0
701 14660 0
-800 14660 0
-1681 1780 -15640 0
1681 15640 0
-1780 15640 0
701 -800 -16620 0
-701 16620 0
800 16620 0
1681 -1780 -17600 0
-1681 17600 0
1780 17600 0
12840 -11860 0
13820 -11860 0
-12840 -13820 11860 0
-12840 14800 0
-12840 16760 0
12840 -14800 -16760 0
-13820 15780 0
-13820 17740 0
13820 -15780 -17740 0
-841 940 -14800 0
841 14800 0
-940 14800 0
-1821 1920 -15780 0
1821 15780 0
-1920 15780 0
841 -940 -16760 0
-841 16760 0
940 16760 0
1821 -1920 -17740 0
-1821 17740 0
1920 17740 0
12001 -11861 0
12981 -11861 0
-12001 -12981 11861 0
-12001 13961 0
-12001 15921 0
12001 -13961 -15921 0
-12981 14941 0
-12981 16901 0
12981 -14941 -16901 0
-1 101 -13961 0
1 13961 0
-101 13961 0
-981 1081 -14941 0
981 14941 0
-1081 14941 0
1 -101 -15921 0
-1 15921 0
101 15921 0
981 -1081 -16901 0
-981 16901 0
1081 16901 0
12141 -11861 0
13121 -11861 0
-12141 -13121 11861 0
-12141 14101 0
-12141 16061 0
12141 -14101 -16061 0
-13121 15081 0
-13121 17041 0
13121 -15081 -17041 0
-141 241 -14101 0
141 14101 0
-241 14101 0
-1121 1221 -15081 0
1121 15081 0
-1221 15081 0
141 -241 -16061 0
-141 16061 0
241 16061 0
1121 -1221 -17041 0
-1121 17041 0
1221 17041 0
12281 -11861 0
13261 -11861 0
-12281 -13261 11861 0
-12281 14241 0
-12281 16201 0
12281 -14241 -16201 0
-13261 15221 0
-13261 17181 0
13261 -15221 -17181 0
-281 381 -14241 0
281 14241 0
-381 14241 0
-1261 1361 -15221 0
1261 15221 0
-1361 15221 0
281 -381 -16201 0
-281 16201 0
381 16201 0
1261 -1361 -17181 0
-1261 17181 0
1361 17181 0
12421 -11861 0
13401 -11861 0
-12421 -13401 11861 0
-12421 14381 0
-12421 16341 0
12421 -14381 -16341 0
-13401 15361 0
-13401 17321 0
13401 -15361 -17321 0
-421 521 -14381 0
421 14381 0
-521 14381 0
-1401 1501 -15361 0
1401 15361 0
-1501 15361 0
421 -521 -16341 0
-421 16341 0
521 16341 0
1401 -1501 -17321 0
-1401 17321 0
1501 17321 0
12561 -11861 0
13541 -11861 0
-12561 -13541 11861 0
-12561 14521 0
-12561 16481 0
12561 -14521 -16481 0
-13541 15501 0
-13541 17461 0
13541 -15501 -17461 0
-561 661 -14521 0
561 14521 0
-661 14521 0
-1541 1641 -15501 0
1541 15501 0
-1641 15501 0
561 -661 -16481 0
-561 16481 0
661 16481 0
1541 -1641 -17461 0
-1541 17461 0
1641 17461 0
12701 -11861 0
13681 -11861 0
-12701 -13681 11861 0
-12701 14661 0
-12701 16621 0
12701 -14661 -16621 0
-13681 15641 0
-13681 17601 0
13681 -15641 -17601 0
-701 801 -14661 0
701 14661 0
-801 14661 0
-1681 1781 -15641 0
1681 15641 0
-1781 15641 0
701 -801 -16621 0
-701 16621 0
801 16621 0
1681 -1781 -17601 0
-1681 17601 0
1781 17601 0
12841 -11861 0
13821 -11861 0
-12841 -13821 11861 0
-12841 14801 0
-12841 16761 0
12841 -14801 -16761 0
-13821 15781 0
-13821 17741 0
13821 -15781 -17741 0
-841 941 -14801 0
841 14801 0
-941 14801 0
-1821 1921 -15781 0
1821 15781 0
-1921 15781 0
841 -941 -16761 0
-841 16761 0
941 16761 0
1821 -1921 -17741 0
-1821 17741 0
1921 17741 0
12002 -11862 0
12982 -11862 0
-12002 -12982 11862 0
-12002 13962 0
-12002 15922 0
12002 -13962 -15922 0
-12982 14942 0
-12982 16902 0
12982 -14942 -16902 0
-1 102 -13962 0
1 13962 0
-102 13962 0
-981 1082 -14942 0
981 14942 0
-1082 14942 0
1 -102 -15922 0
-1 15922 0
102 15922 0
981 -1082 -16902 0
-981 16902 0
1082 16902 0
12142 -11862 0
13122 -11862 0
-12142 -13122 11862 0
-12142 14102 0
-12142 16062 0
12142 -14102 -16062 0
-13122 15082 0
-13122 17042 0
13122 -15082 -17042 0
-141 242 -14102 0
141 14102 0
-242 14102 0
-1121 1222 -15082 0
1121 15082 0
-1222 15082 0
141 -242 -16062 0
-141 16062 0
242 16062 0
1121 -1222 -17042 0
-1121 17042 0
1222 17042 0
12282 -11862 0
13262 -11862 0
-12282 -13262 11862 0
-12282 14242 0
-12282 16202 0
12282 -14242 -16202 0
-13262 15222 0
-13262 17182 0
13262 -15222 -17182 0
-281 382 -14242 0
281 14242 0
-382 14242 0
-1261 1362 -15222 0
1261 15222 0
-1362 15222 0
281 -382 -16202 0
-281 16202 0
382 16202 0
1261 -1362 -17182 0
-1261 17182 0
1362 17182 0
12422 -11862 0
13402 -11862 0
-12422 -13402 11862 0
-12422 14382 0
-12422 16342 0
12422 -14382 -16342 0
-13402 15362 0
-13402 17322 0
13402 -15362 -17322 0
-421 522 -14382 0
421 14382 0
-522 14382 0
-1401 1502 -15362 0
1401 15362 0
-1502 15362 0
421 -522 -16342 0
-421 16342 0
522 16342 0
1401 -1502 -17322 0
-1401 17322 0
1502 17322 0
12562 -11862 0
13542 -11862 0
-12562 -13542 11862 0
-12562 14522 0
-12562 16482 0
12562 -14522 -16482 0
-13542 15502 0
-13542 17462 0
13542 -15502 -17462 0
-561 662 -14522 0
561 14522 0
-662 14522 0
-1541 1642 -15502 0
1541 15502 0
-1642 15502 0
561 -662 -16482 0
-561 16482 0
662 16482 0
1541 -1642 -17462 0
-1541 17462 0
1642 17462 0
12702 -11862 0
13682 -11862 0
-12702 -13682 11862 0
-12702 14662 0
-12702 16622 0
12702 -14662 -16622 0
-13682 15642 0
-13682 17602 0
13682 -15642 -17602 0
-701 802 -14662 0
701 14662 0
-802 14662 0
-1681 1782 -15642 0
1681 15642 0
-1782 15642 0
701 -802 -16622 0
-701 16622 0
802 16622 0
1681 -1782 -17602 0
-1681 17602 0
1782 17602 0
12842 -11862 0
13822 -11862 0
-12842 -13822 11862 0
-12842 14802 0
-12842 16762 0
12842 -14802 -16762 0
-13822 15782 0
-13822 17742 0
13822 -15782 -17742 0
-841 942 -14802 0
841 14802 0
-942 14802 0
-1821 1922 -15782 0
1821 15782 0
-1922 15782 0
841 -942 -16762 0
-841 16762 0
942 16762 0
1821 -1922 -17742 0
-1821 17742 0
1922 17742 0
12003 -11863 0
12983 -11863 0
-12003 -12983 11863 0
-12003 13963 0
-12003 15923 0
12003 -13963 -15923 0
-12983 14943 0
-12983 16903 0
12983 -14943 -16903 0
-1 103 -13963 0
1 13963 0
-103 13963 0
-981 1083 -14943 0
981 14943 0
-1083 14943 0
1 -103 -15923 0
-1 15923 0
103 15923 0
981 -1083 -16903 0
-981 16903 0
1083 16903 0
12143 -11863 0
13123 -11863 0
-12143 -13123 11863 0
-12143 14103 0
-12143 16063 0
12143 -14103 -16063 0
-13123 15083 0
-13123 17043 0
13123 -15083 -17043 0
-141 243 -14103 0
141 14103 0
-243 14103 0
-1121 1223 -15083 0
1121 15083 0
-1223 15083 0
141 -243 -16063 0
-141 16063 0
243 16063 0
1121 -1223 -17043 0
-1121 17043 0
1223 17043 0
12283 -11863 0
13263 -11863 0
-12283 -13263 11863 0
-12283 14243 0
-12283 16203 0
12283 -14243 -16203 0
-13263 15223 0
-13263 17183 0
13263 -15223 -17183 0
-281 383 -14243 0
281 14243 0
-383 14243 0
-1261 1363 -15223 0
1261 15223 0
-1363 15223 0
281 -383 -16203 0
-281 16203 0
383 16203 0
1261 -1363 -17183 0
-1261 17183 0
1363 17183 0
12423 -11863 0
13403 -11863 0
-12423 -13403 11863 0
-12423 14383 0
-12423 16343 0
12423 -14383 -16343 0
-13403 15363 0
-13403 17323 0
13403 -15363 -17323 0
-421 523 -14383 0
421 14383 0
-523 14383 0
-1401 1503 -15363 0
1401 15363 0
-1503 15363 0
421 -523 -16343 0
-421 16343 0
523 16343 0
1401 -1503 -17323 0
-1401 17323 0
1503 17323 0
12563 -11863 0
13543 -11863 0
-12563 -13543 11863 0
-12563 14523 0
-12563 16483 0
12563 -14523 -16483 0
-13543 15503 0
-13543 17463 0
13543 -15503 -17463 0
-561 663 -14523 0
561 14523 0
-663 14523 0
-1541 1643 -15503 0
1541 15503 0
-1643 15503 0
561 -663 -16483 0
-561 16483 0
663 16483 0
1541 -1643 -17463 0
-1541 17463 0
1643 17463 0
12703 -11863 0
13683 -11863 0
-12703 -13683 11863 0
-12703 14663 0
-12703 16623 0
12703 -14663 -16623 0
-13683 15643 0
-13683 17603 0
13683 -15643 -17603 0
-701 803 -14663 0
701 14663 0
-803 14663 0
-1681 1783 -15643 0
1681 15643 0
-1783 15643 0
701 -803 -16623 0
-701 16623 0
803 16623 0
1681 -1783 -17603 0
-1681 17603 0
1783 17603 0
12843 -11863 0
13823 -11863 0
-12843 -13823 11863 0
-12843 14803 0
-12843 16763 0
12843 -14803 -16763 0
-13823 15783 0
-13823 17743 0
13823 -15783 -17743 0
-841 943 -14803 0
841 14803 0
-943 14803 0
-1821 1923 -15783 0
1821 15783 0
-1923 15783 0
841 -943 -16763 0
-841 16763 0
943 16763 0
1821 -1923 -17743 0
-1821 17743 0
1923 17743 0
12004 -11864 0
12984 -11864 0
-12004 -12984 11864 0
-12004 13964 0
-12004 15924 0
12004 -13964 -15924 0
-12984 14944 0
-12984 16904 0
12984 -14944 -16904 0
-1 104 -13964 0
1 13964 0
-104 13964 0
-981 1084 -14944 0
981 14944 0
-1084 14944 0
1 -104 -15924 0
-1 15924 0
104 15924 0
981 -1084 -16904 0
-981 16904 0
1084 16904 0
12144 -11864 0
13124 -11864 0
-12144 -13124 11864 0
-12144 14104 0
-12144 16064 0
12144 -14104 -16064 0
-13124 15084 0
-13124 17044 0
13124 -15084 -17044 0
-141 244 -14104 0
141 14104 0
-244 14104 0
-1121 1224 -15084 0
1121 15084 0
-1224 15084 0
141 -244 -16064 0
-141 16064 0
244 16064 0
1121 -1224 -17044 0
-1121 17044 0
1224 17044 0
12284 -11864 0
13264 -11864 0
-12284 -13264 11864 0
-12284 14244 0
-12284 16204 0
12284 -14244 -16204 0
-13264 15224 0
-13264 17184 0
13264 -15224 -17184 0
-281 384 -14244 0
281 14244 0
-384 14244 0
-1261 1364 -15224 0
1261 15224 0
-1364 15224 0
281 -384 -16204 0
-281 16204 0
384 16204 0
1261 -1364 -17184 0
-1261 17184 0
1364 17184 0
12424 -11864 0
13404 -11864 0
-12424 -13404 11864 0
-12424 14384 0
-12424 16344 0
12424 -14384 -16344 0
-13404 15364 0
-13404 17324 0
13404 -15364 -17324 0
-421 524 -14384 0
421 14384 0
-524 14384 0
-1401 1504 -15364 0
1401 15364 0
-1504 15364 0
421 -524 -16344 0
-421 16344 0
524 16344 0
1401 -1504 -17324 0
-1401 17324 0
1504 17324 0
12564 -11864 0
13544 -11864 0
-12564 -13544 11864 0
-12564 14524 0
-12564 16484 0
12564 -14524 -16484 0
-13544 15504 0
-13544 17464 0
13544 -15504 -17464 0
-561 664 -14524 0
561 14524 0
-664 14524 0
-1541 1644 -15504 0
1541 15504 0
-1644 15504 0
561 -664 -16484 0
-561 16484 0
664 16484 0
1541 -1644 -17464 0
-1541 17464 0
1644 17464 0
12704 -11864 0
13684 -11864 0
-12704 -13684 11864 0
-12704 14664 0
-12704 16624 0
12704 -14664 -16624 0
-13684 15644 0
-13684 17604 0
13684 -15644 -17604 0
-701 804 -14664 0
701 14664 0
-804 14664 0
-1681 1784 -15644 0
1681 15644 0
-1784 15644 0
701 -804 -16624 0
-701 16624 0
804 16624 0
1681 -1784 -17604 0
-1681 17604 0
1784 17604 0
12844 -11864 0
13824 -11864 0
-12844 -13824 11864 0
-12844 14804 0
-12844 16764 0
12844 -14804 -16764 0
-13824 15784 0
-13824 17744 0
13824 -15784 -17744 0
-841 944 -14804 0
841 14804 0
-944 14804 0
-1821 1924 -15784 0
1821 15784 0
-1924 15784 0
841 -944 -16764 0
-841 16764 0
944 16764 0
1821 -1924 -17744 0
-1821 17744 0
1924 17744 0
12005 -11865 0
12985 -11865 0
-12005 -12985 11865 0
-12005 13965 0
-12005 15925 0
12005 -13965 -15925 0
-12985 14945 0
-12985 16905 0
12985 -14945 -16905 0
-1 105 -13965 0
1 13965 0
-105 13965 0
-981 1085 -14945 0
981 14945 0
-1085 14945 0
1 -105 -15925 0
-1 15925 0
105 15925 0
981 -1085 -16905 0
-981 16905 0
1085 16905 0
12145 -11865 0
13125 -11865 0
-12145 -13125 11865 0
-12145 14105 0
-12145 16065 0
12145 -14105 -16065 0
-13125 15085 0
-13125 17045 0
13125 -15085 -17045 0
-141 245 -14105 0
141 14105 0
-245 14105 0
-1121 1225 -15085 0
1121 15085 0
-1225 15085 0
141 -245 -16065 0
-141 16065 0
245 16065 0
1121 -1225 -17045 0
-1121 17045 0
1225 17045 0
12285 -11865 0
13265 -11865 0
-12285 -13265 11865 0
-12285 14245 0
-12285 16205 0
12285 -14245 -16205 0
-13265 15225 0
-13265 17185 0
13265 -15225 -17185 0
-281 385 -14245 0
281 14245 0
-385 14245 0
-1261 1365 -15225 0
1261 15225 0
-1365 15225 0
281 -385 -16205 0
-281 16205 0
385 16205 0
1261 -1365 -17185 0
-1261 17185 0
1365 17185 0
12425 -11865 0
13405 -11865 0
-12425 -13405 11865 0
-12425 14385 0
-12425 16345 0
12425 -14385 -16345 0
-13405 15365 0
-13405 17325 0
13405 -15365 -17325 0
-421 525 -14385 0
421 14385 0
-525 14385 0
-1401 1505 -15365 0
1401 15365 0
-1505 15365 0
421 -525 -16345 0
-421 16345 0
525 16345 0
1401 -1505 -17325 0
-1401 17325 0
1505 17325 0
12565 -11865 0
13545 -11865 0
-12565 -13545 11865 0
-12565 14525 0
-12565 16485 0
12565 -14525 -16485 0
-13545 15505 0
-13545 17465 0
13545 -15505 -17465 0
-561 665 -14525 0
561 14525 0
-665 14525 0
-1541 1645 -15505 0
1541 15505 0
-1645 15505 0
561 -665 -16485 0
-561 16485 0
665 16485 0
1541 -1645 -17465 0
-1541 17465 0
1645 17465 0
12705 -11865 0
13685 -11865 0
-12705 -13685 11865 0
-12705 14665 0
-12705 16625 0
12705 -14665 -16625 0
-13685 15645 0
-13685 17605 0
13685 -15645 -17605 0
-701 805 -14665 0
701 14665 0
-805 14665 0
-1681 1785 -15645 0
1681 15645 0
-1785 15645 0
701 -805 -16625 0
-701 16625 0
805 16625 0
1681 -1785 -17605 0
-1681 17605 0
1785 17605 0
12845 -11865 0
13825 -11865 0
-12845 -13825 11865 0
-12845 14805 0
-12845 16765 0
12845 -14805 -16765 0
-13825 15785 0
-13825 17745 0
13825 -15785 -17745 0
-841 945 -14805 0
841 14805 0
-945 14805 0
-1821 1925 -15785 0
1821 15785 0
-1925 15785 0
841 -945 -16765 0
-841 16765 0
945 16765 0
1821 -1925 -17745 0
-1821 17745 0
1925 17745 0
12006 -11866 0
12986 -11866 0
-12006 -12986 11866 0
-12006 13966 0
-12006 15926 0
12006 -13966 -15926 0
-12986 14946 0
-12986 16906 0
12986 -14946 -16906 0
-1 106 -13966 0
1 13966 0
-106 13966 0
-981 1086 -14946 0
981 14946 0
-1086 14946 0
1 -106 -15926 0
-1 15926 0
106 15926 0
981 -1086 -16906 0
-981 16906 0
1086 16906 0
12146 -11866 0
13126 -11866 0
-12146 -13126 11866 0
-12146 14106 0
-12146 16066 0
12146 -14106 -16066 0
-13126 15086 0
-13126 17046 0
13126 -15086 -17046 0
-141 246 -14106 0
141 14106 0
-246 14106 0
-1121 1226 -15086 0
1121 15086 0
-1226 15086 0
141 -246 -16066 0
-141 16066 0
246 16066 0
1121 -1226 -17046 0
-1121 17046 0
1226 17046 0
12286 -11866 0
13266 -11866 0
-12286 -13266 11866 0
-12286 14246 0
-12286 16206 0
12286 -14246 -16206 0
-13266 15226 0
-13266 17186 0
13266 -15226 -17186 0
-281 386 -14246 0
281 14246 0
-386 14246 0
-1261 1366 -15226 0
1261 15226 0
-1366 15226 0
281 -386 -16206 0
-281 16206 0
386 16206 0
1261 -1366 -17186 0
-1261 17186 0
1366 17186 0
12426 -11866 0
13406 -11866 0
-12426 -13406 11866 0
-12426 14386 0
-12426 16346 0
12426 -14386 -16346 0
-13406 15366 0
-13406 17326 0
13406 -15366 -17326 0
-421 526 -14386 0
421 14386 0
-526 14386 0
-1401 1506 -15366 0
1401 15366 0
-1506 15366 0
421 -526 -16346 0
-421 16346 0
526 16346 0
1401 -1506 -17326 0
-1401 17326 0
1506 17326 0
12566 -11866 0
13546 -11866 0
-12566 -13546 11866 0
-12566 14526 0
-12566 16486 0
12566 -14526 -16486 0
-13546 15506 0
-13546 17466 0
13546 -15506 -17466 0
-561 666 -14526 0
561 14526 0
-666 14526 0
-1541 1646 -15506 0
1541 15506 0
-1646 15506 0
561 -666 -16486 0
-561 16486 0
666 16486 0
1541 -1646 -17466 0
-1541 17466 0
1646 17466 0
12706 -11866 0
13686 -11866 0
-12706 -13686 11866 0
-12706 14666 0
-12706 16626 0
12706 -14666 -16626 0
-13686 15646 0
-13686 17606 0
13686 -15646 -17606 0
-701 806 -14666 0
701 14666 0
-806 14666 0
-1681 1786 -15646 0
1681 15646 0
-1786 15646 0
701 -806 -16626 0
-701 16626 0
806 16626 0
1681 -1786 -17606 0
-1681 17606 0
1786 17606 0
12846 -11866 0
13826 -11866 0
-12846 -13826 11866 0
-12846 14806 0
-12846 16766 0
12846 -14806 -16766 0
-13826 15786 0
-13826 17746 0
13826 -15786 -17746 0
-841 946 -14806 0
841 14806 0
-946 14806 0
-1821 1926 -15786 0
1821 15786 0
-1926 15786 0
841 -946 -16766 0
-841 16766 0
946 16766 0
1821 -1926 -17746 0
-1821 17746 0
1926 17746 0
12007 -11867 0
12987 -11867 0
-12007 -12987 11867 0
-12007 13967 0
-12007 15927 0
12007 -13967 -15927 0
-12987 14947 0
-12987 16907 0
12987 -14947 -16907 0
-1 107 -13967 0
1 13967 0
-107 13967 0
-981 1087 -14947 0
981 14947 0
-1087 14947 0
1 -107 -15927 0
-1 15927 0
107 15927 0
981 -1087 -16907 0
-981 16907 0
1087 16907 0
12147 -11867 0
13127 -11867 0
-12147 -13127 11867 0
-12147 14107 0
-12147 16067 0
12147 -14107 -16067 0
-13127 15087 0
-13127 17047 0
13127 -15087 -17047 0
-141 247 -14107 0
141 14107 0
-247 14107 0
-1121 1227 -15087 0
1121 15087 0
-1227 15087 0
141 -247 -16067 0
-141 16067 0
247 16067 0
1121 -1227 -17047 0
-1121 17047 0
1227 17047 0
12287 -11867 0
13267 -11867 0
-12287 -13267 11867 0
-12287 14247 0
-12287 16207 0
12287 -14247 -16207 0
-13267 15227 0
-13267 17187 0
13267 -15227 -17187 0
-281 387 -14247 0
281 14247 0
-387 14247 0
-1261 1367 -15227 0
1261 15227 0
-1367 15227 0
281 -387 -16207 0
-281 16207 0
387 16207 0
1261 -1367 -17187 0
-1261 17187 0
1367 17187 0
12427 -11867 0
13407 -11867 0
-12427 -13407 11867 0
-12427 14387 0
-12427 16347 0
12427 -14387 -16347 0
-13407 15367 0
-13407 17327 0
13407 -15367 -17327 0
-421 527 -14387 0
421 14387 0
-527 14387 0
-1401 1507 -15367 0
1401 15367 0
-1507 15367 0
421 -527 -16347 0
-421 16347 0
527 16347 0
1401 -1507 -17327 0
-1401 17327 0
1507 17327 0
12567 -11867 0
13547 -11867 0
-12567 -13547 11867 0
-12567 14527 0
-12567 16487 0
12567 -14527 -16487 0
-13547 15507 0
-13547 17467 0
13547 -15507 -17467 0
-561 667 -14527 0
561 14527 0
-667 14527 0
-1541 1647 -15507 0
1541 15507 0
-1647 15507 0
561 -667 -16487 0
-561 16487 0
667 16487 0
1541 -1647 -17467 0
-1541 17467 0
1647 17467 0
12707 -11867 0
13687 -11867 0
-12707 -13687 11867 0
-12707 14667 0
-12707 16627 0
12707 -14667 -16627 0
-13687 15647 0
-13687 17607 0
13687 -15647 -17607 0
-701 807 -14667 0
701 14667 0
-807 14667 0
-1681 1787 -15647 0
1681 15647 0
-1787 15647 0
701 -807 -16627 0
-701 16627 0
807 16627 0
1681 -1787 -17607 0
-1681 17607 0
1787 17607 0
12847 -11867 0
13827 -11867 0
-12847 -13827 11867 0
-12847 14807 0
-12847 16767 0
12847 -14807 -16767 0
-13827 15787 0
-13827 17747 0
13827 -15787 -17747 0
-841 947 -14807 0
841 14807 0
-947 14807 0
-1821 1927 -15787 0
1821 15787 0
-1927 15787 0
841 -947 -16767 0
-841 16767 0
947 16767 0
1821 -1927 -17747 0
-1821 17747 0
1927 17747 0
12008 -11868 0
12988 -11868 0
-12008 -12988 11868 0
-12008 13968 0
-12008 15928 0
12008 -13968 -15928 0
-12988 14948 0
-12988 16908 0
12988 -14948 -16908 0
-1 108 -13968 0
1 13968 0
-108 13968 0
-981 1088 -14948 0
981 14948 0
-1088 14948 0
1 -108 -15928 0
-1 15928 0
108 15928 0
981 -1088 -16908 0
-981 16908 0
1088 16908 0
12148 -11868 0
13128 -11868 0
-12148 -13128 11868 0
-12148 14108 0
-12148 16068 0
12148 -14108 -16068 0
-13128 15088 0
-13128 17048 0
13128 -15088 -17048 0
-141 248 -14108 0
141 14108 0
-248 14108 0
-1121 1228 -15088 0
1121 15088 0
-1228 15088 0
141 -248 -16068 0
-141 16068 0
248 16068 0
1121 -1228 -17048 0
-1121 17048 0
1228 17048 0
12288 -11868 0
13268 -11868 0
-12288 -13268 11868 0
-12288 14248 0
-12288 16208 0
12288 -14248 -16208 0
-13268 15228 0
-13268 17188 0
13268 -15228 -17188 0
-281 388 -14248 0
281 14248 0
-388 14248 0
-1261 1368 -15228 0
1261 15228 0
-1368 15228 0
281 -388 -16208 0
-281 16208 0
388 16208 0
1261 -1368 -17188 0
-1261 17188 0
1368 17188 0
12428 -11868 0
13408 -11868 0
-12428 -13408 11868 0
-12428 14388 0
-12428 16348 0
12428 -14388 -16348 0
-13408 15368 0
-13408 17328 0
13408 -15368 -17328 0
-421 528 -14388 0
421 14388 0
-528 14388 0
-1401 1508 -15368 0
1401 15368 0
-1508 15368 0
421 -528 -16348 0
-421 16348 0
528 16348 0
1401 -1508 -17328 0
-1401 17328 0
1508 17328 0
12568 -11868 0
13548 -11868 0
-12568 -13548 11868 0
-12568 14528 0
-12568 16488 0
12568 -14528 -16488 0
-13548 15508 0
-13548 17468 0
13548 -15508 -17468 0
-561 668 -14528 0
561 14528 0
-668 14528 0
-1541 1648 -15508 0
1541 15508 0
-1648 15508 0
561 -668 -16488 0
-561 16488 0
668 16488 0
1541 -1648 -17468 0
-1541 17468 0
1648 17468 0
12708 -11868 0
13688 -11868 0
-12708 -13688 11868 0
-12708 14668 0
-12708 16628 0
12708 -14668 -16628 0
-13688 15648 0
-13688 17608 0
13688 -15648 -17608 0
-701 808 -14668 0
701 14668 0
-808 14668 0
-1681 1788 -15648 0
1681 15648 0
-1788 15648 0
701 -808 -16628 0
-701 16628 0
808 16628 0
1681 -1788 -17608 0
-1681 17608 0
1788 17608 0
12848 -11868 0
13828 -11868 0
-12848 -13828 11868 0
-12848 14808 0
-12848 16768 0
12848 -14808 -16768 0
-13828 15788 0
-13828 17748 0
13828 -15788 -17748 0
-841 948 -14808 0
841 14808 0
-948 14808 0
-1821 1928 -15788 0
1821 15788 0
-1928 15788 0
841 -948 -16768 0
-841 16768 0
948 16768 0
1821 -1928 -17748 0
-1821 17748 0
1928 17748 0
12009 -11869 0
12989 -11869 0
-12009 -12989 11869 0
-12009 13969 0
-12009 15929 0
12009 -13969 -15929 0
-12989 14949 0
-12989 16909 0
12989 -14949 -16909 0
-1 109 -13969 0
1 13969 0
-109 13969 0
-981 1089 -14949 0
981 14949 0
-1089 14949 0
1 -109 -15929 0
-1 15929 0
109 15929 0
981 -1089 -16909 0
-981 16909 0
1089 16909 0
12149 -11869 0
13129 -11869 0
-12149 -13129 11869 0
-12149 14109 0
-12149 16069 0
12149 -14109 -16069 0
-13129 15089 0
-13129 17049 0
13129 -15089 -17049 0
-141 249 -14109 0
141 14109 0
-249 14109 0
-1121 1229 -15089 0
1121 15089 0
-1229 15089 0
141 -249 -16069 0
-141 16069 0
249 16069 0
1121 -1229 -17049 0
-1121 17049 0
1229 17049 0
12289 -11869 0
13269 -11869 0
-12289 -13269 11869 0
-12289 14249 0
-12289 16209 0
12289 -14249 -16209 0
-13269 15229 0
-13269 17189 0
13269 -15229 -17189 0
-281 389 -14249 0
281 14249 0
-389 14249 0
-1261 1369 -15229 0
1261 15229 0
-1369 15229 0
281 -389 -16209 0
-281 16209 0
389 16209 0
1261 -1369 -17189 0
-1261 17189 0
1369 17189 0
12429 -11869 0
13409 -11869 0
-12429 -13409 11869 0
-12429 14389 0
-12429 16349 0
12429 -14389 -16349 0
-13409 15369 0
-13409 17329 0
13409 -15369 -17329 0
-421 529 -14389 0
421 14389 0
-529 14389 0
-1401 1509 -15369 0
1401 15369 0
-1509 15369 0
421 -529 -16349 0
-421 16349 0
529 16349 0
1401 -1509 -17329 0
-1401 17329 0
1509 17329 0
12569 -11869 0
13549 -11869 0
-12569 -13549 11869 0
-12569 14529 0
-12569 16489 0
12569 -14529 -16489 0
-13549 15509 0
-13549 17469 0
13549 -15509 -17469 0
-561 669 -14529 0
561 14529 0
-669 14529 0
-1541 1649 -15509 0
1541 15509 0
-1649 15509 0
561 -669 -16489 0
-561 16489 0
669 16489 0
1541 -1649 -17469 0
-1541 17469 0
1649 17469 0
12709 -11869 0
13689 -11869 0
-12709 -13689 11869 0
-12709 14669 0
-12709 16629 0
12709 -14669 -16629 0
-13689 15649 0
-13689 17609 0
13689 -15649 -17609 0
-701 809 -14669 0
701 14669 0
-809 14669 0
-1681 1789 -15649 0
1681 15649 0
-1789 15649 0
701 -809 -16629 0
-701 16629 0
809 16629 0
1681 -1789 -17609 0
-1681 17609 0
1789 17609 0
12849 -11869 0
13829 -11869 0
-12849 -13829 11869 0
-12849 14809 0
-12849 16769 0
12849 -14809 -16769 0
-13829 15789 0
-13829 17749 0
13829 -15789 -17749 0
-841 949 -14809 0
841 14809 0
-949 14809 0
-1821 1929 -15789 0
1821 15789 0
-1929 15789 0
841 -949 -16769 0
-841 16769 0
949 16769 0
1821 -1929 -17749 0
-1821 17749 0
1929 17749 0
12010 -11870 0
12990 -11870 0
-12010 -12990 11870 0
-12010 13970 0
-12010 15930 0
12010 -13970 -15930 0
-12990 14950 0
-12990 16910 0
12990 -14950 -16910 0
-1 110 -13970 0
1 13970 0
-110 13970 0
-981 1090 -14950 0
981 14950 0
-1090 14950 0
1 -110 -15930 0
-1 15930 0
110 15930 0
981 -1090 -16910 0
-981 16910 0
1090 16910 0
12150 -11870 0
13130 -11870 0
-12150 -13130 11870 0
-12150 14110 0
-12150 16070 0
12150 -14110 -16070 0
-13130 15090 0
-13130 17050 0
13130 -15090 -17050 0
-141 250 -14110 0
141 14110 0
-250 14110 0
-1121 1230 -15090 0
1121 15090 0
-1230 15090 0
141 -250 -16070 0
-141 16070 0
250 16070 0
1121 -1230 -17050 0
-1121 17050 0
1230 17050 0
12290 -11870 0
13270 -11870 0
-12290 -13270 11870 0
-12290 14250 0
-12290 16210 0
12290 -14250 -16210 0
-13270 15230 0
-13270 17190 0
13270 -15230 -17190 0
-281 390 -14250 0
281 14250 0
-390 14250 0
-1261 1370 -15230 0
1261 15230 0
-1370 15230 0
281 -390 -16210 0
-281 16210 0
390 16210 0
1261 -1370 -17190 0
-1261 17190 0
1370 17190 0
12430 -11870 0
13410 -11870 0
-12430 -13410 11870 0
-12430 14390 0
-12430 16350 0
12430 -14390 -16350 0
-13410 15370 0
-13410 17330 0
13410 -15370 -17330 0
-421 530 -14390 0
421 14390 0
-530 14390 0
-1401 1510 -15370 0
1401 15370 0
-1510 15370 0
421 -530 -16350 0
-421 16350 0
530 16350 0
1401 -1510 -17330 0
-1401 17330 0
1510 17330 0
12570 -11870 0
13550 -11870 0
-12570 -13550 11870 0
-12570 14530 0
-12570 16490 0
12570 -14530 -16490 0
-13550 15510 0
-13550 17470 0
13550 -15510 -17470 0
-561 670 -14530 0
561 14530 0
-670 14530 0
-1541 1650 -15510 0
1541 15510 0
-1650 15510 0
561 -670 -16490 0
-561 16490 0
670 16490 0
1541 -1650 -17470 0
-1541 17470 0
1650 17470 0
12710 -11870 0
13690 -11870 0
-12710 -13690 11870 0
-12710 14670 0
-12710 16630 0
12710 -14670 -16630 0
-13690 15650 0
-13690 17610 0
13690 -15650 -17610 0
-701 810 -14670 0
701 14670 0
-810 14670 0
-1681 1790 -15650 0
1681 15650 0
-1790 15650 0
701 -810 -16630 0
-701 16630 0
810 16630 0
1681 -1790 -17610 0
-1681 17610 0
1790 17610 0
12850 -11870 0
13830 -11870 0
-12850 -13830 11870 0
-12850 14810 0
-12850 16770 0
12850 -14810 -16770 0
-13830 15790 0
-13830 17750 0
13830 -15790 -17750 0
-841 950 -14810 0
841 14810 0
-950 14810 0
-1821 1930 -15790 0
1821 15790 0
-1930 15790 0
841 -950 -16770 0
-841 16770 0
950 16770 0
1821 -1930 -17750 0
-1821 17750 0
1930 17750 0
12011 -11871 0
12991 -11871 0
-12011 -12991 11871 0
-12011 13971 0
-12011 15931 0
12011 -13971 -15931 0
-12991 14951 0
-12991 16911 0
12991 -14951 -16911 0
-1 111 -13971 0
1 13971 0
-111 13971 0
-981 1091 -14951 0
981 14951 0
-1091 14951 0
1 -111 -15931 0
-1 15931 0
111 15931 0
981 -1091 -16911 0
-981 16911 0
1091 16911 0
12151 -11871 0
13131 -11871 0
-12151 -13131 11871 0
-12151 14111 0
-12151 16071 0
12151 -14111 -16071 0
-13131 15091 0
-13131 17051 0
13131 -15091 -17051 0
-141 251 -14111 0
141 14111 0
-251 14111 0
-1121 1231 -15091 0
1121 15091 0
-1231 15091 0
141 -251 -16071 0
-141 16071 0
251 16071 0
1121 -1231 -17051 0
-1121 17051 0
1231 17051 0
12291 -11871 0
13271 -11871 0
-12291 -13271 11871 0
-12291 14251 0
-12291 16211 0
12291 -14251 -16211 0
-13271 15231 0
-13271 17191 0
13271 -15231 -17191 0
-281 391 -14251 0
281 14251 0
-391 14251 0
-1261 1371 -15231 0
1261 15231 0
-1371 15231 0
281 -391 -16211 0
-281 16211 0
391 16211 0
1261 -1371 -17191 0
-1261 17191 0
1371 17191 0
12431 -11871 0
13411 -11871 0
-12431 -13411 11871 0
-12431 14391 0
-12431 16351 0
12431 -14391 -16351 0
-13411 15371 0
-13411 17331 0
13411 -15371 -17331 0
-421 531 -14391 0
421 14391 0
-531 14391 0
-1401 1511 -15371 0
1401 15371 0
-1511 15371 0
421 -531 -16351 0
-421 16351 0
531 16351 0
1401 -1511 -17331 0
-1401 17331 0
1511 17331 0
12571 -11871 0
13551 -11871 0
-12571 -13551 11871 0
-12571 14531 0
-12571 16491 0
12571 -14531 -16491 0
-13551 15511 0
-13551 17471 0
13551 -15511 -17471 0
-561 671 -14531 0
561 14531 0
-671 14531 0
-1541 1651 -15511 0
1541 15511 0
-1651 15511 0
561 -671 -16491 0
-561 16491 0
671 16491 0
1541 -1651 -17471 0
-1541 17471 0
1651 17471 0
12711 -11871 0
13691 -11871 0
-12711 -13691 11871 0
-12711 14671 0
-12711 16631 0
12711 -14671 -16631 0
-13691 15651 0
-13691 17611 0
13691 -15651 -17611 0
-701 811 -14671 0
701 14671 0
-811 14671 0
-1681 1791 -15651 0
1681 15651 0
-1791 15651 0
701 -811 -16631 0
-701 16631 0
811 16631 0
1681 -1791 -17611 0
-1681 17611 0
1791 17611 0
12851 -11871 0
13831 -11871 0
-12851 -13831 11871 0
-12851 14811 0
-12851 16771 0
12851 -14811 -16771 0
-13831 15791 0
-13831 17751 0
13831 -15791 -17751 0
-841 951 -14811 0
841 14811 0
-951 14811 0
-1821 1931 -15791 0
1821 15791 0
-1931 15791 0
841 -951 -16771 0
-841 16771 0
951 16771 0
1821 -1931 -17751 0
-1821 17751 0
1931 17751 0
12012 -11872 0
12992 -11872 0
-12012 -12992 11872 0
-12012 13972 0
-12012 15932 0
12012 -13972 -15932 0
-12992 14952 0
-12992 16912 0
12992 -14952 -16912 0
-1 112 -13972 0
1 13972 0
-112 13972 0
-981 1092 -14952 0
981 14952 0
-1092 14952 0
1 -112 -15932 0
-1 15932 0
112 15932 0
981 -1092 -16912 0
-981 16912 0
1092 16912 0
12152 -11872 0
13132 -11872 0
-12152 -13132 11872 0
-12152 14112 0
-12152 16072 0
12152 -14112 -16072 0
-13132 15092 0
-13132 17052 0
13132 -15092 -17052 0
-141 252 -14112 0
141 14112 0
-252 14112 0
-1121 1232 -15092 0
1121 15092 0
-1232 15092 0
141 -252 -16072 0
-141 16072 0
252 16072 0
1121 -1232 -17052 0
-1121 17052 0
1232 17052 0
12292 -11872 0
13272 -11872 0
-12292 -13272 11872 0
-12292 14252 0
-12292 16212 0
12292 -14252 -16212 0
-13272 15232 0
-13272 17192 0
13272 -15232 -17192 0
-281 392 -14252 0
281 14252 0
-392 14252 0
-1261 1372 -15232 0
1261 15232 0
-1372 15232 0
281 -392 -16212 0
-281 16212 0
392 16212 0
1261 -1372 -17192 0
-1261 17192 0
1372 17192 0
12432 -11872 0
13412 -11872 0
-12432 -13412 11872 0
-12432 14392 0
-12432 16352 0
12432 -14392 -16352 0
-13412 15372 0
-13412 17332 0
13412 -15372 -17332 0
-421 532 -14392 0
421 14392 0
-532 14392 0
-1401 1512 -15372 0
1401 15372 0
-1512 15372 0
421 -532 -16352 0
-421 16352 0
532 16352 0
1401 -1512 -17332 0
-1401 17332 0
1512 17332 0
12572 -11872 0
13552 -11872 0
-12572 -13552 11872 0
-12572 14532 0
-12572 16492 0
12572 -14532 -16492 0
-13552 15512 0
-13552 17472 0
13552 -15512 -17472 0
-561 672 -14532 0
561 14532 0
-672 14532 0
-1541 1652 -15512 0
1541 15512 0
-1652 15512 0
561 -672 -16492 0
-561 16492 0
672 16492 0
1541 -1652 -17472 0
-1541 17472 0
1652 17472 0
12712 -11872 0
13692 -11872 0
-12712 -13692 11872 0
-12712 14672 0
-12712 16632 0
12712 -14672 -16632 0
-13692 15652 0
-13692 17612 0
13692 -15652 -17612 0
-701 812 -14672 0
701 14672 0
-812 14672 0
-1681 1792 -15652 0
1681 15652 0
-1792 15652 0
701 -812 -16632 0
-701 16632 0
812 16632 0
1681 -1792 -17612 0
-1681 17612 0
1792 17612 0
12852 -11872 0
13832 -11872 0
-12852 -13832 11872 0
-12852 14812 0
-12852 16772 0
12852 -14812 -16772 0
-13832 15792 0
-13832 17752 0
13832 -15792 -17752 0
-841 952 -14812 0
841 14812 0
-952 14812 0
-1821 1932 -15792 0
1821 15792 0
-1932 15792 0
841 -952 -16772 0
-841 16772 0
952 16772 0
1821 -1932 -17752 0
-1821 17752 0
1932 17752 0
12013 -11873 0
12993 -11873 0
-12013 -12993 11873 0
-12013 13973 0
-12013 15933 0
12013 -13973 -15933 0
-12993 14953 0
-12993 16913 0
12993 -14953 -16913 0
-1 113 -13973 0
1 13973 0
-113 13973 0
-981 1093 -14953 0
981 14953 0
-1093 14953 0
1 -113 -15933 0
-1 15933 0
113 15933 0
981 -1093 -16913 0
-981 16913 0
1093 16913 0
12153 -11873 0
13133 -11873 0
-12153 -13133 11873 0
-12153 14113 0
-12153 16073 0
12153 -14113 -16073 0
-13133 15093 0
-13133 17053 0
13133 -15093 -17053 0
-141 253 -14113 0
141 14113 0
-253 14113 0
-1121 1233 -15093 0
1121 15093 0
-1233 15093 0
141 -253 -16073 0
-141 16073 0
253 16073 0
1121 -1233 -17053 0
-1121 17053 0
1233 17053 0
12293 -11873 0
13273 -11873 0
-12293 -13273 11873 0
-12293 14253 0
-12293 16213 0
12293 -14253 -16213 0
-13273 15233 0
-13273 17193 0
13273 -15233 -17193 0
-281 393 -14253 0
281 14253 0
-393 14253 0
-1261 1373 -15233 0
1261 15233 0
-1373 15233 0
281 -393 -16213 0
-281 16213 0
393 16213 0
1261 -1373 -17193 0
-1261 17193 0
1373 17193 0
12433 -11873 0
13413 -11873 0
-12433 -13413 11873 0
-12433 14393 0
-12433 16353 0
12433 -14393 -16353 0
-13413 15373 0
-13413 17333 0
13413 -15373 -17333 0
-421 533 -14393 0
421 14393 0
-533 14393 0
-1401 1513 -15373 0
1401 15373 0
-1513 15373 0
421 -533 -16353 0
-421 16353 0
533 16353 0
1401 -1513 -17333 0
-1401 17333 0
1513 17333 0
12573 -11873 0
13553 -11873 0
-12573 -13553 11873 0
-12573 14533 0
-12573 16493 0
12573 -14533 -16493 0
-13553 15513 0
-13553 17473 0
13553 -15513 -17473 0
-561 673 -14533 0
561 14533 0
-673 14533 0
-1541 1653 -15513 0
1541 15513 0
-1653 15513 0
561 -673 -16493 0
-561 16493 0
673 16493 0
1541 -1653 -17473 0
-1541 17473 0
1653 17473 0
12713 -11873 0
13693 -11873 0
-12713 -13693 11873 0
-12713 14673 0
-12713 16633 0
12713 -14673 -16633 0
-13693 15653 0
-13693 17613 0
13693 -15653 -17613 0
-701 813 -14673 0
701 14673 0
-813 14673 0
-1681 1793 -15653 0
1681 15653 0
-1793 15653 0
701 -813 -16633 0
-701 16633 0
813 16633 0
1681 -1793 -17613 0
-1681 17613 0
1793 17613 0
12853 -11873 0
13833 -11873 0
-12853 -13833 11873 0
-12853 14813 0
-12853 16773 0
12853 -14813 -16773 0
-13833 15793 0
-13833 17753 0
13833 -15793 -17753 0
-841 953 -14813 0
841 14813 0
-953 14813 0
-1821 1933 -15793 0
1821 15793 0
-1933 15793 0
841 -953 -16773 0
-841 16773 0
953 16773 0
1821 -1933 -17753 0
-1821 17753 0
1933 17753 0
12014 -11874 0
12994 -11874 0
-12014 -12994 11874 0
-12014 13974 0
-12014 15934 0
12014 -13974 -15934 0
-12994 14954 0
-12994 16914 0
12994 -14954 -16914 0
-1 114 -13974 0
1 13974 0
-114 13974 0
-981 1094 -14954 0
981 14954 0
-1094 14954 0
1 -114 -15934 0
-1 15934 0
114 15934 0
981 -1094 -16914 0
-981 16914 0
1094 16914 0
12154 -11874 0
13134 -11874 0
-12154 -13134 11874 0
-12154 14114 0
-12154 16074 0
12154 -14114 -16074 0
-13134 15094 0
-13134 17054 0
13134 -15094 -17054 0
-141 254 -14114 0
141 14114 0
-254 14114 0
-1121 1234 -15094 0
1121 15094 0
-1234 15094 0
141 -254 -16074 0
-141 16074 0
254 16074 0
1121 -1234 -17054 0
-1121 17054 0
1234 17054 0
12294 -11874 0
13274 -11874 0
-12294 -13274 11874 0
-12294 14254 0
-12294 16214 0
12294 -14254 -16214 0
-13274 15234 0
-13274 17194 0
13274 -15234 -17194 0
-281 394 -14254 0
281 14254 0
-394 14254 0
-1261 1374 -15234 0
1261 15234 0
-1374 15234 0
281 -394 -16214 0
-281 16214 0
394 16214 0
1261 -1374 -17194 0
-1261 17194 0
1374 17194 0
12434 -11874 0
13414 -11874 0
-12434 -13414 11874 0
-12434 14394 0
-12434 16354 0
12434 -14394 -16354 0
-13414 15374 0
-13414 17334 0
13414 -15374 -17334 0
-421 534 -14394 0
421 14394 0
-534 14394 0
-1401 1514 -15374 0
1401 15374 0
-1514 15374 0
421 -534 -16354 0
-421 16354 0
534 16354 0
1401 -1514 -17334 0
-1401 17334 0
1514 17334 0
12574 -11874 0
13554 -11874 0
-12574 -13554 11874 0
-12574 14534 0
-12574 16494 0
12574 -14534 -16494 0
-13554 15514 0
-13554 17474 0
13554 -15514 -17474 0
-561 674 -14534 0
561 14534 0
-674 14534 0
-1541 1654 -15514 0
1541 15514 0
-1654 15514 0
561 -674 -16494 0
-561 16494 0
674 16494 0
1541 -1654 -17474 0
-1541 17474 0
1654 17474 0
12714 -11874 0
13694 -11874 0
-12714 -13694 11874 0
-12714 14674 0
-12714 16634 0
12714 -14674 -16634 0
-13694 15654 0
-13694 17614 0
13694 -15654 -17614 0
-701 814 -14674 0
701 14674 0
-814 14674 0
-1681 1794 -15654 0
1681 15654 0
-1794 15654 0
701 -814 -16634 0
-701 16634 0
814 16634 0
1681 -1794 -17614 0
-1681 17614 0
1794 17614 0
12854 -11874 0
13834 -11874 0
-12854 -13834 11874 0
-12854 14814 0
-12854 16774 0
12854 -14814 -16774 0
-13834 15794 0
-13834 17754 0
13834 -15794 -17754 0
-841 954 -14814 0
841 14814 0
-954 14814 0
-1821 1934 -15794 0
1821 15794 0
-1934 15794 0
841 -954 -16774 0
-841 16774 0
954 16774 0
1821 -1934 -17754 0
-1821 17754 0
1934 17754 0
12015 -11875 0
12995 -11875 0
-12015 -12995 11875 0
-12015 13975 0
-12015 15935 0
12015 -13975 -15935 0
-12995 14955 0
-12995 16915 0
12995 -14955 -16915 0
-1 115 -13975 0
1 13975 0
-115 13975 0
-981 1095 -14955 0
981 14955 0
-1095 14955 0
1 -115 -15935 0
-1 15935 0
115 15935 0
981 -1095 -16915 0
-981 16915 0
1095 16915 0
12155 -11875 0
13135 -11875 0
-12155 -13135 11875 0
-12155 14115 0
-12155 16075 0
12155 -14115 -16075 0
-13135 15095 0
-13135 17055 0
13135 -15095 -17055 0
-141 255 -14115 0
141 14115 0
-255 14115 0
-1121 1235 -15095 0
1121 15095 0
-1235 15095 0
141 -255 -16075 0
-141 16075 0
255 16075 0
1121 -1235 -17055 0
-1121 17055 0
1235 17055 0
12295 -11875 0
13275 -11875 0
-12295 -13275 11875 0
-12295 14255 0
-12295 16215 0
12295 -14255 -16215 0
-13275 15235 0
-13275 17195 0
13275 -15235 -17195 0
-281 395 -14255 0
281 14255 0
-395 14255 0
-1261 1375 -15235 0
1261 15235 0
-1375 15235 0
281 -395 -16215 0
-281 16215 0
395 16215 0
1261 -1375 -17195 0
-1261 17195 0
1375 17195 0
12435 -11875 0
13415 -11875 0
-12435 -13415 11875 0
-12435 14395 0
-12435 16355 0
12435 -14395 -16355 0
-13415 15375 0
-13415 17335 0
13415 -15375 -17335 0
-421 535 -14395 0
421 14395 0
-535 14395 0
-1401 1515 -15375 0
1401 15375 0
-1515 15375 0
421 -535 -16355 0
-421 16355 0
535 16355 0
1401 -1515 -17335 0
-1401 17335 0
1515 17335 0
12575 -11875 0
13555 -11875 0
-12575 -13555 11875 0
-12575 14535 0
-12575 16495 0
12575 -14535 -16495 0
-13555 15515 0
-13555 17475 0
13555 -15515 -17475 0
-561 675 -14535 0
561 14535 0
-675 14535 0
-1541 1655 -15515 0
1541 15515 0
-1655 15515 0
561 -675 -16495 0
-561 16495 0
675 16495 0
1541 -1655 -17475 0
-1541 17475 0
1655 17475 0
12715 -11875 0
13695 -11875 0
-12715 -13695 11875 0
-12715 14675 0
-12715 16635 0
12715 -14675 -16635 0
-13695 15655 0
-13695 17615 0
13695 -15655 -17615 0
-701 815 -14675 0
701 14675 0
-815 14675 0
-1681 1795 -15655 0
1681 15655 0
-1795 15655 0
701 -815 -16635 0
-701 16635 0
815 16635 0
1681 -1795 -17615 0
-1681 17615 0
1795 17615 0
12855 -11875 0
13835 -11875 0
-12855 -13835 11875 0
-12855 14815 0
-12855 16775 0
12855 -14815 -16775 0
-13835 15795 0
-13835 17755 0
13835 -15795 -17755 0
-841 955 -14815 0
841 14815 0
-955 14815 0
-1821 1935 -15795 0
1821 15795 0
-1935 15795 0
841 -955 -16775 0
-841 16775 0
955 16775 0
1821 -1935 -17755 0
-1821 17755 0
1935 17755 0
12016 -11876 0
12996 -11876 0
-12016 -12996 11876 0
-12016 13976 0
-12016 15936 0
12016 -13976 -15936 0
-12996 14956 0
-12996 16916 0
12996 -14956 -16916 0
-1 116 -13976 0
1 13976 0
-116 13976 0
-981 1096 -14956 0
981 14956 0
-1096 14956 0
1 -116 -15936 0
-1 15936 0
116 15936 0
981 -1096 -16916 0
-981 16916 0
1096 16916 0
12156 -11876 0
13136 -11876 0
-12156 -13136 11876 0
-12156 14116 0
-12156 16076 0
12156 -14116 -16076 0
-13136 15096 0
-13136 17056 0
13136 -15096 -17056 0
-141 256 -14116 0
141 14116 0
-256 14116 0
-1121 1236 -15096 0
1121 15096 0
-1236 15096 0
141 -256 -16076 0
-141 16076 0
256 16076 0
1121 -1236 -17056 0
-1121 17056 0
1236 17056 0
12296 -11876 0
13276 -11876 0
-12296 -13276 11876 0
-12296 14256 0
-12296 16216 0
12296 -14256 -16216 0
-13276 15236 0
-13276 17196 0
13276 -15236 -17196 0
-281 396 -14256 0
281 14256 0
-396 14256 0
-1261 1376 -15236 0
1261 15236 0
-1376 15236 0
281 -396 -16216 0
-281 16216 0
396 16216 0
1261 -1376 -17196 0
-1261 17196 0
1376 17196 0
12436 -11876 0
13416 -11876 0
-12436 -13416 11876 0
-12436 14396 0
-12436 16356 0
12436 -14396 -16356 0
-13416 15376 0
-13416 17336 0
13416 -15376 -17336 0
-421 536 -14396 0
421 14396 0
-536 14396 0
-1401 1516 -15376 0
1401 15376 0
-1516 15376 0
421 -536 -16356 0
-421 16356 0
536 16356 0
1401 -1516 -17336 0
-1401 17336 0
1516 17336 0
12576 -11876 0
13556 -11876 0
-12576 -13556 11876 0
-12576 14536 0
-12576 16496 0
12576 -14536 -16496 0
-13556 15516 0
-13556 17476 0
13556 -15516 -17476 0
-561 676 -14536 0
561 14536 0
-676 14536 0
-1541 1656 -15516 0
1541 15516 0
-1656 15516 0
561 -676 -16496 0
-561 16496 0
676 16496 0
1541 -1656 -17476 0
-1541 17476 0
1656 17476 0
12716 -11876 0
13696 -11876 0
-12716 -13696 11876 0
-12716 14676 0
-12716 16636 0
12716 -14676 -16636 0
-13696 15656 0
-13696 17616 0
13696 -15656 -17616 0
-701 816 -14676 0
701 14676 0
-816 14676 0
-1681 1796 -15656 0
1681 15656 0
-1796 15656 0
701 -816 -16636 0
-701 16636 0
816 16636 0
1681 -1796 -17616 0
-1681 17616 0
1796 17616 0
12856 -11876 0
13836 -11876 0
-12856 -13836 11876 0
-12856 14816 0
-12856 16776 0
12856 -14816 -16776 0
-13836 15796 0
-13836 17756 0
13836 -15796 -17756 0
-841 956 -14816 0
841 14816 0
-956 14816 0
-1821 1936 -15796 0
1821 15796 0
-1936 15796 0
841 -956 -16776 0
-841 16776 0
956 16776 0
1821 -1936 -17756 0
-1821 17756 0
1936 17756 0
12017 -11877 0
12997 -11877 0
-12017 -12997 11877 0
-12017 13977 0
-12017 15937 0
12017 -13977 -15937 0
-12997 14957 0
-12997 16917 0
12997 -14957 -16917 0
-1 117 -13977 0
1 13977 0
-117 13977 0
-981 1097 -14957 0
981 14957 0
-1097 14957 0
1 -117 -15937 0
-1 15937 0
117 15937 0
981 -1097 -16917 0
-981 16917 0
1097 16917 0
12157 -11877 0
13137 -11877 0
-12157 -13137 11877 0
-12157 14117 0
-12157 16077 0
12157 -14117 -16077 0
-13137 15097 0
-13137 17057 0
13137 -15097 -17057 0
-141 257 -14117 0
141 14117 0
-257 14117 0
-1121 1237 -15097 0
1121 15097 0
-1237 15097 0
141 -257 -16077 0
-141 16077 0
257 16077 0
1121 -1237 -17057 0
-1121 17057 0
1237 17057 0
12297 -11877 0
13277 -11877 0
-12297 -13277 11877 0
-12297 14257 0
-12297 16217 0
12297 -14257 -16217 0
-13277 15237 0
-13277 17197 0
13277 -15237 -17197 0
-281 397 -14257 0
281 14257 0
-397 14257 0
-1261 1377 -15237 0
1261 15237 0
-1377 15237 0
281 -397 -16217 0
-281 16217 0
397 16217 0
1261 -1377 -17197 0
-1261 17197 0
1377 17197 0
12437 -11877 0
13417 -11877 0
-12437 -13417 11877 0
-12437 14397 0
-12437 16357 0
12437 -14397 -16357 0
-13417 15377 0
-13417 17337 0
13417 -15377 -17337 0
-421 537 -14397 0
421 14397 0
-537 14397 0
-1401 1517 -15377 0
1401 15377 0
-1517 15377 0
421 -537 -16357 0
-421 16357 0
537 16357 0
1401 -1517 -17337 0
-1401 17337 0
1517 17337 0
12577 -11877 0
13557 -11877 0
-12577 -13557 11877 0
-12577 14537 0
-12577 16497 0
12577 -14537 -16497 0
-13557 15517 0
-13557 17477 0
13557 -15517 -17477 0
-561 677 -14537 0
561 14537 0
-677 14537 0
-1541 1657 -15517 0
1541 15517 0
-1657 15517 0
561 -677 -16497 0
-561 16497 0
677 16497 0
1541 -1657 -17477 0
-1541 17477 0
1657 17477 0
12717 -11877 0
13697 -11877 0
-12717 -13697 11877 0
-12717 14677 0
-12717 16637 0
12717 -14677 -16637 0
-13697 15657 0
-13697 17617 0
13697 -15657 -17617 0
-701 817 -14677 0
701 14677 0
-817 14677 0
-1681 1797 -15657 0
1681 15657 0
-1797 15657 0
701 -817 -16637 0
-701 16637 0
817 16637 0
1681 -1797 -17617 0
-1681 17617 0
1797 17617 0
12857 -11877 0
13837 -11877 0
-12857 -13837 11877 0
-12857 14817 0
-12857 16777 0
12857 -14817 -16777 0
-13837 15797 0
-13837 17757 0
13837 -15797 -17757 0
-841 957 -14817 0
841 14817 0
-957 14817 0
-1821 1937 -15797 0
1821 15797 0
-1937 15797 0
841 -957 -16777 0
-841 16777 0
957 16777 0
1821 -1937 -17757 0
-1821 17757 0
1937 17757 0
12018 -11878 0
12998 -11878 0
-12018 -12998 11878 0
-12018 13978 0
-12018 15938 0
12018 -13978 -15938 0
-12998 14958 0
-12998 16918 0
12998 -14958 -16918 0
-1 118 -13978 0
1 13978 0
-118 13978 0
-981 1098 -14958 0
981 14958 0
-1098 14958 0
1 -118 -15938 0
-1 15938 0
118 15938 0
981 -1098 -16918 0
-981 16918 0
1098 16918 0
12158 -11878 0
13138 -11878 0
-12158 -13138 11878 0
-12158 14118 0
-12158 16078 0
12158 -14118 -16078 0
-13138 15098 0
-13138 17058 0
13138 -15098 -17058 0
-141 258 -14118 0
141 14118 0
-258 14118 0
-1121 1238 -15098 0
1121 15098 0
-1238 15098 0
141 -258 -16078 0
-141 16078 0
258 16078 0
1121 -1238 -17058 0
-1121 17058 0
1238 17058 0
12298 -11878 0
13278 -11878 0
-12298 -13278 11878 0
-12298 14258 0
-12298 16218 0
12298 -14258 -16218 0
-13278 15238 0
-13278 17198 0
13278 -15238 -17198 0
-281 398 -14258 0
281 14258 0
-398 14258 0
-1261 1378 -15238 0
1261 15238 0
-1378 15238 0
281 -398 -16218 0
-281 16218 0
398 16218 0
1261 -1378 -17198 0
-1261 17198 0
1378 17198 0
12438 -11878 0
13418 -11878 0
-12438 -13418 11878 0
-12438 14398 0
-12438 16358 0
12438 -14398 -16358 0
-13418 15378 0
-13418 17338 0
13418 -15378 -17338 0
-421 538 -14398 0
421 14398 0
-538 14398 0
-1401 1518 -15378 0
1401 15378 0
-1518 15378 0
421 -538 -16358 0
-421 16358 0
538 16358 0
1401 -1518 -17338 0
-1401 17338 0
1518 17338 0
12578 -11878 0
13558 -11878 0
-12578 -13558 11878 0
-12578 14538 0
-12578 16498 0
12578 -14538 -16498 0
-13558 15518 0
-13558 17478 0
13558 -15518 -17478 0
-561 678 -14538 0
561 14538 0
-678 14538 0
-1541 1658 -15518 0
1541 15518 0
-1658 15518 0
561 -678 -16498 0
-561 16498 0
678 16498 0
1541 -1658 -17478 0
-1541 17478 0
1658 17478 0
12718 -11878 0
13698 -11878 0
-12718 -13698 11878 0
-12718 14678 0
-12718 16638 0
12718 -14678 -16638 0
-13698 15658 0
-13698 17618 0
13698 -15658 -17618 0
-701 818 -14678 0
701 14678 0
-818 14678 0
-1681 1798 -15658 0
1681 15658 0
-1798 15658 0
701 -818 -16638 0
-701 16638 0
818 16638 0
1681 -1798 -17618 0
-1681 17618 0
1798 17618 0
12858 -11878 0
13838 -11878 0
-12858 -13838 11878 0
-12858 14818 0
-12858 16778 0
12858 -14818 -16778 0
-13838 15798 0
-13838 17758 0
13838 -15798 -17758 0
-841 958 -14818 0
841 14818 0
-958 14818 0
-1821 1938 -15798 0
1821 15798 0
-1938 15798 0
841 -958 -16778 0
-841 16778 0
958 16778 0
1821 -1938 -17758 0
-1821 17758 0
1938 17758 0
12019 -11879 0
12999 -11879 0
-12019 -12999 11879 0
-12019 13979 0
-12019 15939 0
12019 -13979 -15939 0
-12999 14959 0
-12999 16919 0
12999 -14959 -16919 0
-1 119 -13979 0
1 13979 0
-119 13979 0
-981 1099 -14959 0
981 14959 0
-1099 14959 0
1 -119 -15939 0
-1 15939 0
119 15939 0
981 -1099 -16919 0
-981 16919 0
1099 16919 0
12159 -11879 0
13139 -11879 0
-12159 -13139 11879 0
-12159 14119 0
-12159 16079 0
12159 -14119 -16079 0
-13139 15099 0
-13139 17059 0
13139 -15099 -17059 0
-141 259 -14119 0
141 14119 0
-259 14119 0
-1121 1239 -15099 0
1121 15099 0
-1239 15099 0
141 -259 -16079 0
-141 16079 0
259 16079 0
1121 -1239 -17059 0
-1121 17059 0
1239 17059 0
12299 -11879 0
13279 -11879 0
-12299 -13279 11879 0
-12299 14259 0
-12299 16219 0
12299 -14259 -16219 0
-13279 15239 0
-13279 17199 0
13279 -15239 -17199 0
-281 399 -14259 0
281 14259 0
-399 14259 0
-1261 1379 -15239 0
1261 15239 0
-1379 15239 0
281 -399 -16219 0
-281 16219 0
399 16219 0
1261 -1379 -17199 0
-1261 17199 0
1379 17199 0
12439 -11879 0
13419 -11879 0
-12439 -13419 11879 0
-12439 14399 0
-12439 16359 0
12439 -14399 -16359 0
-13419 15379 0
-13419 17339 0
13419 -15379 -17339 0
-421 539 -14399 0
421 14399 0
-539 14399 0
-1401 1519 -15379 0
1401 15379 0
-1519 15379 0
421 -539 -16359 0
-421 16359 0
539 16359 0
1401 -1519 -17339 0
-1401 17339 0
1519 17339 0
12579 -11879 0
13559 -11879 0
-12579 -13559 11879 0
-12579 14539 0
-12579 16499 0
12579 -14539 -16499 0
-13559 15519 0
-13559 17479 0
13559 -15519 -17479 0
-561 679 -14539 0
561 14539 0
-679 14539 0
-1541 1659 -15519 0
1541 15519 0
-1659 15519 0
561 -679 -16499 0
-561 16499 0
679 16499 0
1541 -1659 -17479 0
-1541 17479 0
1659 17479 0
12719 -11879 0
13699 -11879 0
-12719 -13699 11879 0
-12719 14679 0
-12719 16639 0
12719 -14679 -16639 0
-13699 15659 0
-13699 17619 0
13699 -15659 -17619 0
-701 819 -14679 0
701 14679 0
-819 14679 0
-1681 1799 -15659 0
1681 15659 0
-1799 15659 0
701 -819 -16639 0
-701 16639 0
819 16639 0
1681 -1799 -17619 0
-1681 17619 0
1799 17619 0
12859 -11879 0
13839 -11879 0
-12859 -13839 11879 0
-12859 14819 0
-12859 16779 0
12859 -14819 -16779 0
-13839 15799 0
-13839 17759 0
13839 -15799 -17759 0
-841 959 -14819 0
841 14819 0
-959 14819 0
-1821 1939 -15799 0
1821 15799 0
-1939 15799 0
841 -959 -16779 0
-841 16779 0
959 16779 0
1821 -1939 -17759 0
-1821 17759 0
1939 17759 0
12020 -11880 0
13000 -11880 0
-12020 -13000 11880 0
-12020 13980 0
-12020 15940 0
12020 -13980 -15940 0
-13000 14960 0
-13000 16920 0
13000 -14960 -16920 0
-1 120 -13980 0
1 13980 0
-120 13980 0
-981 1100 -14960 0
981 14960 0
-1100 14960 0
1 -120 -15940 0
-1 15940 0
120 15940 0
981 -1100 -16920 0
-981 16920 0
1100 16920 0
12160 -11880 0
13140 -11880 0
-12160 -13140 11880 0
-12160 14120 0
-12160 16080 0
12160 -14120 -16080 0
-13140 15100 0
-13140 17060 0
13140 -15100 -17060 0
-141 260 -14120 0
141 14120 0
-260 14120 0
-1121 1240 -15100 0
1121 15100 0
-1240 15100 0
141 -260 -16080 0
-141 16080 0
260 16080 0
1121 -1240 -17060 0
-1121 17060 0
1240 17060 0
12300 -11880 0
13280 -11880 0
-12300 -13280 11880 0
-12300 14260 0
-12300 16220 0
12300 -14260 -16220 0
-13280 15240 0
-13280 17200 0
13280 -15240 -17200 0
-281 400 -14260 0
281 14260 0
-400 14260 0
-1261 1380 -15240 0
1261 15240 0
-1380 15240 0
281 -400 -16220 0
-281 16220 0
400 16220 0
1261 -1380 -17200 0
-1261 17200 0
1380 17200 0
12440 -11880 0
13420 -11880 0
-12440 -13420 11880 0
-12440 14400 0
-12440 16360 0
12440 -14400 -16360 0
-13420 15380 0
-13420 17340 0
13420 -15380 -17340 0
-421 540 -14400 0
421 14400 0
-540 14400 0
-1401 1520 -15380 0
1401 15380 0
-1520 15380 0
421 -540 -16360 0
-421 16360 0
540 16360 0
1401 -1520 -17340 0
-1401 17340 0
1520 17340 0
12580 -11880 0
13560 -11880 0
-12580 -13560 11880 0
-12580 14540 0
-12580 16500 0
12580 -14540 -16500 0
-13560 15520 0
-13560 17480 0
13560 -15520 -17480 0
-561 680 -14540 0
561 14540 0
-680 14540 0
-1541 1660 -15520 0
1541 15520 0
-1660 15520 0
561 -680 -16500 0
-561 16500 0
680 16500 0
1541 -1660 -17480 0
-1541 17480 0
1660 17480 0
12720 -11880 0
13700 -11880 0
-12720 -13700 11880 0
-12720 14680 0
-12720 16640 0
12720 -14680 -16640 0
-13700 15660 0
-13700 17620 0
13700 -15660 -17620 0
-701 820 -14680 0
701 14680 0
-820 14680 0
-1681 1800 -15660 0
1681 15660 0
-1800 15660 0
701 -820 -16640 0
-701 16640 0
820 16640 0
1681 -1800 -17620 0
-1681 17620 0
1800 17620 0
12860 -11880 0
13840 -11880 0
-12860 -13840 11880 0
-12860 14820 0
-12860 16780 0
12860 -14820 -16780 0
-13840 15800 0
-13840 17760 0
13840 -15800 -17760 0
-841 960 -14820 0
841 14820 0
-960 14820 0
-1821 1940 -15800 0
1821 15800 0
-1940 15800 0
841 -960 -16780 0
-841 16780 0
960 16780 0
1821 -1940 -17760 0
-1821 17760 0
1940 17760 0
12021 -11881 0
13001 -11881 0
-12021 -13001 11881 0
-12021 13981 0
-12021 15941 0
12021 -13981 -15941 0
-13001 14961 0
-13001 16921 0
13001 -14961 -16921 0
-1 121 -13981 0
1 13981 0
-121 13981 0
-981 1101 -14961 0
981 14961 0
-1101 14961 0
1 -121 -15941 0
-1 15941 0
121 15941 0
981 -1101 -16921 0
-981 16921 0
1101 16921 0
12161 -11881 0
13141 -11881 0
-12161 -13141 11881 0
-12161 14121 0
-12161 16081 0
12161 -14121 -16081 0
-13141 15101 0
-13141 17061 0
13141 -15101 -17061 0
-141 261 -14121 0
141 14121 0
-261 14121 0
-1121 1241 -15101 0
1121 15101 0
-1241 15101 0
141 -261 -16081 0
-141 16081 0
261 16081 0
1121 -1241 -17061 0
-1121 17061 0
1241 17061 0
12301 -11881 0
13281 -11881 0
-12301 -13281 11881 0
-12301 14261 0
-12301 16221 0
12301 -14261 -16221 0
-13281 15241 0
-13281 17201 0
13281 -15241 -17201 0
-281 401 -14261 0
281 14261 0
-401 14261 0
-1261 1381 -15241 0
1261 15241 0
-1381 15241 0
281 -401 -16221 0
-281 16221 0
401 16221 0
1261 -1381 -17201 0
-1261 17201 0
1381 17201 0
12441 -11881 0
13421 -11881 0
-12441 -13421 11881 0
-12441 14401 0
-12441 16361 0
12441 -14401 -16361 0
-13421 15381 0
-13421 17341 0
13421 -15381 -17341 0
-421 541 -14401 0
421 14401 0
-541 14401 0
-1401 1521 -15381 0
1401 15381 0
-1521 15381 0
421 -541 -16361 0
-421 16361 0
541 16361 0
1401 -1521 -17341 0
-1401 17341 0
1521 17341 0
12581 -11881 0
13561 -11881 0
-12581 -13561 11881 0
-12581 14541 0
-12581 16501 0
12581 -14541 -16501 0
-13561 15521 0
-13561 17481 0
13561 -15521 -17481 0
-561 681 -14541 0
561 14541 0
-681 14541 0
-1541 1661 -15521 0
1541 15521 0
-1661 15521 0
561 -681 -16501 0
-561 16501 0
681 16501 0
1541 -1661 -17481 0
-1541 17481 0
1661 17481 0
12721 -11881 0
13701 -11881 0
-12721 -13701 11881 0
-12721 14681 0
-12721 16641 0
12721 -14681 -16641 0
-13701 15661 0
-13701 17621 0
13701 -15661 -17621 0
-701 821 -14681 0
701 14681 0
-821 14681 0
-1681 1801 -15661 0
1681 15661 0
-1801 15661 0
701 -821 -16641 0
-701 16641 0
821 16641 0
1681 -1801 -17621 0
-1681 17621 0
1801 17621 0
12861 -11881 0
13841 -11881 0
-12861 -13841 11881 0
-12861 14821 0
-12861 16781 0
12861 -14821 -16781 0
-13841 15801 0
-13841 17761 0
13841 -15801 -17761 0
-841 961 -14821 0
841 14821 0
-961 14821 0
-1821 1941 -15801 0
1821 15801 0
-1941 15801 0
841 -961 -16781 0
-841 16781 0
961 16781 0
1821 -1941 -17761 0
-1821 17761 0
1941 17761 0
12022 -11882 0
13002 -11882 0
-12022 -13002 11882 0
-12022 13982 0
-12022 15942 0
12022 -13982 -15942 0
-13002 14962 0
-13002 16922 0
13002 -14962 -16922 0
-1 122 -13982 0
1 13982 0
-122 13982 0
-981 1102 -14962 0
981 14962 0
-1102 14962 0
1 -122 -15942 0
-1 15942 0
122 15942 0
981 -1102 -16922 0
-981 16922 0
1102 16922 0
12162 -11882 0
13142 -11882 0
-12162 -13142 11882 0
-12162 14122 0
-12162 16082 0
12162 -14122 -16082 0
-13142 15102 0
-13142 17062 0
13142 -15102 -17062 0
-141 262 -14122 0
141 14122 0
-262 14122 0
-1121 1242 -15102 0
1121 15102 0
-1242 15102 0
141 -262 -16082 0
-141 16082 0
262 16082 0
1121 -1242 -17062 0
-1121 17062 0
1242 17062 0
12302 -11882 0
13282 -11882 0
-12302 -13282 11882 0
-12302 14262 0
-12302 16222 0
12302 -14262 -16222 0
-13282 15242 0
-13282 17202 0
13282 -15242 -17202 0
-281 402 -14262 0
281 14262 0
-402 14262 0
-1261 1382 -15242 0
1261 15242 0
-1382 15242 0
281 -402 -16222 0
-281 16222 0
402 16222 0
1261 -1382 -17202 0
-1261 17202 0
1382 17202 0
12442 -11882 0
13422 -11882 0
-12442 -13422 11882 0
-12442 14402 0
-12442 16362 0
12442 -14402 -16362 0
-13422 15382 0
-13422 17342 0
13422 -15382 -17342 0
-421 542 -14402 0
421 14402 0
-542 14402 0
-1401 1522 -15382 0
1401 15382 0
-1522 15382 0
421 -542 -16362 0
-421 16362 0
542 16362 0
1401 -1522 -17342 0
-1401 17342 0
1522 17342 0
12582 -11882 0
13562 -11882 0
-12582 -13562 11882 0
-12582 14542 0
-12582 16502 0
12582 -14542 -16502 0
-13562 15522 0
-13562 17482 0
13562 -15522 -17482 0
-561 682 -14542 0
561 14542 0
-682 14542 0
-1541 1662 -15522 0
1541 15522 0
-1662 15522 0
561 -682 -16502 0
-561 16502 0
682 16502 0
1541 -1662 -17482 0
-1541 17482 0
1662 17482 0
12722 -11882 0
13702 -11882 0
-12722 -13702 11882 0
-12722 14682 0
-12722 16642 0
12722 -14682 -16642 0
-13702 15662 0
-13702 17622 0
13702 -15662 -17622 0
-701 822 -14682 0
701 14682 0
-822 14682 0
-1681 1802 -15662 0
1681 15662 0
-1802 15662 0
701 -822 -16642 0
-701 16642 0
822 16642 0
1681 -1802 -17622 0
-1681 17622 0
1802 17622 0
12862 -11882 0
13842 -11882 0
-12862 -13842 11882 0
-12862 14822 0
-12862 16782 0
12862 -14822 -16782 0
-13842 15802 0
-13842 17762 0
13842 -15802 -17762 0
-841 962 -14822 0
841 14822 0
-962 14822 0
-1821 1942 -15802 0
1821 15802 0
-1942 15802 0
841 -962 -16782 0
-841 16782 0
962 16782 0
1821 -1942 -17762 0
-1821 17762 0
1942 17762 0
12023 -11883 0
13003 -11883 0
-12023 -13003 11883 0
-12023 13983 0
-12023 15943 0
12023 -13983 -15943 0
-13003 14963 0
-13003 16923 0
13003 -14963 -16923 0
-1 123 -13983 0
1 13983 0
-123 13983 0
-981 1103 -14963 0
981 14963 0
-1103 14963 0
1 -123 -15943 0
-1 15943 0
123 15943 0
981 -1103 -16923 0
-981 16923 0
1103 16923 0
12163 -11883 0
13143 -11883 0
-12163 -13143 11883 0
-12163 14123 0
-12163 16083 0
12163 -14123 -16083 0
-13143 15103 0
-13143 17063 0
13143 -15103 -17063 0
-141 263 -14123 0
141 14123 0
-263 14123 0
-1121 1243 -15103 0
1121 15103 0
-1243 15103 0
141 -263 -16083 0
-141 16083 0
263 16083 0
1121 -1243 -17063 0
-1121 17063 0
1243 17063 0
12303 -11883 0
13283 -11883 0
-12303 -13283 11883 0
-12303 14263 0
-12303 16223 0
12303 -14263 -16223 0
-13283 15243 0
-13283 17203 0
13283 -15243 -17203 0
-281 403 -14263 0
281 14263 0
-403 14263 0
-1261 1383 -15243 0
1261 15243 0
-1383 15243 0
281 -403 -16223 0
-281 16223 0
403 16223 0
1261 -1383 -17203 0
-1261 17203 0
1383 17203 0
12443 -11883 0
13423 -11883 0
-12443 -13423 11883 0
-12443 14403 0
-12443 16363 0
12443 -14403 -16363 0
-13423 15383 0
-13423 17343 0
13423 -15383 -17343 0
-421 543 -14403 0
421 14403 0
-543 14403 0
-1401 1523 -15383 0
1401 15383 0
-1523 15383 0
421 -543 -16363 0
-421 16363 0
543 16363 0
1401 -1523 -17343 0
-1401 17343 0
1523 17343 0
12583 -11883 0
13563 -11883 0
-12583 -13563 11883 0
-12583 14543 0
-12583 16503 0
12583 -14543 -16503 0
-13563 15523 0
-13563 17483 0
13563 -15523 -17483 0
-561 683 -14543 0
561 14543 0
-683 14543 0
-1541 1663 -15523 0
1541 15523 0
-1663 15523 0
561 -683 -16503 0
-561 16503 0
683 16503 0
1541 -1663 -17483 0
-1541 17483 0
1663 17483 0
12723 -11883 0
13703 -11883 0
-12723 -13703 11883 0
-12723 14683 0
-12723 16643 0
12723 -14683 -16643 0
-13703 15663 0
-13703 17623 0
13703 -15663 -17623 0
-701 823 -14683 0
701 14683 0
-823 14683 0
-1681 1803 -15663 0
1681 15663 0
-1803 15663 0
701 -823 -16643 0
-701 16643 0
823 16643 0
1681 -1803 -17623 0
-1681 17623 0
1803 17623 0
12863 -11883 0
13843 -11883 0
-12863 -13843 11883 0
-12863 14823 0
-12863 16783 0
12863 -14823 -16783 0
-13843 15803 0
-13843 17763 0
13843 -15803 -17763 0
-841 963 -14823 0
841 14823 0
-963 14823 0
-1821 1943 -15803 0
1821 15803 0
-1943 15803 0
841 -963 -16783 0
-841 16783 0
963 16783 0
1821 -1943 -17763 0
-1821 17763 0
1943 17763 0
12024 -11884 0
13004 -11884 0
-12024 -13004 11884 0
-12024 13984 0
-12024 15944 0
12024 -13984 -15944 0
-13004 14964 0
-13004 16924 0
13004 -14964 -16924 0
-1 124 -13984 0
1 13984 0
-124 13984 0
-981 1104 -14964 0
981 14964 0
-1104 14964 0
1 -124 -15944 0
-1 15944 0
124 15944 0
981 -1104 -16924 0
-981 16924 0
1104 16924 0
12164 -11884 0
13144 -11884 0
-12164 -13144 11884 0
-12164 14124 0
-12164 16084 0
12164 -14124 -16084 0
-13144 15104 0
-13144 17064 0
13144 -15104 -17064 0
-141 264 -14124 0
141 14124 0
-264 14124 0
-1121 1244 -15104 0
1121 15104 0
-1244 15104 0
141 -264 -16084 0
-141 16084 0
264 16084 0
1121 -1244 -17064 0
-1121 17064 0
1244 17064 0
12304 -11884 0
13284 -11884 0
-12304 -13284 11884 0
-12304 14264 0
-12304 16224 0
12304 -14264 -16224 0
-13284 15244 0
-13284 17204 0
13284 -15244 -17204 0
-281 404 -14264 0
281 14264 0
-404 14264 0
-1261 1384 -15244 0
1261 15244 0
-1384 15244 0
281 -404 -16224 0
-281 16224 0
404 16224 0
1261 -1384 -17204 0
-1261 17204 0
1384 17204 0
12444 -11884 0
13424 -11884 0
-12444 -13424 11884 0
-12444 14404 0
-12444 16364 0
12444 -14404 -16364 0
-13424 15384 0
-13424 17344 0
13424 -15384 -17344 0
-421 544 -14404 0
421 14404 0
-544 14404 0
-1401 1524 -15384 0
1401 15384 0
-1524 15384 0
421 -544 -16364 0
-421 16364 0
544 16364 0
1401 -1524 -17344 0
-1401 17344 0
1524 17344 0
12584 -11884 0
13564 -11884 0
-12584 -13564 11884 0
-12584 14544 0
-12584 16504 0
12584 -14544 -16504 0
-13564 15524 0
-13564 17484 0
13564 -15524 -17484 0
-561 684 -14544 0
561 14544 0
-684 14544 0
-1541 1664 -15524 0
1541 15524 0
-1664 15524 0
561 -684 -16504 0
-561 16504 0
684 16504 0
1541 -1664 -17484 0
-1541 17484 0
1664 17484 0
12724 -11884 0
13704 -11884 0
-12724 -13704 11884 0
-12724 14684 0
-12724 16644 0
12724 -14684 -16644 0
-13704 15664 0
-13704 17624 0
13704 -15664 -17624 0
-701 824 -14684 0
701 14684 0
-824 14684 0
-1681 1804 -15664 0
1681 15664 0
-1804 15664 0
701 -824 -16644 0
-701 16644 0
824 16644 0
1681 -1804 -17624 0
-1681 17624 0
1804 17624 0
12864 -11884 0
13844 -11884 0
-12864 -13844 11884 0
-12864 14824 0
-12864 16784 0
12864 -14824 -16784 0
-13844 15804 0
-13844 17764 0
13844 -15804 -17764 0
-841 964 -14824 0
841 14824 0
-964 14824 0
-1821 1944 -15804 0
1821 15804 0
-1944 15804 0
841 -964 -16784 0
-841 16784 0
964 16784 0
1821 -1944 -17764 0
-1821 17764 0
1944 17764 0
12025 -11885 0
13005 -11885 0
-12025 -13005 11885 0
-12025 13985 0
-12025 15945 0
12025 -13985 -15945 0
-13005 14965 0
-13005 16925 0
13005 -14965 -16925 0
-1 125 -13985 0
1 13985 0
-125 13985 0
-981 1105 -14965 0
981 14965 0
-1105 14965 0
1 -125 -15945 0
-1 15945 0
125 15945 0
981 -1105 -16925 0
-981 16925 0
1105 16925 0
12165 -11885 0
13145 -11885 0
-12165 -13145 11885 0
-12165 14125 0
-12165 16085 0
12165 -14125 -16085 0
-13145 15105 0
-13145 17065 0
13145 -15105 -17065 0
-141 265 -14125 0
141 14125 0
-265 14125 0
-1121 1245 -15105 0
1121 15105 0
-1245 15105 0
141 -265 -16085 0
-141 16085 0
265 16085 0
1121 -1245 -17065 0
-1121 17065 0
1245 17065 0
12305 -11885 0
13285 -11885 0
-12305 -13285 11885 0
-12305 14265 0
-12305 16225 0
12305 -14265 -16225 0
-13285 15245 0
-13285 17205 0
13285 -15245 -17205 0
-281 405 -14265 0
281 14265 0
-405 14265 0
-1261 1385 -15245 0
1261 15245 0
-1385 15245 0
281 -405 -16225 0
-281 16225 0
405 16225 0
1261 -1385 -17205 0
-1261 17205 0
1385 17205 0
12445 -11885 0
13425 -11885 0
-12445 -13425 11885 0
-12445 14405 0
-12445 16365 0
12445 -14405 -16365 0
-13425 15385 0
-13425 17345 0
13425 -15385 -17345 0
-421 545 -14405 0
421 14405 0
-545 14405 0
-1401 1525 -15385 0
1401 15385 0
-1525 15385 0
421 -545 -16365 0
-421 16365 0
545 16365 0
1401 -1525 -17345 0
-1401 17345 0
1525 17345 0
12585 -11885 0
13565 -11885 0
-12585 -13565 11885 0
-12585 14545 0
-12585 16505 0
12585 -14545 -16505 0
-13565 15525 0
-13565 17485 0
13565 -15525 -17485 0
-561 685 -14545 0
561 14545 0
-685 14545 0
-1541 1665 -15525 0
1541 15525 0
-1665 15525 0
561 -685 -16505 0
-561 16505 0
685 16505 0
1541 -1665 -17485 0
-1541 17485 0
1665 17485 0
12725 -11885 0
13705 -11885 0
-12725 -13705 11885 0
-12725 14685 0
-12725 16645 0
12725 -14685 -16645 0
-13705 15665 0
-13705 17625 0
13705 -15665 -17625 0
-701 825 -14685 0
701 14685 0
-825 14685 0
-1681 1805 -15665 0
1681 15665 0
-1805 15665 0
701 -825 -16645 0
-701 16645 0
825 16645 0
1681 -1805 -17625 0
-1681 17625 0
1805 17625 0
12865 -11885 0
13845 -11885 0
-12865 -13845 11885 0
-12865 14825 0
-12865 16785 0
12865 -14825 -16785 0
-13845 15805 0
-13845 17765 0
13845 -15805 -17765 0
-841 965 -14825 0
841 14825 0
-965 14825 0
-1821 1945 -15805 0
1821 15805 0
-1945 15805 0
841 -965 -16785 0
-841 16785 0
965 16785 0
1821 -1945 -17765 0
-1821 17765 0
1945 17765 0
12026 -11886 0
13006 -11886 0
-12026 -13006 11886 0
-12026 13986 0
-12026 15946 0
12026 -13986 -15946 0
-13006 14966 0
-13006 16926 0
13006 -14966 -16926 0
-1 126 -13986 0
1 13986 0
-126 13986 0
-981 1106 -14966 0
981 14966 0
-1106 14966 0
1 -126 -15946 0
-1 15946 0
126 15946 0
981 -1106 -16926 0
-981 16926 0
1106 16926 0
12166 -11886 0
13146 -11886 0
-12166 -13146 11886 0
-12166 14126 0
-12166 16086 0
12166 -14126 -16086 0
-13146 15106 0
-13146 17066 0
13146 -15106 -17066 0
-141 266 -14126 0
141 14126 0
-266 14126 0
-1121 1246 -15106 0
1121 15106 0
-1246 15106 0
141 -266 -16086 0
-141 16086 0
266 16086 0
1121 -1246 -17066 0
-1121 17066 0
1246 17066 0
12306 -11886 0
13286 -11886 0
-12306 -13286 11886 0
-12306 14266 0
-12306 16226 0
12306 -14266 -16226 0
-13286 15246 0
-13286 17206 0
13286 -15246 -17206 0
-281 406 -14266 0
281 14266 0
-406 14266 0
-1261 1386 -15246 0
1261 15246 0
-1386 15246 0
281 -406 -16226 0
-281 16226 0
406 16226 0
1261 -1386 -17206 0
-1261 17206 0
1386 17206 0
12446 -11886 0
13426 -11886 0
-12446 -13426 11886 0
-12446 14406 0
-12446 16366 0
12446 -14406 -16366 0
-13426 15386 0
-13426 17346 0
13426 -15386 -17346 0
-421 546 -14406 0
421 14406 0
-546 14406 0
-1401 1526 -15386 0
1401 15386 0
-1526 15386 0
421 -546 -16366 0
-421 16366 0
546 16366 0
1401 -1526 -17346 0
-1401 17346 0
1526 17346 0
12586 -11886 0
13566 -11886 0
-12586 -13566 11886 0
-12586 14546 0
-12586 16506 0
12586 -14546 -16506 0
-13566 15526 0
-13566 17486 0
13566 -15526 -17486 0
-561 686 -14546 0
561 14546 0
-686 14546 0
-1541 1666 -15526 0
1541 15526 0
-1666 15526 0
561 -686 -16506 0
-561 16506 0
686 16506 0
1541 -1666 -17486 0
-1541 17486 0
1666 17486 0
12726 -11886 0
13706 -11886 0
-12726 -13706 11886 0
-12726 14686 0
-12726 16646 0
12726 -14686 -16646 0
-13706 15666 0
-13706 17626 0
13706 -15666 -17626 0
-701 826 -14686 0
701 14686 0
-826 14686 0
-1681 1806 -15666 0
1681 15666 0
-1806 15666 0
701 -826 -16646 0
-701 16646 0
826 16646 0
1681 -1806 -17626 0
-1681 17626 0
1806 17626 0
12866 -11886 0
13846 -11886 0
-12866 -13846 11886 0
-12866 14826 0
-12866 16786 0
12866 -14826 -16786 0
-13846 15806 0
-13846 17766 0
13846 -15806 -17766 0
-841 966 -14826 0
841 14826 0
-966 14826 0
-1821 1946 -15806 0
1821 15806 0
-1946 15806 0
841 -966 -16786 0
-841 16786 0
966 16786 0
1821 -1946 -17766 0
-1821 17766 0
1946 17766 0
12027 -11887 0
13007 -11887 0
-12027 -13007 11887 0
-12027 13987 0
-12027 15947 0
12027 -13987 -15947 0
-13007 14967 0
-13007 16927 0
13007 -14967 -16927 0
-1 127 -13987 0
1 13987 0
-127 13987 0
-981 1107 -14967 0
981 14967 0
-1107 14967 0
1 -127 -15947 0
-1 15947 0
127 15947 0
981 -1107 -16927 0
-981 16927 0
1107 16927 0
12167 -11887 0
13147 -11887 0
-12167 -13147 11887 0
-12167 14127 0
-12167 16087 0
12167 -14127 -16087 0
-13147 15107 0
-13147 17067 0
13147 -15107 -17067 0
-141 267 -14127 0
141 14127 0
-267 14127 0
-1121 1247 -15107 0
1121 15107 0
-1247 15107 0
141 -267 -16087 0
-141 16087 0
267 16087 0
1121 -1247 -17067 0
-1121 17067 0
1247 17067 0
12307 -11887 0
13287 -11887 0
-12307 -13287 11887 0
-12307 14267 0
-12307 16227 0
12307 -14267 -16227 0
-13287 15247 0
-13287 17207 0
13287 -15247 -17207 0
-281 407 -14267 0
281 14267 0
-407 14267 0
-1261 1387 -15247 0
1261 15247 0
-1387 15247 0
281 -407 -16227 0
-281 16227 0
407 16227 0
1261 -1387 -17207 0
-1261 17207 0
1387 17207 0
12447 -11887 0
13427 -11887 0
-12447 -13427 11887 0
-12447 14407 0
-12447 16367 0
12447 -14407 -16367 0
-13427 15387 0
-13427 17347 0
13427 -15387 -17347 0
-421 547 -14407 0
421 14407 0
-547 14407 0
-1401 1527 -15387 0
1401 15387 0
-1527 15387 0
421 -547 -16367 0
-421 16367 0
547 16367 0
1401 -1527 -17347 0
-1401 17347 0
1527 17347 0
12587 -11887 0
13567 -11887 0
-12587 -13567 11887 0
-12587 14547 0
-12587 16507 0
12587 -14547 -16507 0
-13567 15527 0
-13567 17487 0
13567 -15527 -17487 0
-561 687 -14547 0
561 14547 0
-687 14547 0
-1541 1667 -15527 0
1541 15527 0
-1667 15527 0
561 -687 -16507 0
-561 16507 0
687 16507 0
1541 -1667 -17487 0
-1541 17487 0
1667 17487 0
12727 -11887 0
13707 -11887 0
-12727 -13707 11887 0
-12727 14687 0
-12727 16647 0
12727 -14687 -16647 0
-13707 15667 0
-13707 17627 0
13707 -15667 -17627 0
-701 827 -14687 0
701 14687 0
-827 14687 0
-1681 1807 -15667 0
1681 15667 0
-1807 15667 0
701 -827 -16647 0
-701 16647 0
827 16647 0
1681 -1807 -17627 0
-1681 17627 0
1807 17627 0
12867 -11887 0
13847 -11887 0
-12867 -13847 11887 0
-12867 14827 0
-12867 16787 0
12867 -14827 -16787 0
-13847 15807 0
-13847 17767 0
13847 -15807 -17767 0
-841 967 -14827 0
841 14827 0
-967 14827 0
-1821 1947 -15807 0
1821 15807 0
-1947 15807 0
841 -967 -16787 0
-841 16787 0
967 16787 0
1821 -1947 -17767 0
-1821 17767 0
1947 17767 0
12028 -11888 0
13008 -11888 0
-12028 -13008 11888 0
-12028 13988 0
-12028 15948 0
12028 -13988 -15948 0
-13008 14968 0
-13008 16928 0
13008 -14968 -16928 0
-1 128 -13988 0
1 13988 0
-128 13988 0
-981 1108 -14968 0
981 14968 0
-1108 14968 0
1 -128 -15948 0
-1 15948 0
128 15948 0
981 -1108 -16928 0
-981 16928 0
1108 16928 0
12168 -11888 0
13148 -11888 0
-12168 -13148 11888 0
-12168 14128 0
-12168 16088 0
12168 -14128 -16088 0
-13148 15108 0
-13148 17068 0
13148 -15108 -17068 0
-141 268 -14128 0
141 14128 0
-268 14128 0
-1121 1248 -15108 0
1121 15108 0
-1248 15108 0
141 -268 -16088 0
-141 16088 0
268 16088 0
1121 -1248 -17068 0
-1121 17068 0
1248 17068 0
12308 -11888 0
13288 -11888 0
-12308 -13288 11888 0
-12308 14268 0
-12308 16228 0
12308 -14268 -16228 0
-13288 15248 0
-13288 17208 0
13288 -15248 -17208 0
-281 408 -14268 0
281 14268 0
-408 14268 0
-1261 1388 -15248 0
1261 15248 0
-1388 15248 0
281 -408 -16228 0
-281 16228 0
408 16228 0
1261 -1388 -17208 0
-1261 17208 0
1388 17208 0
12448 -11888 0
13428 -11888 0
-12448 -13428 11888 0
-12448 14408 0
-12448 16368 0
12448 -14408 -16368 0
-13428 15388 0
-13428 17348 0
13428 -15388 -17348 0
-421 548 -14408 0
421 14408 0
-548 14408 0
-1401 1528 -15388 0
1401 15388 0
-1528 15388 0
421 -548 -16368 0
-421 16368 0
548 16368 0
1401 -1528 -17348 0
-1401 17348 0
1528 17348 0
12588 -11888 0
13568 -11888 0
-12588 -13568 11888 0
-12588 14548 0
-12588 16508 0
12588 -14548 -16508 0
-13568 15528 0
-13568 17488 0
13568 -15528 -17488 0
-561 688 -14548 0
561 14548 0
-688 14548 0
-1541 1668 -15528 0
1541 15528 0
-1668 15528 0
561 -688 -16508 0
-561 16508 0
688 16508 0
1541 -1668 -17488 0
-1541 17488 0
1668 17488 0
12728 -11888 0
13708 -11888 0
-12728 -13708 11888 0
-12728 14688 0
-12728 16648 0
12728 -14688 -16648 0
-13708 15668 0
-13708 17628 0
13708 -15668 -17628 0
-701 828 -14688 0
701 14688 0
-828 14688 0
-1681 1808 -15668 0
1681 15668 0
-1808 15668 0
701 -828 -16648 0
-701 16648 0
828 16648 0
1681 -1808 -17628 0
-1681 17628 0
1808 17628 0
12868 -11888 0
13848 -11888 0
-12868 -13848 11888 0
-12868 14828 0
-12868 16788 0
12868 -14828 -16788 0
-13848 15808 0
-13848 17768 0
13848 -15808 -17768 0
-841 968 -14828 0
841 14828 0
-968 14828 0
-1821 1948 -15808 0
1821 15808 0
-1948 15808 0
841 -968 -16788 0
-841 16788 0
968 16788 0
1821 -1948 -17768 0
-1821 17768 0
1948 17768 0
12029 -11889 0
13009 -11889 0
-12029 -13009 11889 0
-12029 13989 0
-12029 15949 0
12029 -13989 -15949 0
-13009 14969 0
-13009 16929 0
13009 -14969 -16929 0
-1 129 -13989 0
1 13989 0
-129 13989 0
-981 1109 -14969 0
981 14969 0
-1109 14969 0
1 -129 -15949 0
-1 15949 0
129 15949 0
981 -1109 -16929 0
-981 16929 0
1109 16929 0
12169 -11889 0
13149 -11889 0
-12169 -13149 11889 0
-12169 14129 0
-12169 16089 0
12169 -14129 -16089 0
-13149 15109 0
-13149 17069 0
13149 -15109 -17069 0
-141 269 -14129 0
141 14129 0
-269 14129 0
-1121 1249 -15109 0
1121 15109 0
-1249 15109 0
141 -269 -16089 0
-141 16089 0
269 16089 0
1121 -1249 -17069 0
-1121 17069 0
1249 17069 0
12309 -11889 0
13289 -11889 0
-12309 -13289 11889 0
-12309 14269 0
-12309 16229 0
12309 -14269 -16229 0
-13289 15249 0
-13289 17209 0
13289 -15249 -17209 0
-281 409 -14269 0
281 14269 0
-409 14269 0
-1261 1389 -15249 0
1261 15249 0
-1389 15249 0
281 -409 -16229 0
-281 16229 0
409 16229 0
1261 -1389 -17209 0
-1261 17209 0
1389 17209 0
12449 -11889 0
13429 -11889 0
-12449 -13429 11889 0
-12449 14409 0
-12449 16369 0
12449 -14409 -16369 0
-13429 15389 0
-13429 17349 0
13429 -15389 -17349 0
-421 549 -14409 0
421 14409 0
-549 14409 0
-1401 1529 -15389 0
1401 15389 0
-1529 15389 0
421 -549 -16369 0
-421 16369 0
549 16369 0
1401 -1529 -17349 0
-1401 17349 0
1529 17349 0
12589 -11889 0
13569 -11889 0
-12589 -13569 11889 0
-12589 14549 0
-12589 16509 0
12589 -14549 -16509 0
-13569 15529 0
-13569 17489 0
13569 -15529 -17489 0
-561 689 -14549 0
561 14549 0
-689 14549 0
-1541 1669 -15529 0
1541 15529 0
-1669 15529 0
561 -689 -16509 0
-561 16509 0
689 16509 0
1541 -1669 -17489 0
-1541 17489 0
1669 17489 0
12729 -11889 0
13709 -11889 0
-12729 -13709 11889 0
-12729 14689 0
-12729 16649 0
12729 -14689 -16649 0
-13709 15669 0
-13709 17629 0
13709 -15669 -17629 0
-701 829 -14689 0
701 14689 0
-829 14689 0
-1681 1809 -15669 0
1681 15669 0
-1809 15669 0
701 -829 -16649 0
-701 16649 0
829 16649 0
1681 -1809 -17629 0
-1681 17629 0
1809 17629 0
12869 -11889 0
13849 -11889 0
-12869 -13849 11889 0
-12869 14829 0
-12869 16789 0
12869 -14829 -16789 0
-13849 15809 0
-13849 17769 0
13849 -15809 -17769 0
-841 969 -14829 0
841 14829 0
-969 14829 0
-1821 1949 -15809 0
1821 15809 0
-1949 15809 0
841 -969 -16789 0
-841 16789 0
969 16789 0
1821 -1949 -17769 0
-1821 17769 0
1949 17769 0
12030 -11890 0
13010 -11890 0
-12030 -13010 11890 0
-12030 13990 0
-12030 15950 0
12030 -13990 -15950 0
-13010 14970 0
-13010 16930 0
13010 -14970 -16930 0
-1 130 -13990 0
1 13990 0
-130 13990 0
-981 1110 -14970 0
981 14970 0
-1110 14970 0
1 -130 -15950 0
-1 15950 0
130 15950 0
981 -1110 -16930 0
-981 16930 0
1110 16930 0
12170 -11890 0
13150 -11890 0
-12170 -13150 11890 0
-12170 14130 0
-12170 16090 0
12170 -14130 -16090 0
-13150 15110 0
-13150 17070 0
13150 -15110 -17070 0
-141 270 -14130 0
141 14130 0
-270 14130 0
-1121 1250 -15110 0
1121 15110 0
-1250 15110 0
141 -270 -16090 0
-141 16090 0
270 16090 0
1121 -1250 -17070 0
-1121 17070 0
1250 17070 0
12310 -11890 0
13290 -11890 0
-12310 -13290 11890 0
-12310 14270 0
-12310 16230 0
12310 -14270 -16230 0
-13290 15250 0
-13290 17210 0
13290 -15250 -17210 0
-281 410 -14270 0
281 14270 0
-410 14270 0
-1261 1390 -15250 0
1261 15250 0
-1390 15250 0
281 -410 -16230 0
-281 16230 0
410 16230 0
1261 -1390 -17210 0
-1261 17210 0
1390 17210 0
12450 -11890 0
13430 -11890 0
-12450 -13430 11890 0
-12450 14410 0
-12450 16370 0
12450 -14410 -16370 0
-13430 15390 0
-13430 17350 0
13430 -15390 -17350 0
-421 550 -14410 0
421 14410 0
-550 14410 0
-1401 1530 -15390 0
1401 15390 0
-1530 15390 0
421 -550 -16370 0
-421 16370 0
550 16370 0
1401 -1530 -17350 0
-1401 17350 0
1530 17350 0
12590 -11890 0
13570 -11890 0
-12590 -13570 11890 0
-12590 14550 0
-12590 16510 0
12590 -14550 -16510 0
-13570 15530 0
-13570 17490 0
13570 -15530 -17490 0
-561 690 -14550 0
561 14550 0
-690 14550 0
-1541 1670 -15530 0
1541 15530 0
-1670 15530 0
561 -690 -16510 0
-561 16510 0
690 16510 0
1541 -1670 -17490 0
-1541 17490 0
1670 17490 0
12730 -11890 0
13710 -11890 0
-12730 -13710 11890 0
-12730 14690 0
-12730 16650 0
12730 -14690 -16650 0
-13710 15670 0
-13710 17630 0
13710 -15670 -17630 0
-701 830 -14690 0
701 14690 0
-830 14690 0
-1681 1810 -15670 0
1681 15670 0
-1810 15670 0
701 -830 -16650 0
-701 16650 0
830 16650 0
1681 -1810 -17630 0
-1681 17630 0
1810 17630 0
12870 -11890 0
13850 -11890 0
-12870 -13850 11890 0
-12870 14830 0
-12870 16790 0
12870 -14830 -16790 0
-13850 15810 0
-13850 17770 0
13850 -15810 -17770 0
-841 970 -14830 0
841 14830 0
-970 14830 0
-1821 1950 -15810 0
1821 15810 0
-1950 15810 0
841 -970 -16790 0
-841 16790 0
970 16790 0
1821 -1950 -17770 0
-1821 17770 0
1950 17770 0
12031 -11891 0
13011 -11891 0
-12031 -13011 11891 0
-12031 13991 0
-12031 15951 0
12031 -13991 -15951 0
-13011 14971 0
-13011 16931 0
13011 -14971 -16931 0
-1 131 -13991 0
1 13991 0
-131 13991 0
-981 1111 -14971 0
981 14971 0
-1111 14971 0
1 -131 -15951 0
-1 15951 0
131 15951 0
981 -1111 -16931 0
-981 16931 0
1111 16931 0
12171 -11891 0
13151 -11891 0
-12171 -13151 11891 0
-12171 14131 0
-12171 16091 0
12171 -14131 -16091 0
-13151 15111 0
-13151 17071 0
13151 -15111 -17071 0
-141 271 -14131 0
141 14131 0
-271 14131 0
-1121 1251 -15111 0
1121 15111 0
-1251 15111 0
141 -271 -16091 0
-141 16091 0
271 16091 0
1121 -1251 -17071 0
-1121 17071 0
1251 17071 0
12311 -11891 0
13291 -11891 0
-12311 -13291 11891 0
-12311 14271 0
-12311 16231 0
12311 -14271 -16231 0
-13291 15251 0
-13291 17211 0
13291 -15251 -17211 0
-281 411 -14271 0
281 14271 0
-411 14271 0
-1261 1391 -15251 0
1261 15251 0
-1391 15251 0
281 -411 -16231 0
-281 16231 0
411 16231 0
1261 -1391 -17211 0
-1261 17211 0
1391 17211 0
12451 -11891 0
13431 -11891 0
-12451 -13431 11891 0
-12451 14411 0
-12451 16371 0
12451 -14411 -16371 0
-13431 15391 0
-13431 17351 0
13431 -15391 -17351 0
-421 551 -14411 0
421 14411 0
-551 14411 0
-1401 1531 -15391 0
1401 15391 0
-1531 15391 0
421 -551 -16371 0
-421 16371 0
551 16371 0
1401 -1531 -17351 0
-1401 17351 0
1531 17351 0
12591 -11891 0
13571 -11891 0
-12591 -13571 11891 0
-12591 14551 0
-12591 16511 0
12591 -14551 -16511 0
-13571 15531 0
-13571 17491 0
13571 -15531 -17491 0
-561 691 -14551 0
561 14551 0
-691 14551 0
-1541 1671 -15531 0
1541 15531 0
-1671 15531 0
561 -691 -16511 0
-561 16511 0
691 16511 0
1541 -1671 -17491 0
-1541 17491 0
1671 17491 0
12731 -11891 0
13711 -11891 0
-12731 -13711 11891 0
-12731 14691 0
-12731 16651 0
12731 -14691 -16651 0
-13711 15671 0
-13711 17631 0
13711 -15671 -17631 0
-701 831 -14691 0
701 14691 0
-831 14691 0
-1681 1811 -15671 0
1681 15671 0
-1811 15671 0
701 -831 -16651 0
-701 16651 0
831 16651 0
1681 -1811 -17631 0
-1681 17631 0
1811 17631 0
12871 -11891 0
13851 -11891 0
-12871 -13851 11891 0
-12871 14831 0
-12871 16791 0
12871 -14831 -16791 0
-13851 15811 0
-13851 17771 0
13851 -15811 -17771 0
-841 971 -14831 0
841 14831 0
-971 14831 0
-1821 1951 -15811 0
1821 15811 0
-1951 15811 0
841 -971 -16791 0
-841 16791 0
971 16791 0
1821 -1951 -17771 0
-1821 17771 0
1951 17771 0
12032 -11892 0
13012 -11892 0
-12032 -13012 11892 0
-12032 13992 0
-12032 15952 0
12032 -13992 -15952 0
-13012 14972 0
-13012 16932 0
13012 -14972 -16932 0
-1 132 -13992 0
1 13992 0
-132 13992 0
-981 1112 -14972 0
981 14972 0
-1112 14972 0
1 -132 -15952 0
-1 15952 0
132 15952 0
981 -1112 -16932 0
-981 16932 0
1112 16932 0
12172 -11892 0
13152 -11892 0
-12172 -13152 11892 0
-12172 14132 0
-12172 16092 0
12172 -14132 -16092 0
-13152 15112 0
-13152 17072 0
13152 -15112 -17072 0
-141 272 -14132 0
141 14132 0
-272 14132 0
-1121 1252 -15112 0
1121 15112 0
-1252 15112 0
141 -272 -16092 0
-141 16092 0
272 16092 0
1121 -1252 -17072 0
-1121 17072 0
1252 17072 0
12312 -11892 0
13292 -11892 0
-12312 -13292 11892 0
-12312 14272 0
-12312 16232 0
12312 -14272 -16232 0
-13292 15252 0
-13292 17212 0
13292 -15252 -17212 0
-281 412 -14272 0
281 14272 0
-412 14272 0
-1261 1392 -15252 0
1261 15252 0
-1392 15252 0
281 -412 -16232 0
-281 16232 0
412 16232 0
1261 -1392 -17212 0
-1261 17212 0
1392 17212 0
12452 -11892 0
13432 -11892 0
-12452 -13432 11892 0
-12452 14412 0
-12452 16372 0
12452 -14412 -16372 0
-13432 15392 0
-13432 17352 0
13432 -15392 -17352 0
-421 552 -14412 0
421 14412 0
-552 14412 0
-1401 1532 -15392 0
1401 15392 0
-1532 15392 0
421 -552 -16372 0
-421 16372 0
552 16372 0
1401 -1532 -17352 0
-1401 17352 0
1532 17352 0
12592 -11892 0
13572 -11892 0
-12592 -13572 11892 0
-12592 14552 0
-12592 16512 0
12592 -14552 -16512 0
-13572 15532 0
-13572 17492 0
13572 -15532 -17492 0
-561 692 -14552 0
561 14552 0
-692 14552 0
-1541 1672 -15532 0
1541 15532 0
-1672 15532 0
561 -692 -16512 0
-561 16512 0
692 16512 0
1541 -1672 -17492 0
-1541 17492 0
1672 17492 0
12732 -11892 0
13712 -11892 0
-12732 -13712 11892 0
-12732 14692 0
-12732 16652 0
12732 -14692 -16652 0
-13712 15672 0
-13712 17632 0
13712 -15672 -17632 0
-701 832 -14692 0
701 14692 0
-832 14692 0
-1681 1812 -15672 0
1681 15672 0
-1812 15672 0
701 -832 -16652 0
-701 16652 0
832 16652 0
1681 -1812 -17632 0
-1681 17632 0
1812 17632 0
12872 -11892 0
13852 -11892 0
-12872 -13852 11892 0
-12872 14832 0
-12872 16792 0
12872 -14832 -16792 0
-13852 15812 0
-13852 17772 0
13852 -15812 -17772 0
-841 972 -14832 0
841 14832 0
-972 14832 0
-1821 1952 -15812 0
1821 15812 0
-1952 15812 0
841 -972 -16792 0
-841 16792 0
972 16792 0
1821 -1952 -17772 0
-1821 17772 0
1952 17772 0
12033 -11893 0
13013 -11893 0
-12033 -13013 11893 0
-12033 13993 0
-12033 15953 0
12033 -13993 -15953 0
-13013 14973 0
-13013 16933 0
13013 -14973 -16933 0
-1 133 -13993 0
1 13993 0
-133 13993 0
-981 1113 -14973 0
981 14973 0
-1113 14973 0
1 -133 -15953 0
-1 15953 0
133 15953 0
981 -1113 -16933 0
-981 16933 0
1113 16933 0
12173 -11893 0
13153 -11893 0
-12173 -13153 11893 0
-12173 14133 0
-12173 16093 0
12173 -14133 -16093 0
-13153 15113 0
-13153 17073 0
13153 -15113 -17073 0
-141 273 -14133 0
141 14133 0
-273 14133 0
-1121 1253 -15113 0
1121 15113 0
-1253 15113 0
141 -273 -16093 0
-141 16093 0
273 16093 0
1121 -1253 -17073 0
-1121 17073 0
1253 17073 0
12313 -11893 0
13293 -11893 0
-12313 -13293 11893 0
-12313 14273 0
-12313 16233 0
12313 -14273 -16233 0
-13293 15253 0
-13293 17213 0
13293 -15253 -17213 0
-281 413 -14273 0
281 14273 0
-413 14273 0
-1261 1393 -15253 0
1261 15253 0
-1393 15253 0
281 -413 -16233 0
-281 16233 0
413 16233 0
1261 -1393 -17213 0
-1261 17213 0
1393 17213 0
12453 -11893 0
13433 -11893 0
-12453 -13433 11893 0
-12453 14413 0
-12453 16373 0
12453 -14413 -16373 0
-13433 15393 0
-13433 17353 0
13433 -15393 -17353 0
-421 553 -14413 0
421 14413 0
-553 14413 0
-1401 1533 -15393 0
1401 15393 0
-1533 15393 0
421 -553 -16373 0
-421 16373 0
553 16373 0
1401 -1533 -17353 0
-1401 17353 0
1533 17353 0
12593 -11893 0
13573 -11893 0
-12593 -13573 11893 0
-12593 14553 0
-12593 16513 0
12593 -14553 -16513 0
-13573 15533 0
-13573 17493 0
13573 -15533 -17493 0
-561 693 -14553 0
561 14553 0
-693 14553 0
-1541 1673 -15533 0
1541 15533 0
-1673 15533 0
561 -693 -16513 0
-561 16513 0
693 16513 0
1541 -1673 -17493 0
-1541 17493 0
1673 17493 0
12733 -11893 0
13713 -11893 0
-12733 -13713 11893 0
-12733 14693 0
-12733 16653 0
12733 -14693 -16653 0
-13713 15673 0
-13713 17633 0
13713 -15673 -17633 0
-701 833 -14693 0
701 14693 0
-833 14693 0
-1681 1813 -15673 0
1681 15673 0
-1813 15673 0
701 -833 -16653 0
-701 16653 0
833 16653 0
1681 -1813 -17633 0
-1681 17633 0
1813 17633 0
12873 -11893 0
13853 -11893 0
-12873 -13853 11893 0
-12873 14833 0
-12873 16793 0
12873 -14833 -16793 0
-13853 15813 0
-13853 17773 0
13853 -15813 -17773 0
-841 973 -14833 0
841 14833 0
-973 14833 0
-1821 1953 -15813 0
1821 15813 0
-1953 15813 0
841 -973 -16793 0
-841 16793 0
973 16793 0
1821 -1953 -17773 0
-1821 17773 0
1953 17773 0
12034 -11894 0
13014 -11894 0
-12034 -13014 11894 0
-12034 13994 0
-12034 15954 0
12034 -13994 -15954 0
-13014 14974 0
-13014 16934 0
13014 -14974 -16934 0
-1 134 -13994 0
1 13994 0
-134 13994 0
-981 1114 -14974 0
981 14974 0
-1114 14974 0
1 -134 -15954 0
-1 15954 0
134 15954 0
981 -1114 -16934 0
-981 16934 0
1114 16934 0
12174 -11894 0
13154 -11894 0
-12174 -13154 11894 0
-12174 14134 0
-12174 16094 0
12174 -14134 -16094 0
-13154 15114 0
-13154 17074 0
13154 -15114 -17074 0
-141 274 -14134 0
141 14134 0
-274 14134 0
-1121 1254 -15114 0
1121 15114 0
-1254 15114 0
141 -274 -16094 0
-141 16094 0
274 16094 0
1121 -1254 -17074 0
-1121 17074 0
1254 17074 0
12314 -11894 0
13294 -11894 0
-12314 -13294 11894 0
-12314 14274 0
-12314 16234 0
12314 -14274 -16234 0
-13294 15254 0
-13294 17214 0
13294 -15254 -17214 0
-281 414 -14274 0
281 14274 0
-414 14274 0
-1261 1394 -15254 0
1261 15254 0
-1394 15254 0
281 -414 -16234 0
-281 16234 0
414 16234 0
1261 -1394 -17214 0
-1261 17214 0
1394 17214 0
12454 -11894 0
13434 -11894 0
-12454 -13434 11894 0
-12454 14414 0
-12454 16374 0
12454 -14414 -16374 0
-13434 15394 0
-13434 17354 0
13434 -15394 -17354 0
-421 554 -14414 0
421 14414 0
-554 14414 0
-1401 1534 -15394 0
1401 15394 0
-1534 15394 0
421 -554 -16374 0
-421 16374 0
554 16374 0
1401 -1534 -17354 0
-1401 17354 0
1534 17354 0
12594 -11894 0
13574 -11894 0
-12594 -13574 11894 0
-12594 14554 0
-12594 16514 0
12594 -14554 -16514 0
-13574 15534 0
-13574 17494 0
13574 -15534 -17494 0
-561 694 -14554 0
561 14554 0
-694 14554 0
-1541 1674 -15534 0
1541 15534 0
-1674 15534 0
561 -694 -16514 0
-561 16514 0
694 16514 0
1541 -1674 -17494 0
-1541 17494 0
1674 17494 0
12734 -11894 0
13714 -11894 0
-12734 -13714 11894 0
-12734 14694 0
-12734 16654 0
12734 -14694 -16654 0
-13714 15674 0
-13714 17634 0
13714 -15674 -17634 0
-701 834 -14694 0
701 14694 0
-834 14694 0
-1681 1814 -15674 0
1681 15674 0
-1814 15674 0
701 -834 -16654 0
-701 16654 0
834 16654 0
1681 -1814 -17634 0
-1681 17634 0
1814 17634 0
12874 -11894 0
13854 -11894 0
-12874 -13854 11894 0
-12874 14834 0
-12874 16794 0
12874 -14834 -16794 0
-13854 15814 0
-13854 17774 0
13854 -15814 -17774 0
-841 974 -14834 0
841 14834 0
-974 14834 0
-1821 1954 -15814 0
1821 15814 0
-1954 15814 0
841 -974 -16794 0
-841 16794 0
974 16794 0
1821 -1954 -17774 0
-1821 17774 0
1954 17774 0
12035 -11895 0
13015 -11895 0
-12035 -13015 11895 0
-12035 13995 0
-12035 15955 0
12035 -13995 -15955 0
-13015 14975 0
-13015 16935 0
13015 -14975 -16935 0
-1 135 -13995 0
1 13995 0
-135 13995 0
-981 1115 -14975 0
981 14975 0
-1115 14975 0
1 -135 -15955 0
-1 15955 0
135 15955 0
981 -1115 -16935 0
-981 16935 0
1115 16935 0
12175 -11895 0
13155 -11895 0
-12175 -13155 11895 0
-12175 14135 0
-12175 16095 0
12175 -14135 -16095 0
-13155 15115 0
-13155 17075 0
13155 -15115 -17075 0
-141 275 -14135 0
141 14135 0
-275 14135 0
-1121 1255 -15115 0
1121 15115 0
-1255 15115 0
141 -275 -16095 0
-141 16095 0
275 16095 0
1121 -1255 -17075 0
-1121 17075 0
1255 17075 0
12315 -11895 0
13295 -11895 0
-12315 -13295 11895 0
-12315 14275 0
-12315 16235 0
12315 -14275 -16235 0
-13295 15255 0
-13295 17215 0
13295 -15255 -17215 0
-281 415 -14275 0
281 14275 0
-415 14275 0
-1261 1395 -15255 0
1261 15255 0
-1395 15255 0
281 -415 -16235 0
-281 16235 0
415 16235 0
1261 -1395 -17215 0
-1261 17215 0
1395 17215 0
12455 -11895 0
13435 -11895 0
-12455 -13435 11895 0
-12455 14415 0
-12455 16375 0
12455 -14415 -16375 0
-13435 15395 0
-13435 17355 0
13435 -15395 -17355 0
-421 555 -14415 0
421 14415 0
-555 14415 0
-1401 1535 -15395 0
1401 15395 0
-1535 15395 0
421 -555 -16375 0
-421 16375 0
555 16375 0
1401 -1535 -17355 0
-1401 17355 0
1535 17355 0
12595 -11895 0
13575 -11895 0
-12595 -13575 11895 0
-12595 14555 0
-12595 16515 0
12595 -14555 -16515 0
-13575 15535 0
-13575 17495 0
13575 -15535 -17495 0
-561 695 -14555 0
561 14555 0
-695 14555 0
-1541 1675 -15535 0
1541 15535 0
-1675 15535 0
561 -695 -16515 0
-561 16515 0
695 16515 0
1541 -1675 -17495 0
-1541 17495 0
1675 17495 0
12735 -11895 0
13715 -11895 0
-12735 -13715 11895 0
-12735 14695 0
-12735 16655 0
12735 -14695 -16655 0
-13715 15675 0
-13715 17635 0
13715 -15675 -17635 0
-701 835 -14695 0
701 14695 0
-835 14695 0
-1681 1815 -15675 0
1681 15675 0
-1815 15675 0
701 -835 -16655 0
-701 16655 0
835 16655 0
1681 -1815 -17635 0
-1681 17635 0
1815 17635 0
12875 -11895 0
13855 -11895 0
-12875 -13855 11895 0
-12875 14835 0
-12875 16795 0
12875 -14835 -16795 0
-13855 15815 0
-13855 17775 0
13855 -15815 -17775 0
-841 975 -14835 0
841 14835 0
-975 14835 0
-1821 1955 -15815 0
1821 15815 0
-1955 15815 0
841 -975 -16795 0
-841 16795 0
975 16795 0
1821 -1955 -17775 0
-1821 17775 0
1955 17775 0
12036 -11896 0
13016 -11896 0
-12036 -13016 11896 0
-12036 13996 0
-12036 15956 0
12036 -13996 -15956 0
-13016 14976 0
-13016 16936 0
13016 -14976 -16936 0
-1 136 -13996 0
1 13996 0
-136 13996 0
-981 1116 -14976 0
981 14976 0
-1116 14976 0
1 -136 -15956 0
-1 15956 0
136 15956 0
981 -1116 -16936 0
-981 16936 0
1116 16936 0
12176 -11896 0
13156 -11896 0
-12176 -13156 11896 0
-12176 14136 0
-12176 16096 0
12176 -14136 -16096 0
-13156 15116 0
-13156 17076 0
13156 -15116 -17076 0
-141 276 -14136 0
141 14136 0
-276 14136 0
-1121 1256 -15116 0
1121 15116 0
-1256 15116 0
141 -276 -16096 0
-141 16096 0
276 16096 0
1121 -1256 -17076 0
-1121 17076 0
1256 17076 0
12316 -11896 0
13296 -11896 0
-12316 -13296 11896 0
-12316 14276 0
-12316 16236 0
12316 -14276 -16236 0
-13296 15256 0
-13296 17216 0
13296 -15256 -17216 0
-281 416 -14276 0
281 14276 0
-416 14276 0
-1261 1396 -15256 0
1261 15256 0
-1396 15256 0
281 -416 -16236 0
-281 16236 0
416 16236 0
1261 -1396 -17216 0
-1261 17216 0
1396 17216 0
12456 -11896 0
13436 -11896 0
-12456 -13436 11896 0
-12456 14416 0
-12456 16376 0
12456 -14416 -16376 0
-13436 15396 0
-13436 17356 0
13436 -15396 -17356 0
-421 556 -14416 0
421 14416 0
-556 14416 0
-1401 1536 -15396 0
1401 15396 0
-1536 15396 0
421 -556 -16376 0
-421 16376 0
556 16376 0
1401 -1536 -17356 0
-1401 17356 0
1536 17356 0
12596 -11896 0
13576 -11896 0
-12596 -13576 11896 0
-12596 14556 0
-12596 16516 0
12596 -14556 -16516 0
-13576 15536 0
-13576 17496 0
13576 -15536 -17496 0
-561 696 -14556 0
561 14556 0
-696 14556 0
-1541 1676 -15536 0
1541 15536 0
-1676 15536 0
561 -696 -16516 0
-561 16516 0
696 16516 0
1541 -1676 -17496 0
-1541 17496 0
1676 17496 0
12736 -11896 0
13716 -11896 0
-12736 -13716 11896 0
-12736 14696 0
-12736 16656 0
12736 -14696 -16656 0
-13716 15676 0
-13716 17636 0
13716 -15676 -17636 0
-701 836 -14696 0
701 14696 0
-836 14696 0
-1681 1816 -15676 0
1681 15676 0
-1816 15676 0
701 -836 -16656 0
-701 16656 0
836 16656 0
1681 -1816 -17636 0
-1681 17636 0
1816 17636 0
12876 -11896 0
13856 -11896 0
-12876 -13856 11896 0
-12876 14836 0
-12876 16796 0
12876 -14836 -16796 0
-13856 15816 0
-13856 17776 0
13856 -15816 -17776 0
-841 976 -14836 0
841 14836 0
-976 14836 0
-1821 1956 -15816 0
1821 15816 0
-1956 15816 0
841 -976 -16796 0
-841 16796 0
976 16796 0
1821 -1956 -17776 0
-1821 17776 0
1956 17776 0
12037 -11897 0
13017 -11897 0
-12037 -13017 11897 0
-12037 13997 0
-12037 15957 0
12037 -13997 -15957 0
-13017 14977 0
-13017 16937 0
13017 -14977 -16937 0
-1 137 -13997 0
1 13997 0
-137 13997 0
-981 1117 -14977 0
981 14977 0
-1117 14977 0
1 -137 -15957 0
-1 15957 0
137 15957 0
981 -1117 -16937 0
-981 16937 0
1117 16937 0
12177 -11897 0
13157 -11897 0
-12177 -13157 11897 0
-12177 14137 0
-12177 16097 0
12177 -14137 -16097 0
-13157 15117 0
-13157 17077 0
13157 -15117 -17077 0
-141 277 -14137 0
141 14137 0
-277 14137 0
-1121 1257 -15117 0
1121 15117 0
-1257 15117 0
141 -277 -16097 0
-141 16097 0
277 16097 0
1121 -1257 -17077 0
-1121 17077 0
1257 17077 0
12317 -11897 0
13297 -11897 0
-12317 -13297 11897 0
-12317 14277 0
-12317 16237 0
12317 -14277 -16237 0
-13297 15257 0
-13297 17217 0
13297 -15257 -17217 0
-281 417 -14277 0
281 14277 0
-417 14277 0
-1261 1397 -15257 0
1261 15257 0
-1397 15257 0
281 -417 -16237 0
-281 16237 0
417 16237 0
1261 -1397 -17217 0
-1261 17217 0
1397 17217 0
12457 -11897 0
13437 -11897 0
-12457 -13437 11897 0
-12457 14417 0
-12457 16377 0
12457 -14417 -16377 0
-13437 15397 0
-13437 17357 0
13437 -15397 -17357 0
-421 557 -14417 0
421 14417 0
-557 14417 0
-1401 1537 -15397 0
1401 15397 0
-1537 15397 0
421 -557 -16377 0
-421 16377 0
557 16377 0
1401 -1537 -17357 0
-1401 17357 0
1537 17357 0
12597 -11897 0
13577 -11897 0
-12597 -13577 11897 0
-12597 14557 0
-12597 16517 0
12597 -14557 -16517 0
-13577 15537 0
-13577 17497 0
13577 -15537 -17497 0
-561 697 -14557 0
561 14557 0
-697 14557 0
-1541 1677 -15537 0
1541 15537 0
-1677 15537 0
561 -697 -16517 0
-561 16517 0
697 16517 0
1541 -1677 -17497 0
-1541 17497 0
1677 17497 0
12737 -11897 0
13717 -11897 0
-12737 -13717 11897 0
-12737 14697 0
-12737 16657 0
12737 -14697 -16657 0
-13717 15677 0
-13717 17637 0
13717 -15677 -17637 0
-701 837 -14697 0
701 14697 0
-837 14697 0
-1681 1817 -15677 0
1681 15677 0
-1817 15677 0
701 -837 -16657 0
-701 16657 0
837 16657 0
1681 -1817 -17637 0
-1681 17637 0
1817 17637 0
12877 -11897 0
13857 -11897 0
-12877 -13857 11897 0
-12877 14837 0
-12877 16797 0
12877 -14837 -16797 0
-13857 15817 0
-13857 17777 0
13857 -15817 -17777 0
-841 977 -14837 0
841 14837 0
-977 14837 0
-1821 1957 -15817 0
1821 15817 0
-1957 15817 0
841 -977 -16797 0
-841 16797 0
977 16797 0
1821 -1957 -17777 0
-1821 17777 0
1957 17777 0
12038 -11898 0
13018 -11898 0
-12038 -13018 11898 0
-12038 13998 0
-12038 15958 0
12038 -13998 -15958 0
-13018 14978 0
-13018 16938 0
13018 -14978 -16938 0
-1 138 -13998 0
1 13998 0
-138 13998 0
-981 1118 -14978 0
981 14978 0
-1118 14978 0
1 -138 -15958 0
-1 15958 0
138 15958 0
981 -1118 -16938 0
-981 16938 0
1118 16938 0
12178 -11898 0
13158 -11898 0
-12178 -13158 11898 0
-12178 14138 0
-12178 16098 0
12178 -14138 -16098 0
-13158 15118 0
-13158 17078 0
13158 -15118 -17078 0
-141 278 -14138 0
141 14138 0
-278 14138 0
-1121 1258 -15118 0
1121 15118 0
-1258 15118 0
141 -278 -16098 0
-141 16098 0
278 16098 0
1121 -1258 -17078 0
-1121 17078 0
1258 17078 0
12318 -11898 0
13298 -11898 0
-12318 -13298 11898 0
-12318 14278 0
-12318 16238 0
12318 -14278 -16238 0
-13298 15258 0
-13298 17218 0
13298 -15258 -17218 0
-281 418 -14278 0
281 14278 0
-418 14278 0
-1261 1398 -15258 0
1261 15258 0
-1398 15258 0
281 -418 -16238 0
-281 16238 0
418 16238 0
1261 -1398 -17218 0
-1261 17218 0
1398 17218 0
12458 -11898 0
13438 -11898 0
-12458 -13438 11898 0
-12458 14418 0
-12458 16378 0
12458 -14418 -16378 0
-13438 15398 0
-13438 17358 0
13438 -15398 -17358 0
-421 558 -14418 0
421 14418 0
-558 14418 0
-1401 1538 -15398 0
1401 15398 0
-1538 15398 0
421 -558 -16378 0
-421 16378 0
558 16378 0
1401 -1538 -17358 0
-1401 17358 0
1538 17358 0
12598 -11898 0
13578 -11898 0
-12598 -13578 11898 0
-12598 14558 0
-12598 16518 0
12598 -14558 -16518 0
-13578 15538 0
-13578 17498 0
13578 -15538 -17498 0
-561 698 -14558 0
561 14558 0
-698 14558 0
-1541 1678 -15538 0
1541 15538 0
-1678 15538 0
561 -698 -16518 0
-561 16518 0
698 16518 0
1541 -1678 -17498 0
-1541 17498 0
1678 17498 0
12738 -11898 0
13718 -11898 0
-12738 -13718 11898 0
-12738 14698 0
-12738 16658 0
12738 -14698 -16658 0
-13718 15678 0
-13718 17638 0
13718 -15678 -17638 0
-701 838 -14698 0
701 14698 0
-838 14698 0
-1681 1818 -15678 0
1681 15678 0
-1818 15678 0
701 -838 -16658 0
-701 16658 0
838 16658 0
1681 -1818 -17638 0
-1681 17638 0
1818 17638 0
12878 -11898 0
13858 -11898 0
-12878 -13858 11898 0
-12878 14838 0
-12878 16798 0
12878 -14838 -16798 0
-13858 15818 0
-13858 17778 0
13858 -15818 -17778 0
-841 978 -14838 0
841 14838 0
-978 14838 0
-1821 1958 -15818 0
1821 15818 0
-1958 15818 0
841 -978 -16798 0
-841 16798 0
978 16798 0
1821 -1958 -17778 0
-1821 17778 0
1958 17778 0
12039 -11899 0
13019 -11899 0
-12039 -13019 11899 0
-12039 13999 0
-12039 15959 0
12039 -13999 -15959 0
-13019 14979 0
-13019 16939 0
13019 -14979 -16939 0
-1 139 -13999 0
1 13999 0
-139 13999 0
-981 1119 -14979 0
981 14979 0
-1119 14979 0
1 -139 -15959 0
-1 15959 0
139 15959 0
981 -1119 -16939 0
-981 16939 0
1119 16939 0
12179 -11899 0
13159 -11899 0
-12179 -13159 11899 0
-12179 14139 0
-12179 16099 0
12179 -14139 -16099 0
-13159 15119 0
-13159 17079 0
13159 -15119 -17079 0
-141 279 -14139 0
141 14139 0
-279 14139 0
-1121 1259 -15119 0
1121 15119 0
-1259 15119 0
141 -279 -16099 0
-141 16099 0
279 16099 0
1121 -1259 -17079 0
-1121 17079 0
1259 17079 0
12319 -11899 0
13299 -11899 0
-12319 -13299 11899 0
-12319 14279 0
-12319 16239 0
12319 -14279 -16239 0
-13299 15259 0
-13299 17219 0
13299 -15259 -17219 0
-281 419 -14279 0
281 14279 0
-419 14279 0
-1261 1399 -15259 0
1261 15259 0
-1399 15259 0
281 -419 -16239 0
-281 16239 0
419 16239 0
1261 -1399 -17219 0
-1261 17219 0
1399 17219 0
12459 -11899 0
13439 -11899 0
-12459 -13439 11899 0
-12459 14419 0
-12459 16379 0
12459 -14419 -16379 0
-13439 15399 0
-13439 17359 0
13439 -15399 -17359 0
-421 559 -14419 0
421 14419 0
-559 14419 0
-1401 1539 -15399 0
1401 15399 0
-1539 15399 0
421 -559 -16379 0
-421 16379 0
559 16379 0
1401 -1539 -17359 0
-1401 17359 0
1539 17359 0
12599 -11899 0
13579 -11899 0
-12599 -13579 11899 0
-12599 14559 0
-12599 16519 0
12599 -14559 -16519 0
-13579 15539 0
-13579 17499 0
13579 -15539 -17499 0
-561 699 -14559 0
561 14559 0
-699 14559 0
-1541 1679 -15539 0
1541 15539 0
-1679 15539 0
561 -699 -16519 0
-561 16519 0
699 16519 0
1541 -1679 -17499 0
-1541 17499 0
1679 17499 0
12739 -11899 0
13719 -11899 0
-12739 -13719 11899 0
-12739 14699 0
-12739 16659 0
12739 -14699 -16659 0
-13719 15679 0
-13719 17639 0
13719 -15679 -17639 0
-701 839 -14699 0
701 14699 0
-839 14699 0
-1681 1819 -15679 0
1681 15679 0
-1819 15679 0
701 -839 -16659 0
-701 16659 0
839 16659 0
1681 -1819 -17639 0
-1681 17639 0
1819 17639 0
12879 -11899 0
13859 -11899 0
-12879 -13859 11899 0
-12879 14839 0
-12879 16799 0
12879 -14839 -16799 0
-13859 15819 0
-13859 17779 0
13859 -15819 -17779 0
-841 979 -14839 0
841 14839 0
-979 14839 0
-1821 1959 -15819 0
1821 15819 0
-1959 15819 0
841 -979 -16799 0
-841 16799 0
979 16799 0
1821 -1959 -17779 0
-1821 17779 0
1959 17779 0
12040 -11900 0
13020 -11900 0
-12040 -13020 11900 0
-12040 14000 0
-12040 15960 0
12040 -14000 -15960 0
-13020 14980 0
-13020 16940 0
13020 -14980 -16940 0
-1 140 -14000 0
1 14000 0
-140 14000 0
-981 1120 -14980 0
981 14980 0
-1120 14980 0
1 -140 -15960 0
-1 15960 0
140 15960 0
981 -1120 -16940 0
-981 16940 0
1120 16940 0
12180 -11900 0
13160 -11900 0
-12180 -13160 11900 0
-12180 14140 0
-12180 16100 0
12180 -14140 -16100 0
-13160 15120 0
-13160 17080 0
13160 -15120 -17080 0
-141 280 -14140 0
141 14140 0
-280 14140 0
-1121 1260 -15120 0
1121 15120 0
-1260 15120 0
141 -280 -16100 0
-141 16100 0
280 16100 0
1121 -1260 -17080 0
-1121 17080 0
1260 17080 0
12320 -11900 0
13300 -11900 0
-12320 -13300 11900 0
-12320 14280 0
-12320 16240 0
12320 -14280 -16240 0
-13300 15260 0
-13300 17220 0
13300 -15260 -17220 0
-281 420 -14280 0
281 14280 0
-420 14280 0
-1261 1400 -15260 0
1261 15260 0
-1400 15260 0
281 -420 -16240 0
-281 16240 0
420 16240 0
1261 -1400 -17220 0
-1261 17220 0
1400 17220 0
12460 -11900 0
13440 -11900 0
-12460 -13440 11900 0
-12460 14420 0
-12460 16380 0
12460 -14420 -16380 0
-13440 15400 0
-13440 17360 0
13440 -15400 -17360 0
-421 560 -14420 0
421 14420 0
-560 14420 0
-1401 1540 -15400 0
1401 15400 0
-1540 15400 0
421 -560 -16380 0
-421 16380 0
560 16380 0
1401 -1540 -17360 0
-1401 17360 0
1540 17360 0
12600 -11900 0
13580 -11900 0
-12600 -13580 11900 0
-12600 14560 0
-12600 16520 0
12600 -14560 -16520 0
-13580 15540 0
-13580 17500 0
13580 -15540 -17500 0
-561 700 -14560 0
561 14560 0
-700 14560 0
-1541 1680 -15540 0
1541 15540 0
-1680 15540 0
561 -700 -16520 0
-561 16520 0
700 16520 0
1541 -1680 -17500 0
-1541 17500 0
1680 17500 0
12740 -11900 0
13720 -11900 0
-12740 -13720 11900 0
-12740 14700 0
-12740 16660 0
12740 -14700 -16660 0
-13720 15680 0
-13720 17640 0
13720 -15680 -17640 0
-701 840 -14700 0
701 14700 0
-840 14700 0
-1681 1820 -15680 0
1681 15680 0
-1820 15680 0
701 -840 -16660 0
-701 16660 0
840 16660 0
1681 -1820 -17640 0
-1681 17640 0
1820 17640 0
12880 -11900 0
13860 -11900 0
-12880 -13860 11900 0
-12880 14840 0
-12880 16800 0
12880 -14840 -16800 0
-13860 15820 0
-13860 17780 0
13860 -15820 -17780 0
-841 980 -14840 0
841 14840 0
-980 14840 0
-1821 1960 -15820 0
1821 15820 0
-1960 15820 0
841 -980 -16800 0
-841 16800 0
980 16800 0
1821 -1960 -17780 0
-1821 17780 0
1960 17780 0
-17781 0
-10781 17782 0
-10921 17782 0
-10781 -10921 17783 0
-11061 17784 0
-11201 17784 0
-11061 -11201 17785 0
-11341 17786 0
-11481 17786 0
-11341 -11481 17787 0
-11621 17788 0
-17781 17788 0
-11621 -17781 17789 0
-17786 17790 0
-17788 17790 0
-17786 -17788 17791 0
-17787 17792 0
-17789 17792 0
-17787 -17789 17793 0
-17791 17794 0
-17792 17794 0
-17791 -17792 17795 0
-17784 17796 0
-17790 17796 0
-17784 -17790 17797 0
-17785 17798 0
-17794 17798 0
-17785 -17794 17799 0
-17797 17800 0
-17798 17800 0
-17797 -17798 17801 0
-17782 17802 0
-17796 17802 0
-17782 -17796 17803 0
-17783 17804 0
-17800 17804 0
-17783 -17800 17805 0
-17803 17806 0
-17804 17806 0
-17803 -17804 17807 0
-17806 0
-17808 0
-10782 17809 0
-10922 17809 0
-10782 -10922 17810 0
-11062 17811 0
-11202 17811 0
-11062 -11202 17812 0
-11342 17813 0
-11482 17813 0
-11342 -11482 17814 0
-11622 17815 0
-17808 17815 0
-11622 -17808 17816 0
-17813 17817 0
-17815 17817 0
-17813 -17815 17818 0
-17814 17819 0
-17816 17819 0
-17814 -17816 17820 0
-17818 17821 0
-17819 17821 0
-17818 -17819 17822 0
-17811 17823 0
-17817 17823 0
-17811 -17817 17824 0
-17812 17825 0
-17821 17825 0
-17812 -17821 17826 0
-17824 17827 0
-17825 17827 0
-17824 -17825 17828 0
-17809 17829 0
-17823 17829 0
-17809 -17823 17830 0
-17810 17831 0
-17827 17831 0
-17810 -17827 17832 0
-17830 17833 0
-17831 17833 0
-17830 -17831 17834 0
-17833 0
-17835 0
-10783 17836 0
-10923 17836 0
-10783 -10923 17837 0
-11063 17838 0
-11203 17838 0
-11063 -11203 17839 0
-11343 17840 0
-11483 17840 0
-11343 -11483 17841 0
-11623 17842 0
-17835 17842 0
-11623 -17835 17843 0
-17840 17844 0
-17842 17844 0
-17840 -17842 17845 0
-17841 17846 0
-17843 17846 0
-17841 -17843 17847 0
-17845 17848 0
-17846 17848 0
-17845 -17846 17849 0
-17838 17850 0
-17844 17850 0
-17838 -17844 17851 0
-17839 17852 0
-17848 17852 0
-17839 -17848 17853 0
-17851 17854 0
-17852 17854 0
-17851 -17852 17855 0
-17836 17856 0
-17850 17856 0
-17836 -17850 17857 0
-17837 17858 0
-17854 17858 0
-17837 -17854 17859 0
-17857 17860 0
-17858 17860 0
-17857 -17858 17861 0
-17860 0
-17862 0
-10784 17863 0
-10924 17863 0
-10784 -10924 17864 0
-11064 17865 0
-11204 17865 0
-11064 -11204 17866 0
-11344 17867 0
-11484 17867 0
-11344 -11484 17868 0
-11624 17869 0
-17862 17869 0
-11624 -17862 17870 0
-17867 17871 0
-17869 17871 0
-17867 -17869 17872 0
-17868 17873 0
-17870 17873 0
-17868 -17870 17874 0
-17872 17875 0
-17873 17875 0
-17872 -17873 17876 0
-17865 17877 0
-17871 17877 0
-17865 -17871 17878 0
-17866 17879 0
-17875 17879 0
-17866 -17875 17880 0
-17878 17881 0
-17879 17881 0
-17878 -17879 17882 0
-17863 17883 0
-17877 17883 0
-17863 -17877 17884 0
-17864 17885 0
-17881 17885 0
-17864 -17881 17886 0
-17884 17887 0
-17885 17887 0
-17884 -17885 17888 0
-17887 0
-17889 0
-10785 17890 0
-10925 17890 0
-10785 -10925 17891 0
-11065 17892 0
-11205 17892 0
-11065 -11205 17893 0
-11345 17894 0
-11485 17894 0
-11345 -11485 17895 0
-11625 17896 0
-17889 17896 0
-11625 -17889 17897 0
-17894 17898 0
-17896 17898 0
-17894 -17896 17899 0
-17895 17900 0
-17897 17900 0
-17895 -17897 17901 0
-17899 17902 0
-17900 17902 0
-17899 -17900 17903 0
-17892 17904 0
-17898 17904 0
-17892 -17898 17905 0
-17893 17906 0
-17902 17906 0
-17893 -17902 17907 0
-17905 17908 0
-17906 17908 0
-17905 -17906 17909 0
-17890 17910 0
-17904 17910 0
-17890 -17904 17911 0
-17891 17912 0
-17908 17912 0
-17891 -17908 17913 0
-17911 17914 0
-17912 17914 0
-17911 -17912 17915 0
-17914 0
-17916 0
-10786 17917 0
-10926 17917 0
-10786 -10926 17918 0
-11066 17919 0
-11206 17919 0
-11066 -11206 17920 0
-11346 17921 0
-11486 17921 0
-11346 -11486 17922 0
-11626 17923 0
-17916 17923 0
-11626 -17916 17924 0
-17921 17925 0
-17923 17925 0
-17921 -17923 17926 0
-17922 17927 0
-17924 17927 0
-17922 -17924 17928 0
-17926 17929 0
-17927 17929 0
-17926 -17927 17930 0
-17919 17931 0
-17925 17931 0
-17919 -17925 17932 0
-17920 17933 0
-17929 17933 0
-17920 -17929 17934 0
-17932 17935 0
-17933 17935 0
-17932 -17933 17936 0
-17917 17937 0
-17931 17937 0
-17917 -17931 17938 0
-17918 17939 0
-17935 17939 0
-17918 -17935 17940 0
-17938 17941 0
-17939 17941 0
-17938 -17939 17942 0
-17941 0
-17943 0
-10787 17944 0
-10927 17944 0
-10787 -10927 17945 0
-11067 17946 0
-11207 17946 0
-11067 -11207 17947 0
-11347 17948 0
-11487 17948 0
-11347 -11487 17949 0
-11627 17950 0
-17943 17950 0
-11627 -17943 17951 0
-17948 17952 0
-17950 17952 0
-17948 -17950 17953 0
-17949 17954 0
-17951 17954 0
-17949 -17951 17955 0
-17953 17956 0
-17954 17956 0
-17953 -17954 17957 0
-17946 17958 0
-17952 17958 0
-17946 -17952 17959 0
-17947 17960 0
-17956 17960 0
-17947 -17956 17961 0
-17959 17962 0
-17960 17962 0
-17959 -17960 17963 0
-17944 17964 0
-17958 17964 0
-17944 -17958 17965 0
-17945 17966 0
-17962 17966 0
-17945 -17962 17967 0
-17965 17968 0
-17966 17968 0
-17965 -17966 17969 0
-17968 0
-17970 0
-10788 17971 0
-10928 17971 0
-10788 -10928 17972 0
-11068 17973 0
-11208 17973 0
-11068 -11208 17974 0
-11348 17975 0
-11488 17975 0
-11348 -11488 17976 0
-11628 17977 0
-17970 17977 0
-11628 -17970 17978 0
-17975 17979 0
-17977 17979 0
-17975 -17977 17980 0
-17976 17981 0
-17978 17981 0
-17976 -17978 17982 0
-17980 17983 0
-17981 17983 0
-17980 -17981 17984 0
-17973 17985 0
-17979 17985 0
-17973 -17979 17986 0
-17974 17987 0
-17983 17987 0
-17974 -17983 17988 0
-17986 17989 0
-17987 17989 0
-17986 -17987 17990 0
-17971 17991 0
-17985 17991 0
-17971 -17985 17992 0
-17972 17993 0
-17989 17993 0
-17972 -17989 17994 0
-17992 17995 0
-17993 17995 0
-17992 -17993 17996 0
-17995 0
-17997 0
-10789 17998 0
-10929 17998 0
-10789 -10929 17999 0
-11069 18000 0
-11209 18000 0
-11069 -11209 18001 0
-11349 18002 0
-11489 18002 0
-11349 -11489 18003 0
-11629 18004 0
-17997 18004 0
-11629 -17997 18005 0
-18002 18006 0
-18004 18006 0
-18002 -18004 18007 0
-18003 18008 0
-18005 18008 0
-18003 -18005 18009 0
-18007 18010 0
-18008 18010 0
-18007 -18008 18011 0
-18000 18012 0
-18006 18012 0
-18000 -18006 18013 0
-18001 18014 0
-18010 18014 0
-18001 -18010 18015 0
-18013 18016 0
-18014 18016 0
-18013 -18014 18017 0
-17998 18018 0
-18012 18018 0
-17998 -18012 18019 0
-17999 18020 0
-18016 18020 0
-17999 -18016 18021 0
-18019 18022 0
-18020 18022 0
-18019 -18020 18023 0
-18022 0
-18024 0
-10790 18025 0
-10930 18025 0
-10790 -10930 18026 0
-11070 18027 0
-11210 18027 0
-11070 -11210 18028 0
-11350 18029 0
-11490 18029 0
-11350 -11490 18030 0
-11630 18031 0
-18024 18031 0
-11630 -18024 18032 0
-18029 18033 0
-18031 18033 0
-18029 -18031 18034 0
-18030 18035 0
-18032 18035 0
-18030 -18032 18036 0
-18034 18037 0
-18035 18037 0
-18034 -18035 18038 0
-18027 18039 0
-18033 18039 0
-18027 -18033 18040 0
-18028 18041 0
-18037 18041 0
-18028 -18037 18042 0
-18040 18043 0
-18041 18043 0
-18040 -18041 18044 0
-18025 18045 0
-18039 18045 0
-18025 -18039 18046 0
-18026 18047 0
-18043 18047 0
-18026 -18043 18048 0
-18046 18049 0
-18047 18049 0
-18046 -18047 18050 0
-18049 0
-18051 0
-10791 18052 0
-10931 18052 0
-10791 -10931 18053 0
-11071 18054 0
-11211 18054 0
-11071 -11211 18055 0
-11351 18056 0
-11491 18056 0
-11351 -11491 18057 0
-11631 18058 0
-18051 18058 0
-11631 -18051 18059 0
-18056 18060 0
-18058 18060 0
-18056 -18058 18061 0
-18057 18062 0
-18059 18062 0
-18057 -18059 18063 0
-18061 18064 0
-18062 18064 0
-18061 -18062 18065 0
-18054 18066 0
-18060 18066 0
-18054 -18060 18067 0
-18055 18068 0
-18064 18068 0
-18055 -18064 18069 0
-18067 18070 0
-18068 18070 0
-18067 -18068 18071 0
-18052 18072 0
-18066 18072 0
-18052 -18066 18073 0
-18053 18074 0
-18070 18074 0
-18053 -18070 18075 0
-18073 18076 0
-18074 18076 0
-18073 -18074 18077 0
-18076 0
-18078 0
-10792 18079 0
-10932 18079 0
-10792 -10932 18080 0
-11072 18081 0
-11212 18081 0
-11072 -11212 18082 0
-11352 18083 0
-11492 18083 0
-11352 -11492 18084 0
-11632 18085 0
-18078 18085 0
-11632 -18078 18086 0
-18083 18087 0
-18085 18087 0
-18083 -18085 18088 0
-18084 18089 0
-18086 18089 0
-18084 -18086 18090 0
-18088 18091 0
-18089 18091 0
-18088 -18089 18092 0
-18081 18093 0
-18087 18093 0
-18081 -18087 18094 0
-18082 18095 0
-18091 18095 0
-18082 -18091 18096 0
-18094 18097 0
-18095 18097 0
-18094 -18095 18098 0
-18079 18099 0
-18093 18099 0
-18079 -18093 18100 0
-18080 18101 0
-18097 18101 0
-18080 -18097 18102 0
-18100 18103 0
-18101 18103 0
-18100 -18101 18104 0
-18103 0
-18105 0
-10793 18106 0
-10933 18106 0
-10793 -10933 18107 0
-11073 18108 0
-11213 18108 0
-11073 -11213 18109 0
-11353 18110 0
-11493 18110 0
-11353 -11493 18111 0
-11633 18112 0
-18105 18112 0
-11633 -18105 18113 0
-18110 18114 0
-18112 18114 0
-18110 -18112 18115 0
-18111 18116 0
-18113 18116 0
-18111 -18113 18117 0
-18115 18118 0
-18116 18118 0
-18115 -18116 18119 0
-18108 18120 0
-18114 18120 0
-18108 -18114 18121 0
-18109 18122 0
-18118 18122 0
-18109 -18118 18123 0
-18121 18124 0
-18122 18124 0
-18121 -18122 18125 0
-18106 18126 0
-18120 18126 0
-18106 -18120 18127 0
-18107 18128 0
-18124 18128 0
-18107 -18124 18129 0
-18127 18130 0
-18128 18130 0
-18127 -18128 18131 0
-18130 0
-18132 0
-10794 18133 0
-10934 18133 0
-10794 -10934 18134 0
-11074 18135 0
-11214 18135 0
-11074 -11214 18136 0
-11354 18137 0
-11494 18137 0
-11354 -11494 18138 0
-11634 18139 0
-18132 18139 0
-11634 -18132 18140 0
-18137 18141 0
-18139 18141 0
-18137 -18139 18142 0
-18138 18143 0
-18140 18143 0
-18138 -18140 18144 0
-18142 18145 0
-18143 18145 0
-18142 -18143 18146 0
-18135 18147 0
-18141 18147 0
-18135 -18141 18148 0
-18136 18149 0
-18145 18149 0
-18136 -18145 18150 0
-18148 18151 0
-18149 18151 0
-18148 -18149 18152 0
-18133 18153 0
-18147 18153 0
-18133 -18147 18154 0
-18134 18155 0
-18151 18155 0
-18134 -18151 18156 0
-18154 18157 0
-18155 18157 0
-18154 -18155 18158 0
-18157 0
-18159 0
-10795 18160 0
-10935 18160 0
-10795 -10935 18161 0
-11075 18162 0
-11215 18162 0
-11075 -11215 18163 0
-11355 18164 0
-11495 18164 0
-11355 -11495 18165 0
-11635 18166 0
-18159 18166 0
-11635 -18159 18167 0
-18164 18168 0
-18166 18168 0
-18164 -18166 18169 0
-18165 18170 0
-18167 18170 0
-18165 -18167 18171 0
-18169 18172 0
-18170 18172 0
-18169 -18170 18173 0
-18162 18174 0
-18168 18174 0
-18162 -18168 18175 0
-18163 18176 0
-18172 18176 0
-18163 -18172 18177 0
-18175 18178 0
-18176 18178 0
-18175 -18176 18179 0
-18160 18180 0
-18174 18180 0
-18160 -18174 18181 0
-18161 18182 0
-18178 18182 0
-18161 -18178 18183 0
-18181 18184 0
-18182 18184 0
-18181 -18182 18185 0
-18184 0
-18186 0
-10796 18187 0
-10936 18187 0
-10796 -10936 18188 0
-11076 18189 0
-11216 18189 0
-11076 -11216 18190 0
-11356 18191 0
-11496 18191 0
-11356 -11496 18192 0
-11636 18193 0
-18186 18193 0
-11636 -18186 18194 0
-18191 18195 0
-18193 18195 0
-18191 -18193 18196 0
-18192 18197 0
-18194 18197 0
-18192 -18194 18198 0
-18196 18199 0
-18197 18199 0
-18196 -18197 18200 0
-18189 18201 0
-18195 18201 0
-18189 -18195 18202 0
-18190 18203 0
-18199 18203 0
-18190 -18199 18204 0
-18202 18205 0
-18203 18205 0
-18202 -18203 18206 0
-18187 18207 0
-18201 18207 0
-18187 -18201 18208 0
-18188 18209 0
-18205 18209 0
-18188 -18205 18210 0
-18208 18211 0
-18209 18211 0
-18208 -18209 18212 0
-18211 0
-18213 0
-10797 18214 0
-10937 18214 0
-10797 -10937 18215 0
-11077 18216 0
-11217 18216 0
-11077 -11217 18217 0
-11357 18218 0
-11497 18218 0
-11357 -11497 18219 0
-11637 18220 0
-18213 18220 0
-11637 -18213 18221 0
-18218 18222 0
-18220 18222 0
-18218 -18220 18223 0
-18219 18224 0
-18221 18224 0
-18219 -18221 18225 0
-18223 18226 0
-18224 18226 0
-18223 -18224 18227 0
-18216 18228 0
-18222 18228 0
-18216 -18222 18229 0
-18217 18230 0
-18226 18230 0
-18217 -18226 18231 0
-18229 18232 0
-18230 18232 0
-18229 -18230 18233 0
-18214 18234 0
-18228 18234 0
-18214 -18228 18235 0
-18215 18236 0
-18232 18236 0
-18215 -18232 18237 0
-18235 18238 0
-18236 18238 0
-18235 -18236 18239 0
-18238 0
-18240 0
-10798 18241 0
-10938 18241 0
-10798 -10938 18242 0
-11078 18243 0
-11218 18243 0
-11078 -11218 18244 0
-11358 18245 0
-11498 18245 0
-11358 -11498 18246 0
-11638 18247 0
-18240 18247 0
-11638 -18240 18248 0
-18245 18249 0
-18247 18249 0
-18245 -18247 18250 0
-18246 18251 0
-18248 18251 0
-18246 -18248 18252 0
-18250 18253 0
-18251 18253 0
-18250 -18251 18254 0
-18243 18255 0
-18249 18255 0
-18243 -18249 18256 0
-18244 18257 0
-18253 18257 0
-18244 -18253 18258 0
-18256 18259 0
-18257 18259 0
-18256 -18257 18260 0
-18241 18261 0
-18255 18261 0
-18241 -18255 18262 0
-18242 18263 0
-18259 18263 0
-18242 -18259 18264 0
-18262 18265 0
-18263 18265 0
-18262 -18263 18266 0
-18265 0
-18267 0
-10799 18268 0
-10939 18268 0
-10799 -10939 18269 0
-11079 18270 0
-11219 18270 0
-11079 -11219 18271 0
-11359 18272 0
-11499 18272 0
-11359 -11499 18273 0
-11639 18274 0
-18267 18274 0
-11639 -18267 18275 0
-18272 18276 0
-18274 18276 0
-18272 -18274 18277 0
-18273 18278 0
-18275 18278 0
-18273 -18275 18279 0
-18277 18280 0
-18278 18280 0
-18277 -18278 18281 0
-18270 18282 0
-18276 18282 0
-18270 -18276 18283 0
-18271 18284 0
-18280 18284 0
-18271 -18280 18285 0
-18283 18286 0
-18284 18286 0
-18283 -18284 18287 0
-18268 18288 0
-18282 18288 0
-18268 -18282 18289 0
-18269 18290 0
-18286 18290 0
-18269 -18286 18291 0
-18289 18292 0
-18290 18292 0
-18289 -18290 18293 0
-18292 0
-18294 0
-10800 18295 0
-10940 18295 0
-10800 -10940 18296 0
-11080 18297 0
-11220 18297 0
-11080 -11220 18298 0
-11360 18299 0
-11500 18299 0
-11360 -11500 18300 0
-11640 18301 0
-18294 18301 0
-11640 -18294 18302 0
-18299 18303 0
-18301 18303 0
-18299 -18301 18304 0
-18300 18305 0
-18302 18305 0
-18300 -18302 18306 0
-18304 18307 0
-18305 18307 0
-18304 -18305 18308 0
-18297 18309 0
-18303 18309 0
-18297 -18303 18310 0
-18298 18311 0
-18307 18311 0
-18298 -18307 18312 0
-18310 18313 0
-18311 18313 0
-18310 -18311 18314 0
-18295 18315 0
-18309 18315 0
-18295 -18309 18316 0
-18296 18317 0
-18313 18317 0
-18296 -18313 18318 0
-18316 18319 0
-18317 18319 0
-18316 -18317 18320 0
-18319 0
-18321 0
-10801 18322 0
-10941 18322 0
-10801 -10941 18323 0
-11081 18324 0
-11221 18324 0
-11081 -11221 18325 0
-11361 18326 0
-11501 18326 0
-11361 -11501 18327 0
-11641 18328 0
-18321 18328 0
-11641 -18321 18329 0
-18326 18330 0
-18328 18330 0
-18326 -18328 18331 0
-18327 18332 0
-18329 18332 0
-18327 -18329 18333 0
-18331 18334 0
-18332 18334 0
-18331 -18332 18335 0
-18324 18336 0
-18330 18336 0
-18324 -18330 18337 0
-18325 18338 0
-18334 18338 0
-18325 -18334 18339 0
-18337 18340 0
-18338 18340 0
-18337 -18338 18341 0
-18322 18342 0
-18336 18342 0
-18322 -18336 18343 0
-18323 18344 0
-18340 18344 0
-18323 -18340 18345 0
-18343 18346 0
-18344 18346 0
-18343 -18344 18347 0
-18346 0
-18348 0
-10802 18349 0
-10942 18349 0
-10802 -10942 18350 0
-11082 18351 0
-11222 18351 0
-11082 -11222 18352 0
-11362 18353 0
-11502 18353 0
-11362 -11502 18354 0
-11642 18355 0
-18348 18355 0
-11642 -18348 18356 0
-18353 18357 0
-18355 18357 0
-18353 -18355 18358 0
-18354 18359 0
-18356 18359 0
-18354 -18356 18360 0
-18358 18361 0
-18359 18361 0
-18358 -18359 18362 0
-18351 18363 0
-18357 18363 0
-18351 -18357 18364 0
-18352 18365 0
-18361 18365 0
-18352 -18361 18366 0
-18364 18367 0
-18365 18367 0
-18364 -18365 18368 0
-18349 18369 0
-18363 18369 0
-18349 -18363 18370 0
-18350 18371 0
-18367 18371 0
-18350 -18367 18372 0
-18370 18373 0
-18371 18373 0
-18370 -18371 18374 0
-18373 0
-18375 0
-10803 18376 0
-10943 18376 0
-10803 -10943 18377 0
-11083 18378 0
-11223 18378 0
-11083 -11223 18379 0
-11363 18380 0
-11503 18380 0
-11363 -11503 18381 0
-11643 18382 0
-18375 18382 0
-11643 -18375 18383 0
-18380 18384 0
-18382 18384 0
-18380 -18382 18385 0
-18381 18386 0
-18383 18386 0
-18381 -18383 18387 0
-18385 18388 0
-18386 18388 0
-18385 -18386 18389 0
-18378 18390 0
-18384 18390 0
-18378 -18384 18391 0
-18379 18392 0
-18388 18392 0
-18379 -18388 18393 0
-18391 18394 0
-18392 18394 0
-18391 -18392 18395 0
-18376 18396 0
-18390 18396 0
-18376 -18390 18397 0
-18377 18398 0
-18394 18398 0
-18377 -18394 18399 0
-18397 18400 0
-18398 18400 0
-18397 -18398 18401 0
-18400 0
-18402 0
-10804 18403 0
-10944 18403 0
-10804 -10944 18404 0
-11084 18405 0
-11224 18405 0
-11084 -11224 18406 0
-11364 18407 0
-11504 18407 0
-11364 -11504 18408 0
-11644 18409 0
-18402 18409 0
-11644 -18402 18410 0
-18407 18411 0
-18409 18411 0
-18407 -18409 18412 0
-18408 18413 0
-18410 18413 0
-18408 -18410 18414 0
-18412 18415 0
-18413 18415 0
-18412 -18413 18416 0
-18405 18417 0
-18411 18417 0
-18405 -18411 18418 0
-18406 18419 0
-18415 18419 0
-18406 -18415 18420 0
-18418 18421 0
-18419 18421 0
-18418 -18419 18422 0
-18403 18423 0
-18417 18423 0
-18403 -18417 18424 0
-18404 18425 0
-18421 18425 0
-18404 -18421 18426 0
-18424 18427 0
-18425 18427 0
-18424 -18425 18428 0
-18427 0
-18429 0
-10805 18430 0
-10945 18430 0
-10805 -10945 18431 0
-11085 18432 0
-11225 18432 0
-11085 -11225 18433 0
-11365 18434 0
-11505 18434 0
-11365 -11505 18435 0
-11645 18436 0
-18429 18436 0
-11645 -18429 18437 0
-18434 18438 0
-18436 18438 0
-18434 -18436 18439 0
-18435 18440 0
-18437 18440 0
-18435 -18437 18441 0
-18439 18442 0
-18440 18442 0
-18439 -18440 18443 0
-18432 18444 0
-18438 18444 0
-18432 -18438 18445 0
-18433 18446 0
-18442 18446 0
-18433 -18442 18447 0
-18445 18448 0
-18446 18448 0
-18445 -18446 18449 0
-18430 18450 0
-18444 18450 0
-18430 -18444 18451 0
-18431 18452 0
-18448 18452 0
-18431 -18448 18453 0
-18451 18454 0
-18452 18454 0
-18451 -18452 18455 0
-18454 0
-18456 0
-10806 18457 0
-10946 18457 0
-10806 -10946 18458 0
-11086 18459 0
-11226 18459 0
-11086 -11226 18460 0
-11366 18461 0
-11506 18461 0
-11366 -11506 18462 0
-11646 18463 0
-18456 18463 0
-11646 -18456 18464 0
-18461 18465 0
-18463 18465 0
-18461 -18463 18466 0
-18462 18467 0
-18464 18467 0
-18462 -18464 18468 0
-18466 18469 0
-18467 18469 0
-18466 -18467 18470 0
-18459 18471 0
-18465 18471 0
-18459 -18465 18472 0
-18460 18473 0
-18469 18473 0
-18460 -18469 18474 0
-18472 18475 0
-18473 18475 0
-18472 -18473 18476 0
-18457 18477 0
-18471 18477 0
-18457 -18471 18478 0
-18458 18479 0
-18475 18479 0
-18458 -18475 18480 0
-18478 18481 0
-18479 18481 0
-18478 -18479 18482 0
-18481 0
-18483 0
-10807 18484 0
-10947 18484 0
-10807 -10947 18485 0
-11087 18486 0
-11227 18486 0
-11087 -11227 18487 0
-11367 18488 0
-11507 18488 0
-11367 -11507 18489 0
-11647 18490 0
-18483 18490 0
-11647 -18483 18491 0
-18488 18492 0
-18490 18492 0
-18488 -18490 18493 0
-18489 18494 0
-18491 18494 0
-18489 -18491 18495 0
-18493 18496 0
-18494 18496 0
-18493 -18494 18497 0
-18486 18498 0
-18492 18498 0
-18486 -18492 18499 0
-18487 18500 0
-18496 18500 0
-18487 -18496 18501 0
-18499 18502 0
-18500 18502 0
-18499 -18500 18503 0
-18484 18504 0
-18498 18504 0
-18484 -18498 18505 0
-18485 18506 0
-18502 18506 0
-18485 -18502 18507 0
-18505 18508 0
-18506 18508 0
-18505 -18506 18509 0
-18508 0
-18510 0
-10808 18511 0
-10948 18511 0
-10808 -10948 18512 0
-11088 18513 0
-11228 18513 0
-11088 -11228 18514 0
-11368 18515 0
-11508 18515 0
-11368 -11508 18516 0
-11648 18517 0
-18510 18517 0
-11648 -18510 18518 0
-18515 18519 0
-18517 18519 0
-18515 -18517 18520 0
-18516 18521 0
-18518 18521 0
-18516 -18518 18522 0
-18520 18523 0
-18521 18523 0
-18520 -18521 18524 0
-18513 18525 0
-18519 18525 0
-18513 -18519 18526 0
-18514 18527 0
-18523 18527 0
-18514 -18523 18528 0
-18526 18529 0
-18527 18529 0
-18526 -18527 18530 0
-18511 18531 0
-18525 18531 0
-18511 -18525 18532 0
-18512 18533 0
-18529 18533 0
-18512 -18529 18534 0
-18532 18535 0
-18533 18535 0
-18532 -18533 18536 0
-18535 0
-18537 0
-10809 18538 0
-10949 18538 0
-10809 -10949 18539 0
-11089 18540 0
-11229 18540 0
-11089 -11229 18541 0
-11369 18542 0
-11509 18542 0
-11369 -11509 18543 0
-11649 18544 0
-18537 18544 0
-11649 -18537 18545 0
-18542 18546 0
-18544 18546 0
-18542 -18544 18547 0
-18543 18548 0
-18545 18548 0
-18543 -18545 18549 0
-18547 18550 0
-18548 18550 0
-18547 -18548 18551 0
-18540 18552 0
-18546 18552 0
-18540 -18546 18553 0
-18541 18554 0
-18550 18554 0
-18541 -18550 18555 0
-18553 18556 0
-18554 18556 0
-18553 -18554 18557 0
-18538 18558 0
-18552 18558 0
-18538 -18552 18559 0
-18539 18560 0
-18556 18560 0
-18539 -18556 18561 0
-18559 18562 0
-18560 18562 0
-18559 -18560 18563 0
-18562 0
-18564 0
-10810 18565 0
-10950 18565 0
-10810 -10950 18566 0
-11090 18567 0
-11230 18567 0
-11090 -11230 18568 0
-11370 18569 0
-11510 18569 0
-11370 -11510 18570 0
-11650 18571 0
-18564 18571 0
-11650 -18564 18572 0
-18569 18573 0
-18571 18573 0
-18569 -18571 18574 0
-18570 18575 0
-18572 18575 0
-18570 -18572 18576 0
-18574 18577 0
-18575 18577 0
-18574 -18575 18578 0
-18567 18579 0
-18573 18579 0
-18567 -18573 18580 0
-18568 18581 0
-18577 18581 0
-18568 -18577 18582 0
-18580 18583 0
-18581 18583 0
-18580 -18581 18584 0
-18565 18585 0
-18579 18585 0
-18565 -18579 18586 0
-18566 18587 0
-18583 18587 0
-18566 -18583 18588 0
-18586 18589 0
-18587 18589 0
-18586 -18587 18590 0
-18589 0
-18591 0
-10811 18592 0
-10951 18592 0
-10811 -10951 18593 0
-11091 18594 0
-11231 18594 0
-11091 -11231 18595 0
-11371 18596 0
-11511 18596 0
-11371 -11511 18597 0
-11651 18598 0
-18591 18598 0
-11651 -18591 18599 0
-18596 18600 0
-18598 18600 0
-18596 -18598 18601 0
-18597 18602 0
-18599 18602 0
-18597 -18599 18603 0
-18601 18604 0
-18602 18604 0
-18601 -18602 18605 0
-18594 18606 0
-18600 18606 0
-18594 -18600 18607 0
-18595 18608 0
-18604 18608 0
-18595 -18604 18609 0
-18607 18610 0
-18608 18610 0
-18607 -18608 18611 0
-18592 18612 0
-18606 18612 0
-18592 -18606 18613 0
-18593 18614 0
-18610 18614 0
-18593 -18610 18615 0
-18613 18616 0
-18614 18616 0
-18613 -18614 18617 0
-18616 0
-18618 0
-10812 18619 0
-10952 18619 0
-10812 -10952 18620 0
-11092 18621 0
-11232 18621 0
-11092 -11232 18622 0
-11372 18623 0
-11512 18623 0
-11372 -11512 18624 0
-11652 18625 0
-18618 18625 0
-11652 -18618 18626 0
-18623 18627 0
-18625 18627 0
-18623 -18625 18628 0
-18624 18629 0
-18626 18629 0
-18624 -18626 18630 0
-18628 18631 0
-18629 18631 0
-18628 -18629 18632 0
-18621 18633 0
-18627 18633 0
-18621 -18627 18634 0
-18622 18635 0
-18631 18635 0
-18622 -18631 18636 0
-18634 18637 0
-18635 18637 0
-18634 -18635 18638 0
-18619 18639 0
-18633 18639 0
-18619 -18633 18640 0
-18620 18641 0
-18637 18641 0
-18620 -18637 18642 0
-18640 18643 0
-18641 18643 0
-18640 -18641 18644 0
-18643 0
-18645 0
-10813 18646 0
-10953 18646 0
-10813 -10953 18647 0
-11093 18648 0
-11233 18648 0
-11093 -11233 18649 0
-11373 18650 0
-11513 18650 0
-11373 -11513 18651 0
-11653 18652 0
-18645 18652 0
-11653 -18645 18653 0
-18650 18654 0
-18652 18654 0
-18650 -18652 18655 0
-18651 18656 0
-18653 18656 0
-18651 -18653 18657 0
-18655 18658 0
-18656 18658 0
-18655 -18656 18659 0
-18648 18660 0
-18654 18660 0
-18648 -18654 18661 0
-18649 18662 0
-18658 18662 0
-18649 -18658 18663 0
-18661 18664 0
-18662 18664 0
-18661 -18662 18665 0
-18646 18666 0
-18660 18666 0
-18646 -18660 18667 0
-18647 18668 0
-18664 18668 0
-18647 -18664 18669 0
-18667 18670 0
-18668 18670 0
-18667 -18668 18671 0
-18670 0
-18672 0
-10814 18673 0
-10954 18673 0
-10814 -10954 18674 0
-11094 18675 0
-11234 18675 0
-11094 -11234 18676 0
-11374 18677 0
-11514 18677 0
-11374 -11514 18678 0
-11654 18679 0
-18672 18679 0
-11654 -18672 18680 0
-18677 18681 0
-18679 18681 0
-18677 -18679 18682 0
-18678 18683 0
-18680 18683 0
-18678 -18680 18684 0
-18682 18685 0
-18683 18685 0
-18682 -18683 18686 0
-18675 18687 0
-18681 18687 0
-18675 -18681 18688 0
-18676 18689 0
-18685 18689 0
-18676 -18685 18690 0
-18688 18691 0
-18689 18691 0
-18688 -18689 18692 0
-18673 18693 0
-18687 18693 0
-18673 -18687 18694 0
-18674 18695 0
-18691 18695 0
-18674 -18691 18696 0
-18694 18697 0
-18695 18697 0
-18694 -18695 18698 0
-18697 0
-18699 0
-10815 18700 0
-10955 18700 0
-10815 -10955 18701 0
-11095 18702 0
-11235 18702 0
-11095 -11235 18703 0
-11375 18704 0
-11515 18704 0
-11375 -11515 18705 0
-11655 18706 0
-18699 18706 0
-11655 -18699 18707 0
-18704 18708 0
-18706 18708 0
-18704 -18706 18709 0
-18705 18710 0
-18707 18710 0
-18705 -18707 18711 0
-18709 18712 0
-18710 18712 0
-18709 -18710 18713 0
-18702 18714 0
-18708 18714 0
-18702 -18708 18715 0
-18703 18716 0
-18712 18716 0
-18703 -18712 18717 0
-18715 18718 0
-18716 18718 0
-18715 -18716 18719 0
-18700 18720 0
-18714 18720 0
-18700 -18714 18721 0
-18701 18722 0
-18718 18722 0
-18701 -18718 18723 0
-18721 18724 0
-18722 18724 0
-18721 -18722 18725 0
-18724 0
-18726 0
-10816 18727 0
-10956 18727 0
-10816 -10956 18728 0
-11096 18729 0
-11236 18729 0
-11096 -11236 18730 0
-11376 18731 0
-11516 18731 0
-11376 -11516 18732 0
-11656 18733 0
-18726 18733 0
-11656 -18726 18734 0
-18731 18735 0
-18733 18735 0
-18731 -18733 18736 0
-18732 18737 0
-18734 18737 0
-18732 -18734 18738 0
-18736 18739 0
-18737 18739 0
-18736 -18737 18740 0
-18729 18741 0
-18735 18741 0
-18729 -18735 18742 0
-18730 18743 0
-18739 18743 0
-18730 -18739 18744 0
-18742 18745 0
-18743 18745 0
-18742 -18743 18746 0
-18727 18747 0
-18741 18747 0
-18727 -18741 18748 0
-18728 18749 0
-18745 18749 0
-18728 -18745 18750 0
-18748 18751 0
-18749 18751 0
-18748 -18749 18752 0
-18751 0
-18753 0
-10817 18754 0
-10957 18754 0
-10817 -10957 18755 0
-11097 18756 0
-11237 18756 0
-11097 -11237 18757 0
-11377 18758 0
-11517 18758 0
-11377 -11517 18759 0
-11657 18760 0
-18753 18760 0
-11657 -18753 18761 0
-18758 18762 0
-18760 18762 0
-18758 -18760 18763 0
-18759 18764 0
-18761 18764 0
-18759 -18761 18765 0
-18763 18766 0
-18764 18766 0
-18763 -18764 18767 0
-18756 18768 0
-18762 18768 0
-18756 -18762 18769 0
-18757 18770 0
-18766 18770 0
-18757 -18766 18771 0
-18769 18772 0
-18770 18772 0
-18769 -18770 18773 0
-18754 18774 0
-18768 18774 0
-18754 -18768 18775 0
-18755 18776 0
-18772 18776 0
-18755 -18772 18777 0
-18775 18778 0
-18776 18778 0
-18775 -18776 18779 0
-18778 0
-18780 0
-10818 18781 0
-10958 18781 0
-10818 -10958 18782 0
-11098 18783 0
-11238 18783 0
-11098 -11238 18784 0
-11378 18785 0
-11518 18785 0
-11378 -11518 18786 0
-11658 18787 0
-18780 18787 0
-11658 -18780 18788 0
-18785 18789 0
-18787 18789 0
-18785 -18787 18790 0
-18786 18791 0
-18788 18791 0
-18786 -18788 18792 0
-18790 18793 0
-18791 18793 0
-18790 -18791 18794 0
-18783 18795 0
-18789 18795 0
-18783 -18789 18796 0
-18784 18797 0
-18793 18797 0
-18784 -18793 18798 0
-18796 18799 0
-18797 18799 0
-18796 -18797 18800 0
-18781 18801 0
-18795 18801 0
-18781 -18795 18802 0
-18782 18803 0
-18799 18803 0
-18782 -18799 18804 0
-18802 18805 0
-18803 18805 0
-18802 -18803 18806 0
-18805 0
-18807 0
-10819 18808 0
-10959 18808 0
-10819 -10959 18809 0
-11099 18810 0
-11239 18810 0
-11099 -11239 18811 0
-11379 18812 0
-11519 18812 0
-11379 -11519 18813 0
-11659 18814 0
-18807 18814 0
-11659 -18807 18815 0
-18812 18816 0
-18814 18816 0
-18812 -18814 18817 0
-18813 18818 0
-18815 18818 0
-18813 -18815 18819 0
-18817 18820 0
-18818 18820 0
-18817 -18818 18821 0
-18810 18822 0
-18816 18822 0
-18810 -18816 18823 0
-18811 18824 0
-18820 18824 0
-18811 -18820 18825 0
-18823 18826 0
-18824 18826 0
-18823 -18824 18827 0
-18808 18828 0
-18822 18828 0
-18808 -18822 18829 0
-18809 18830 0
-18826 18830 0
-18809 -18826 18831 0
-18829 18832 0
-18830 18832 0
-18829 -18830 18833 0
-18832 0
-18834 0
-10820 18835 0
-10960 18835 0
-10820 -10960 18836 0
-11100 18837 0
-11240 18837 0
-11100 -11240 18838 0
-11380 18839 0
-11520 18839 0
-11380 -11520 18840 0
-11660 18841 0
-18834 18841 0
-11660 -18834 18842 0
-18839 18843 0
-18841 18843 0
-18839 -18841 18844 0
-18840 18845 0
-18842 18845 0
-18840 -18842 18846 0
-18844 18847 0
-18845 18847 0
-18844 -18845 18848 0
-18837 18849 0
-18843 18849 0
-18837 -18843 18850 0
-18838 18851 0
-18847 18851 0
-18838 -18847 18852 0
-18850 18853 0
-18851 18853 0
-18850 -18851 18854 0
-18835 18855 0
-18849 18855 0
-18835 -18849 18856 0
-18836 18857 0
-18853 18857 0
-18836 -18853 18858 0
-18856 18859 0
-18857 18859 0
-18856 -18857 18860 0
-18859 0
-18861 0
-10821 18862 0
-10961 18862 0
-10821 -10961 18863 0
-11101 18864 0
-11241 18864 0
-11101 -11241 18865 0
-11381 18866 0
-11521 18866 0
-11381 -11521 18867 0
-11661 18868 0
-18861 18868 0
-11661 -18861 18869 0
-18866 18870 0
-18868 18870 0
-18866 -18868 18871 0
-18867 18872 0
-18869 18872 0
-18867 -18869 18873 0
-18871 18874 0
-18872 18874 0
-18871 -18872 18875 0
-18864 18876 0
-18870 18876 0
-18864 -18870 18877 0
-18865 18878 0
-18874 18878 0
-18865 -18874 18879 0
-18877 18880 0
-18878 18880 0
-18877 -18878 18881 0
-18862 18882 0
-18876 18882 0
-18862 -18876 18883 0
-18863 18884 0
-18880 18884 0
-18863 -18880 18885 0
-18883 18886 0
-18884 18886 0
-18883 -18884 18887 0
-18886 0
-18888 0
-10822 18889 0
-10962 18889 0
-10822 -10962 18890 0
-11102 18891 0
-11242 18891 0
-11102 -11242 18892 0
-11382 18893 0
-11522 18893 0
-11382 -11522 18894 0
-11662 18895 0
-18888 18895 0
-11662 -18888 18896 0
-18893 18897 0
-18895 18897 0
-18893 -18895 18898 0
-18894 18899 0
-18896 18899 0
-18894 -18896 18900 0
-18898 18901 0
-18899 18901 0
-18898 -18899 18902 0
-18891 18903 0
-18897 18903 0
-18891 -18897 18904 0
-18892 18905 0
-18901 18905 0
-18892 -18901 18906 0
-18904 18907 0
-18905 18907 0
-18904 -18905 18908 0
-18889 18909 0
-18903 18909 0
-18889 -18903 18910 0
-18890 18911 0
-18907 18911 0
-18890 -18907 18912 0
-18910 18913 0
-18911 18913 0
-18910 -18911 18914 0
-18913 0
-18915 0
-10823 18916 0
-10963 18916 0
-10823 -10963 18917 0
-11103 18918 0
-11243 18918 0
-11103 -11243 18919 0
-11383 18920 0
-11523 18920 0
-11383 -11523 18921 0
-11663 18922 0
-18915 18922 0
-11663 -18915 18923 0
-18920 18924 0
-18922 18924 0
-18920 -18922 18925 0
-18921 18926 0
-18923 18926 0
-18921 -18923 18927 0
-18925 18928 0
-18926 18928 0
-18925 -18926 18929 0
-18918 18930 0
-18924 18930 0
-18918 -18924 18931 0
-18919 18932 0
-18928 18932 0
-18919 -18928 18933 0
-18931 18934 0
-18932 18934 0
-18931 -18932 18935 0
-18916 18936 0
-18930 18936 0
-18916 -18930 18937 0
-18917 18938 0
-18934 18938 0
-18917 -18934 18939 0
-18937 18940 0
-18938 18940 0
-18937 -18938 18941 0
-18940 0
-18942 0
-10824 18943 0
-10964 18943 0
-10824 -10964 18944 0
-11104 18945 0
-11244 18945 0
-11104 -11244 18946 0
-11384 18947 0
-11524 18947 0
-11384 -11524 18948 0
-11664 18949 0
-18942 18949 0
-11664 -18942 18950 0
-18947 18951 0
-18949 18951 0
-18947 -18949 18952 0
-18948 18953 0
-18950 18953 0
-18948 -18950 18954 0
-18952 18955 0
-18953 18955 0
-18952 -18953 18956 0
-18945 18957 0
-18951 18957 0
-18945 -18951 18958 0
-18946 18959 0
-18955 18959 0
-18946 -18955 18960 0
-18958 18961 0
-18959 18961 0
-18958 -18959 18962 0
-18943 18963 0
-18957 18963 0
-18943 -18957 18964 0
-18944 18965 0
-18961 18965 0
-18944 -18961 18966 0
-18964 18967 0
-18965 18967 0
-18964 -18965 18968 0
-18967 0
-18969 0
-10825 18970 0
-10965 18970 0
-10825 -10965 18971 0
-11105 18972 0
-11245 18972 0
-11105 -11245 18973 0
-11385 18974 0
-11525 18974 0
-11385 -11525 18975 0
-11665 18976 0
-18969 18976 0
-11665 -18969 18977 0
-18974 18978 0
-18976 18978 0
-18974 -18976 18979 0
-18975 18980 0
-18977 18980 0
-18975 -18977 18981 0
-18979 18982 0
-18980 18982 0
-18979 -18980 18983 0
-18972 18984 0
-18978 18984 0
-18972 -18978 18985 0
-18973 18986 0
-18982 18986 0
-18973 -18982 18987 0
-18985 18988 0
-18986 18988 0
-18985 -18986 18989 0
-18970 18990 0
-18984 18990 0
-18970 -18984 18991 0
-18971 18992 0
-18988 18992 0
-18971 -18988 18993 0
-18991 18994 0
-18992 18994 0
-18991 -18992 18995 0
-18994 0
-18996 0
-10826 18997 0
-10966 18997 0
-10826 -10966 18998 0
-11106 18999 0
-11246 18999 0
-11106 -11246 19000 0
-11386 19001 0
-11526 19001 0
-11386 -11526 19002 0
-11666 19003 0
-18996 19003 0
-11666 -18996 19004 0
-19001 19005 0
-19003 19005 0
-19001 -19003 19006 0
-19002 19007 0
-19004 19007 0
-19002 -19004 19008 0
-19006 19009 0
-19007 19009 0
-19006 -19007 19010 0
-18999 19011 0
-19005 19011 0
-18999 -19005 19012 0
-19000 19013 0
-19009 19013 0
-19000 -19009 19014 0
-19012 19015 0
-19013 19015 0
-19012 -19013 19016 0
-18997 19017 0
-19011 19017 0
-18997 -19011 19018 0
-18998 19019 0
-19015 19019 0
-18998 -19015 19020 0
-19018 19021 0
-19019 19021 0
-19018 -19019 19022 0
-19021 0
-19023 0
-10827 19024 0
-10967 19024 0
-10827 -10967 19025 0
-11107 19026 0
-11247 19026 0
-11107 -11247 19027 0
-11387 19028 0
-11527 19028 0
-11387 -11527 19029 0
-11667 19030 0
-19023 19030 0
-11667 -19023 19031 0
-19028 19032 0
-19030 19032 0
-19028 -19030 19033 0
-19029 19034 0
-19031 19034 0
-19029 -19031 19035 0
-19033 19036 0
-19034 19036 0
-19033 -19034 19037 0
-19026 19038 0
-19032 19038 0
-19026 -19032 19039 0
-19027 19040 0
-19036 19040 0
-19027 -19036 19041 0
-19039 19042 0
-19040 19042 0
-19039 -19040 19043 0
-19024 19044 0
-19038 19044 0
-19024 -19038 19045 0
-19025 19046 0
-19042 19046 0
-19025 -19042 19047 0
-19045 19048 0
-19046 19048 0
-19045 -19046 19049 0
-19048 0
-19050 0
-10828 19051 0
-10968 19051 0
-10828 -10968 19052 0
-11108 19053 0
-11248 19053 0
-11108 -11248 19054 0
-11388 19055 0
-11528 19055 0
-11388 -11528 19056 0
-11668 19057 0
-19050 19057 0
-11668 -19050 19058 0
-19055 19059 0
-19057 19059 0
-19055 -19057 19060 0
-19056 19061 0
-19058 19061 0
-19056 -19058 19062 0
-19060 19063 0
-19061 19063 0
-19060 -19061 19064 0
-19053 19065 0
-19059 19065 0
-19053 -19059 19066 0
-19054 19067 0
-19063 19067 0
-19054 -19063 19068 0
-19066 19069 0
-19067 19069 0
-19066 -19067 19070 0
-19051 19071 0
-19065 19071 0
-19051 -19065 19072 0
-19052 19073 0
-19069 19073 0
-19052 -19069 19074 0
-19072 19075 0
-19073 19075 0
-19072 -19073 19076 0
-19075 0
-19077 0
-10829 19078 0
-10969 19078 0
-10829 -10969 19079 0
-11109 19080 0
-11249 19080 0
-11109 -11249 19081 0
-11389 19082 0
-11529 19082 0
-11389 -11529 19083 0
-11669 19084 0
-19077 19084 0
-11669 -19077 19085 0
-19082 19086 0
-19084 19086 0
-19082 -19084 19087 0
-19083 19088 0
-19085 19088 0
-19083 -19085 19089 0
-19087 19090 0
-19088 19090 0
-19087 -19088 19091 0
-19080 19092 0
-19086 19092 0
-19080 -19086 19093 0
-19081 19094 0
-19090 19094 0
-19081 -19090 19095 0
-19093 19096 0
-19094 19096 0
-19093 -19094 19097 0
-19078 19098 0
-19092 19098 0
-19078 -19092 19099 0
-19079 19100 0
-19096 19100 0
-19079 -19096 19101 0
-19099 19102 0
-19100 19102 0
-19099 -19100 19103 0
-19102 0
-19104 0
-10830 19105 0
-10970 19105 0
-10830 -10970 19106 0
-11110 19107 0
-11250 19107 0
-11110 -11250 19108 0
-11390 19109 0
-11530 19109 0
-11390 -11530 19110 0
-11670 19111 0
-19104 19111 0
-11670 -19104 19112 0
-19109 19113 0
-19111 19113 0
-19109 -19111 19114 0
-19110 19115 0
-19112 19115 0
-19110 -19112 19116 0
-19114 19117 0
-19115 19117 0
-19114 -19115 19118 0
-19107 19119 0
-19113 19119 0
-19107 -19113 19120 0
-19108 19121 0
-19117 19121 0
-19108 -19117 19122 0
-19120 19123 0
-19121 19123 0
-19120 -19121 19124 0
-19105 19125 0
-19119 19125 0
-19105 -19119 19126 0
-19106 19127 0
-19123 19127 0
-19106 -19123 19128 0
-19126 19129 0
-19127 19129 0
-19126 -19127 19130 0
-19129 0
-19131 0
-10831 19132 0
-10971 19132 0
-10831 -10971 19133 0
-11111 19134 0
-11251 19134 0
-11111 -11251 19135 0
-11391 19136 0
-11531 19136 0
-11391 -11531 19137 0
-11671 19138 0
-19131 19138 0
-11671 -19131 19139 0
-19136 19140 0
-19138 19140 0
-19136 -19138 19141 0
-19137 19142 0
-19139 19142 0
-19137 -19139 19143 0
-19141 19144 0
-19142 19144 0
-19141 -19142 19145 0
-19134 19146 0
-19140 19146 0
-19134 -19140 19147 0
-19135 19148 0
-19144 19148 0
-19135 -19144 19149 0
-19147 19150 0
-19148 19150 0
-19147 -19148 19151 0
-19132 19152 0
-19146 19152 0
-19132 -19146 19153 0
-19133 19154 0
-19150 19154 0
-19133 -19150 19155 0
-19153 19156 0
-19154 19156 0
-19153 -19154 19157 0
-19156 0
-19158 0
-10832 19159 0
-10972 19159 0
-10832 -10972 19160 0
-11112 19161 0
-11252 19161 0
-11112 -11252 19162 0
-11392 19163 0
-11532 19163 0
-11392 -11532 19164 0
-11672 19165 0
-19158 19165 0
-11672 -19158 19166 0
-19163 19167 0
-19165 19167 0
-19163 -19165 19168 0
-19164 19169 0
-19166 19169 0
-19164 -19166 19170 0
-19168 19171 0
-19169 19171 0
-19168 -19169 19172 0
-19161 19173 0
-19167 19173 0
-19161 -19167 19174 0
-19162 19175 0
-19171 19175 0
-19162 -19171 19176 0
-19174 19177 0
-19175 19177 0
-19174 -19175 19178 0
-19159 19179 0
-19173 19179 0
-19159 -19173 19180 0
-19160 19181 0
-19177 19181 0
-19160 -19177 19182 0
-19180 19183 0
-19181 19183 0
-19180 -19181 19184 0
-19183 0
-19185 0
-10833 19186 0
-10973 19186 0
-10833 -10973 19187 0
-11113 19188 0
-11253 19188 0
-11113 -11253 19189 0
-11393 19190 0
-11533 19190 0
-11393 -11533 19191 0
-11673 19192 0
-19185 19192 0
-11673 -19185 19193 0
-19190 19194 0
-19192 19194 0
-19190 -19192 19195 0
-19191 19196 0
-19193 19196 0
-19191 -19193 19197 0
-19195 19198 0
-19196 19198 0
-19195 -19196 19199 0
-19188 19200 0
-19194 19200 0
-19188 -19194 19201 0
-19189 19202 0
-19198 19202 0
-19189 -19198 19203 0
-19201 19204 0
-19202 19204 0
-19201 -19202 19205 0
-19186 19206 0
-19200 19206 0
-19186 -19200 19207 0
-19187 19208 0
-19204 19208 0
-19187 -19204 19209 0
-19207 19210 0
-19208 19210 0
-19207 -19208 19211 0
-19210 0
-19212 0
-10834 19213 0
-10974 19213 0
-10834 -10974 19214 0
-11114 19215 0
-11254 19215 0
-11114 -11254 19216 0
-11394 19217 0
-11534 19217 0
-11394 -11534 19218 0
-11674 19219 0
-19212 19219 0
-11674 -19212 19220 0
-19217 19221 0
-19219 19221 0
-19217 -19219 19222 0
-19218 19223 0
-19220 19223 0
-19218 -19220 19224 0
-19222 19225 0
-19223 19225 0
-19222 -19223 19226 0
-19215 19227 0
-19221 19227 0
-19215 -19221 19228 0
-19216 19229 0
-19225 19229 0
-19216 -19225 19230 0
-19228 19231 0
-19229 19231 0
-19228 -19229 19232 0
-19213 19233 0
-19227 19233 0
-19213 -19227 19234 0
-19214 19235 0
-19231 19235 0
-19214 -19231 19236 0
-19234 19237 0
-19235 19237 0
-19234 -19235 19238 0
-19237 0
-19239 0
-10835 19240 0
-10975 19240 0
-10835 -10975 19241 0
-11115 19242 0
-11255 19242 0
-11115 -11255 19243 0
-11395 19244 0
-11535 19244 0
-11395 -11535 19245 0
-11675 19246 0
-19239 19246 0
-11675 -19239 19247 0
-19244 19248 0
-19246 19248 0
-19244 -19246 19249 0
-19245 19250 0
-19247 19250 0
-19245 -19247 19251 0
-19249 19252 0
-19250 19252 0
-19249 -19250 19253 0
-19242 19254 0
-19248 19254 0
-19242 -19248 19255 0
-19243 19256 0
-19252 19256 0
-19243 -19252 19257 0
-19255 19258 0
-19256 19258 0
-19255 -19256 19259 0
-19240 19260 0
-19254 19260 0
-19240 -19254 19261 0
-19241 19262 0
-19258 19262 0
-19241 -19258 19263 0
-19261 19264 0
-19262 19264 0
-19261 -19262 19265 0
-19264 0
-19266 0
-10836 19267 0
-10976 19267 0
-10836 -10976 19268 0
-11116 19269 0
-11256 19269 0
-11116 -11256 19270 0
-11396 19271 0
-11536 19271 0
-11396 -11536 19272 0
-11676 19273 0
-19266 19273 0
-11676 -19266 19274 0
-19271 19275 0
-19273 19275 0
-19271 -19273 19276 0
-19272 19277 0
-19274 19277 0
-19272 -19274 19278 0
-19276 19279 0
-19277 19279 0
-19276 -19277 19280 0
-19269 19281 0
-19275 19281 0
-19269 -19275 19282 0
-19270 19283 0
-19279 19283 0
-19270 -19279 19284 0
-19282 19285 0
-19283 19285 0
-19282 -19283 19286 0
-19267 19287 0
-19281 19287 0
-19267 -19281 19288 0
-19268 19289 0
-19285 19289 0
-19268 -19285 19290 0
-19288 19291 0
-19289 19291 0
-19288 -19289 19292 0
-19291 0
-19293 0
-10837 19294 0
-10977 19294 0
-10837 -10977 19295 0
-11117 19296 0
-11257 19296 0
-11117 -11257 19297 0
-11397 19298 0
-11537 19298 0
-11397 -11537 19299 0
-11677 19300 0
-19293 19300 0
-11677 -19293 19301 0
-19298 19302 0
-19300 19302 0
-19298 -19300 19303 0
-19299 19304 0
-19301 19304 0
-19299 -19301 19305 0
-19303 19306 0
-19304 19306 0
-19303 -19304 19307 0
-19296 19308 0
-19302 19308 0
-19296 -19302 19309 0
-19297 19310 0
-19306 19310 0
-19297 -19306 19311 0
-19309 19312 0
-19310 19312 0
-19309 -19310 19313 0
-19294 19314 0
-19308 19314 0
-19294 -19308 19315 0
-19295 19316 0
-19312 19316 0
-19295 -19312 19317 0
-19315 19318 0
-19316 19318 0
-19315 -19316 19319 0
-19318 0
-19320 0
-10838 19321 0
-10978 19321 0
-10838 -10978 19322 0
-11118 19323 0
-11258 19323 0
-11118 -11258 19324 0
-11398 19325 0
-11538 19325 0
-11398 -11538 19326 0
-11678 19327 0
-19320 19327 0
-11678 -19320 19328 0
-19325 19329 0
-19327 19329 0
-19325 -19327 19330 0
-19326 19331 0
-19328 19331 0
-19326 -19328 19332 0
-19330 19333 0
-19331 19333 0
-19330 -19331 19334 0
-19323 19335 0
-19329 19335 0
-19323 -19329 19336 0
-19324 19337 0
-19333 19337 0
-19324 -19333 19338 0
-19336 19339 0
-19337 19339 0
-19336 -19337 19340 0
-19321 19341 0
-19335 19341 0
-19321 -19335 19342 0
-19322 19343 0
-19339 19343 0
-19322 -19339 19344 0
-19342 19345 0
-19343 19345 0
-19342 -19343 19346 0
-19345 0
-19347 0
-10839 19348 0
-10979 19348 0
-10839 -10979 19349 0
-11119 19350 0
-11259 19350 0
-11119 -11259 19351 0
-11399 19352 0
-11539 19352 0
-11399 -11539 19353 0
-11679 19354 0
-19347 19354 0
-11679 -19347 19355 0
-19352 19356 0
-19354 19356 0
-19352 -19354 19357 0
-19353 19358 0
-19355 19358 0
-19353 -19355 19359 0
-19357 19360 0
-19358 19360 0
-19357 -19358 19361 0
-19350 19362 0
-19356 19362 0
-19350 -19356 19363 0
-19351 19364 0
-19360 19364 0
-19351 -19360 19365 0
-19363 19366 0
-19364 19366 0
-19363 -19364 19367 0
-19348 19368 0
-19362 19368 0
-19348 -19362 19369 0
-19349 19370 0
-19366 19370 0
-19349 -19366 19371 0
-19369 19372 0
-19370 19372 0
-19369 -19370 19373 0
-19372 0
-19374 0
-10840 19375 0
-10980 19375 0
-10840 -10980 19376 0
-11120 19377 0
-11260 19377 0
-11120 -11260 19378 0
-11400 19379 0
-11540 19379 0
-11400 -11540 19380 0
-11680 19381 0
-19374 19381 0
-11680 -19374 19382 0
-19379 19383 0
-19381 19383 0
-19379 -19381 19384 0
-19380 19385 0
-19382 19385 0
-19380 -19382 19386 0
-19384 19387 0
-19385 19387 0
-19384 -19385 19388 0
-19377 19389 0
-19383 19389 0
-19377 -19383 19390 0
-19378 19391 0
-19387 19391 0
-19378 -19387 19392 0
-19390 19393 0
-19391 19393 0
-19390 -19391 19394 0
-19375 19395 0
-19389 19395 0
-19375 -19389 19396 0
-19376 19397 0
-19393 19397 0
-19376 -19393 19398 0
-19396 19399 0
-19397 19399 0
-19396 -19397 19400 0
-19399 0
-19401 0
-10841 19402 0
-10981 19402 0
-10841 -10981 19403 0
-11121 19404 0
-11261 19404 0
-11121 -11261 19405 0
-11401 19406 0
-11541 19406 0
-11401 -11541 19407 0
-11681 19408 0
-19401 19408 0
-11681 -19401 19409 0
-19406 19410 0
-19408 19410 0
-19406 -19408 19411 0
-19407 19412 0
-19409 19412 0
-19407 -19409 19413 0
-19411 19414 0
-19412 19414 0
-19411 -19412 19415 0
-19404 19416 0
-19410 19416 0
-19404 -19410 19417 0
-19405 19418 0
-19414 19418 0
-19405 -19414 19419 0
-19417 19420 0
-19418 19420 0
-19417 -19418 19421 0
-19402 19422 0
-19416 19422 0
-19402 -19416 19423 0
-19403 19424 0
-19420 19424 0
-19403 -19420 19425 0
-19423 19426 0
-19424 19426 0
-19423 -19424 19427 0
-19426 0
-19428 0
-10842 19429 0
-10982 19429 0
-10842 -10982 19430 0
-11122 19431 0
-11262 19431 0
-11122 -11262 19432 0
-11402 19433 0
-11542 19433 0
-11402 -11542 19434 0
-11682 19435 0
-19428 19435 0
-11682 -19428 19436 0
-19433 19437 0
-19435 19437 0
-19433 -19435 19438 0
-19434 19439 0
-19436 19439 0
-19434 -19436 19440 0
-19438 19441 0
-19439 19441 0
-19438 -19439 19442 0
-19431 19443 0
-19437 19443 0
-19431 -19437 19444 0
-19432 19445 0
-19441 19445 0
-19432 -19441 19446 0
-19444 19447 0
-19445 19447 0
-19444 -19445 19448 0
-19429 19449 0
-19443 19449 0
-19429 -19443 19450 0
-19430 19451 0
-19447 19451 0
-19430 -19447 19452 0
-19450 19453 0
-19451 19453 0
-19450 -19451 19454 0
-19453 0
-19455 0
-10843 19456 0
-10983 19456 0
-10843 -10983 19457 0
-11123 19458 0
-11263 19458 0
-11123 -11263 19459 0
-11403 19460 0
-11543 19460 0
-11403 -11543 19461 0
-11683 19462 0
-19455 19462 0
-11683 -19455 19463 0
-19460 19464 0
-19462 19464 0
-19460 -19462 19465 0
-19461 19466 0
-19463 19466 0
-19461 -19463 19467 0
-19465 19468 0
-19466 19468 0
-19465 -19466 19469 0
-19458 19470 0
-19464 19470 0
-19458 -19464 19471 0
-19459 19472 0
-19468 19472 0
-19459 -19468 19473 0
-19471 19474 0
-19472 19474 0
-19471 -19472 19475 0
-19456 19476 0
-19470 19476 0
-19456 -19470 19477 0
-19457 19478 0
-19474 19478 0
-19457 -19474 19479 0
-19477 19480 0
-19478 19480 0
-19477 -19478 19481 0
-19480 0
-19482 0
-10844 19483 0
-10984 19483 0
-10844 -10984 19484 0
-11124 19485 0
-11264 19485 0
-11124 -11264 19486 0
-11404 19487 0
-11544 19487 0
-11404 -11544 19488 0
-11684 19489 0
-19482 19489 0
-11684 -19482 19490 0
-19487 19491 0
-19489 19491 0
-19487 -19489 19492 0
-19488 19493 0
-19490 19493 0
-19488 -19490 19494 0
-19492 19495 0
-19493 19495 0
-19492 -19493 19496 0
-19485 19497 0
-19491 19497 0
-19485 -19491 19498 0
-19486 19499 0
-19495 19499 0
-19486 -19495 19500 0
-19498 19501 0
-19499 19501 0
-19498 -19499 19502 0
-19483 19503 0
-19497 19503 0
-19483 -19497 19504 0
-19484 19505 0
-19501 19505 0
-19484 -19501 19506 0
-19504 19507 0
-19505 19507 0
-19504 -19505 19508 0
-19507 0
-19509 0
-10845 19510 0
-10985 19510 0
-10845 -10985 19511 0
-11125 19512 0
-11265 19512 0
-11125 -11265 19513 0
-11405 19514 0
-11545 19514 0
-11405 -11545 19515 0
-11685 19516 0
-19509 19516 0
-11685 -19509 19517 0
-19514 19518 0
-19516 19518 0
-19514 -19516 19519 0
-19515 19520 0
-19517 19520 0
-19515 -19517 19521 0
-19519 19522 0
-19520 19522 0
-19519 -19520 19523 0
-19512 19524 0
-19518 19524 0
-19512 -19518 19525 0
-19513 19526 0
-19522 19526 0
-19513 -19522 19527 0
-19525 19528 0
-19526 19528 0
-19525 -19526 19529 0
-19510 19530 0
-19524 19530 0
-19510 -19524 19531 0
-19511 19532 0
-19528 19532 0
-19511 -19528 19533 0
-19531 19534 0
-19532 19534 0
-19531 -19532 19535 0
-19534 0
-19536 0
-10846 19537 0
-10986 19537 0
-10846 -10986 19538 0
-11126 19539 0
-11266 19539 0
-11126 -11266 19540 0
-11406 19541 0
-11546 19541 0
-11406 -11546 19542 0
-11686 19543 0
-19536 19543 0
-11686 -19536 19544 0
-19541 19545 0
-19543 19545 0
-19541 -19543 19546 0
-19542 19547 0
-19544 19547 0
-19542 -19544 19548 0
-19546 19549 0
-19547 19549 0
-19546 -19547 19550 0
-19539 19551 0
-19545 19551 0
-19539 -19545 19552 0
-19540 19553 0
-19549 19553 0
-19540 -19549 19554 0
-19552 19555 0
-19553 19555 0
-19552 -19553 19556 0
-19537 19557 0
-19551 19557 0
-19537 -19551 19558 0
-19538 19559 0
-19555 19559 0
-19538 -19555 19560 0
-19558 19561 0
-19559 19561 0
-19558 -19559 19562 0
-19561 0
-19563 0
-10847 19564 0
-10987 19564 0
-10847 -10987 19565 0
-11127 19566 0
-11267 19566 0
-11127 -11267 19567 0
-11407 19568 0
-11547 19568 0
-11407 -11547 19569 0
-11687 19570 0
-19563 19570 0
-11687 -19563 19571 0
-19568 19572 0
-19570 19572 0
-19568 -19570 19573 0
-19569 19574 0
-19571 19574 0
-19569 -19571 19575 0
-19573 19576 0
-19574 19576 0
-19573 -19574 19577 0
-19566 19578 0
-19572 19578 0
-19566 -19572 19579 0
-19567 19580 0
-19576 19580 0
-19567 -19576 19581 0
-19579 19582 0
-19580 19582 0
-19579 -19580 19583 0
-19564 19584 0
-19578 19584 0
-19564 -19578 19585 0
-19565 19586 0
-19582 19586 0
-19565 -19582 19587 0
-19585 19588 0
-19586 19588 0
-19585 -19586 19589 0
-19588 0
-19590 0
-10848 19591 0
-10988 19591 0
-10848 -10988 19592 0
-11128 19593 0
-11268 19593 0
-11128 -11268 19594 0
-11408 19595 0
-11548 19595 0
-11408 -11548 19596 0
-11688 19597 0
-19590 19597 0
-11688 -19590 19598 0
-19595 19599 0
-19597 19599 0
-19595 -19597 19600 0
-19596 19601 0
-19598 19601 0
-19596 -19598 19602 0
-19600 19603 0
-19601 19603 0
-19600 -19601 19604 0
-19593 19605 0
-19599 19605 0
-19593 -19599 19606 0
-19594 19607 0
-19603 19607 0
-19594 -19603 19608 0
-19606 19609 0
-19607 19609 0
-19606 -19607 19610 0
-19591 19611 0
-19605 19611 0
-19591 -19605 19612 0
-19592 19613 0
-19609 19613 0
-19592 -19609 19614 0
-19612 19615 0
-19613 19615 0
-19612 -19613 19616 0
-19615 0
-19617 0
-10849 19618 0
-10989 19618 0
-10849 -10989 19619 0
-11129 19620 0
-11269 19620 0
-11129 -11269 19621 0
-11409 19622 0
-11549 19622 0
-11409 -11549 19623 0
-11689 19624 0
-19617 19624 0
-11689 -19617 19625 0
-19622 19626 0
-19624 19626 0
-19622 -19624 19627 0
-19623 19628 0
-19625 19628 0
-19623 -19625 19629 0
-19627 19630 0
-19628 19630 0
-19627 -19628 19631 0
-19620 19632 0
-19626 19632 0
-19620 -19626 19633 0
-19621 19634 0
-19630 19634 0
-19621 -19630 19635 0
-19633 19636 0
-19634 19636 0
-19633 -19634 19637 0
-19618 19638 0
-19632 19638 0
-19618 -19632 19639 0
-19619 19640 0
-19636 19640 0
-19619 -19636 19641 0
-19639 19642 0
-19640 19642 0
-19639 -19640 19643 0
-19642 0
-19644 0
-10850 19645 0
-10990 19645 0
-10850 -10990 19646 0
-11130 19647 0
-11270 19647 0
-11130 -11270 19648 0
-11410 19649 0
-11550 19649 0
-11410 -11550 19650 0
-11690 19651 0
-19644 19651 0
-11690 -19644 19652 0
-19649 19653 0
-19651 19653 0
-19649 -19651 19654 0
-19650 19655 0
-19652 19655 0
-19650 -19652 19656 0
-19654 19657 0
-19655 19657 0
-19654 -19655 19658 0
-19647 19659 0
-19653 19659 0
-19647 -19653 19660 0
-19648 19661 0
-19657 19661 0
-19648 -19657 19662 0
-19660 19663 0
-19661 19663 0
-19660 -19661 19664 0
-19645 19665 0
-19659 19665 0
-19645 -19659 19666 0
-19646 19667 0
-19663 19667 0
-19646 -19663 19668 0
-19666 19669 0
-19667 19669 0
-19666 -19667 19670 0
-19669 0
-19671 0
-10851 19672 0
-10991 19672 0
-10851 -10991 19673 0
-11131 19674 0
-11271 19674 0
-11131 -11271 19675 0
-11411 19676 0
-11551 19676 0
-11411 -11551 19677 0
-11691 19678 0
-19671 19678 0
-11691 -19671 19679 0
-19676 19680 0
-19678 19680 0
-19676 -19678 19681 0
-19677 19682 0
-19679 19682 0
-19677 -19679 19683 0
-19681 19684 0
-19682 19684 0
-19681 -19682 19685 0
-19674 19686 0
-19680 19686 0
-19674 -19680 19687 0
-19675 19688 0
-19684 19688 0
-19675 -19684 19689 0
-19687 19690 0
-19688 19690 0
-19687 -19688 19691 0
-19672 19692 0
-19686 19692 0
-19672 -19686 19693 0
-19673 19694 0
-19690 19694 0
-19673 -19690 19695 0
-19693 19696 0
-19694 19696 0
-19693 -19694 19697 0
-19696 0
-19698 0
-10852 19699 0
-10992 19699 0
-10852 -10992 19700 0
-11132 19701 0
-11272 19701 0
-11132 -11272 19702 0
-11412 19703 0
-11552 19703 0
-11412 -11552 19704 0
-11692 19705 0
-19698 19705 0
-11692 -19698 19706 0
-19703 19707 0
-19705 19707 0
-19703 -19705 19708 0
-19704 19709 0
-19706 19709 0
-19704 -19706 19710 0
-19708 19711 0
-19709 19711 0
-19708 -19709 19712 0
-19701 19713 0
-19707 19713 0
-19701 -19707 19714 0
-19702 19715 0
-19711 19715 0
-19702 -19711 19716 0
-19714 19717 0
-19715 19717 0
-19714 -19715 19718 0
-19699 19719 0
-19713 19719 0
-19699 -19713 19720 0
-19700 19721 0
-19717 19721 0
-19700 -19717 19722 0
-19720 19723 0
-19721 19723 0
-19720 -19721 19724 0
-19723 0
-19725 0
-10853 19726 0
-10993 19726 0
-10853 -10993 19727 0
-11133 19728 0
-11273 19728 0
-11133 -11273 19729 0
-11413 19730 0
-11553 19730 0
-11413 -11553 19731 0
-11693 19732 0
-19725 19732 0
-11693 -19725 19733 0
-19730 19734 0
-19732 19734 0
-19730 -19732 19735 0
-19731 19736 0
-19733 19736 0
-19731 -19733 19737 0
-19735 19738 0
-19736 19738 0
-19735 -19736 19739 0
-19728 19740 0
-19734 19740 0
-19728 -19734 19741 0
-19729 19742 0
-19738 19742 0
-19729 -19738 19743 0
-19741 19744 0
-19742 19744 0
-19741 -19742 19745 0
-19726 19746 0
-19740 19746 0
-19726 -19740 19747 0
-19727 19748 0
-19744 19748 0
-19727 -19744 19749 0
-19747 19750 0
-19748 19750 0
-19747 -19748 19751 0
-19750 0
-19752 0
-10854 19753 0
-10994 19753 0
-10854 -10994 19754 0
-11134 19755 0
-11274 19755 0
-11134 -11274 19756 0
-11414 19757 0
-11554 19757 0
-11414 -11554 19758 0
-11694 19759 0
-19752 19759 0
-11694 -19752 19760 0
-19757 19761 0
-19759 19761 0
-19757 -19759 19762 0
-19758 19763 0
-19760 19763 0
-19758 -19760 19764 0
-19762 19765 0
-19763 19765 0
-19762 -19763 19766 0
-19755 19767 0
-19761 19767 0
-19755 -19761 19768 0
-19756 19769 0
-19765 19769 0
-19756 -19765 19770 0
-19768 19771 0
-19769 19771 0
-19768 -19769 19772 0
-19753 19773 0
-19767 19773 0
-19753 -19767 19774 0
-19754 19775 0
-19771 19775 0
-19754 -19771 19776 0
-19774 19777 0
-19775 19777 0
-19774 -19775 19778 0
-19777 0
-19779 0
-10855 19780 0
-10995 19780 0
-10855 -10995 19781 0
-11135 19782 0
-11275 19782 0
-11135 -11275 19783 0
-11415 19784 0
-11555 19784 0
-11415 -11555 19785 0
-11695 19786 0
-19779 19786 0
-11695 -19779 19787 0
-19784 19788 0
-19786 19788 0
-19784 -19786 19789 0
-19785 19790 0
-19787 19790 0
-19785 -19787 19791 0
-19789 19792 0
-19790 19792 0
-19789 -19790 19793 0
-19782 19794 0
-19788 19794 0
-19782 -19788 19795 0
-19783 19796 0
-19792 19796 0
-19783 -19792 19797 0
-19795 19798 0
-19796 19798 0
-19795 -19796 19799 0
-19780 19800 0
-19794 19800 0
-19780 -19794 19801 0
-19781 19802 0
-19798 19802 0
-19781 -19798 19803 0
-19801 19804 0
-19802 19804 0
-19801 -19802 19805 0
-19804 0
-19806 0
-10856 19807 0
-10996 19807 0
-10856 -10996 19808 0
-11136 19809 0
-11276 19809 0
-11136 -11276 19810 0
-11416 19811 0
-11556 19811 0
-11416 -11556 19812 0
-11696 19813 0
-19806 19813 0
-11696 -19806 19814 0
-19811 19815 0
-19813 19815 0
-19811 -19813 19816 0
-19812 19817 0
-19814 19817 0
-19812 -19814 19818 0
-19816 19819 0
-19817 19819 0
-19816 -19817 19820 0
-19809 19821 0
-19815 19821 0
-19809 -19815 19822 0
-19810 19823 0
-19819 19823 0
-19810 -19819 19824 0
-19822 19825 0
-19823 19825 0
-19822 -19823 19826 0
-19807 19827 0
-19821 19827 0
-19807 -19821 19828 0
-19808 19829 0
-19825 19829 0
-19808 -19825 19830 0
-19828 19831 0
-19829 19831 0
-19828 -19829 19832 0
-19831 0
-19833 0
-10857 19834 0
-10997 19834 0
-10857 -10997 19835 0
-11137 19836 0
-11277 19836 0
-11137 -11277 19837 0
-11417 19838 0
-11557 19838 0
-11417 -11557 19839 0
-11697 19840 0
-19833 19840 0
-11697 -19833 19841 0
-19838 19842 0
-19840 19842 0
-19838 -19840 19843 0
-19839 19844 0
-19841 19844 0
-19839 -19841 19845 0
-19843 19846 0
-19844 19846 0
-19843 -19844 19847 0
-19836 19848 0
-19842 19848 0
-19836 -19842 19849 0
-19837 19850 0
-19846 19850 0
-19837 -19846 19851 0
-19849 19852 0
-19850 19852 0
-19849 -19850 19853 0
-19834 19854 0
-19848 19854 0
-19834 -19848 19855 0
-19835 19856 0
-19852 19856 0
-19835 -19852 19857 0
-19855 19858 0
-19856 19858 0
-19855 -19856 19859 0
-19858 0
-19860 0
-10858 19861 0
-10998 19861 0
-10858 -10998 19862 0
-11138 19863 0
-11278 19863 0
-11138 -11278 19864 0
-11418 19865 0
-11558 19865 0
-11418 -11558 19866 0
-11698 19867 0
-19860 19867 0
-11698 -19860 19868 0
-19865 19869 0
-19867 19869 0
-19865 -19867 19870 0
-19866 19871 0
-19868 19871 0
-19866 -19868 19872 0
-19870 19873 0
-19871 19873 0
-19870 -19871 19874 0
-19863 19875 0
-19869 19875 0
-19863 -19869 19876 0
-19864 19877 0
-19873 19877 0
-19864 -19873 19878 0
-19876 19879 0
-19877 19879 0
-19876 -19877 19880 0
-19861 19881 0
-19875 19881 0
-19861 -19875 19882 0
-19862 19883 0
-19879 19883 0
-19862 -19879 19884 0
-19882 19885 0
-19883 19885 0
-19882 -19883 19886 0
-19885 0
-19887 0
-10859 19888 0
-10999 19888 0
-10859 -10999 19889 0
-11139 19890 0
-11279 19890 0
-11139 -11279 19891 0
-11419 19892 0
-11559 19892 0
-11419 -11559 19893 0
-11699 19894 0
-19887 19894 0
-11699 -19887 19895 0
-19892 19896 0
-19894 19896 0
-19892 -19894 19897 0
-19893 19898 0
-19895 19898 0
-19893 -19895 19899 0
-19897 19900 0
-19898 19900 0
-19897 -19898 19901 0
-19890 19902 0
-19896 19902 0
-19890 -19896 19903 0
-19891 19904 0
-19900 19904 0
-19891 -19900 19905 0
-19903 19906 0
-19904 19906 0
-19903 -19904 19907 0
-19888 19908 0
-19902 19908 0
-19888 -19902 19909 0
-19889 19910 0
-19906 19910 0
-19889 -19906 19911 0
-19909 19912 0
-19910 19912 0
-19909 -19910 19913 0
-19912 0
-19914 0
-10860 19915 0
-11000 19915 0
-10860 -11000 19916 0
-11140 19917 0
-11280 19917 0
-11140 -11280 19918 0
-11420 19919 0
-11560 19919 0
-11420 -11560 19920 0
-11700 19921 0
-19914 19921 0
-11700 -19914 19922 0
-19919 19923 0
-19921 19923 0
-19919 -19921 19924 0
-19920 19925 0
-19922 19925 0
-19920 -19922 19926 0
-19924 19927 0
-19925 19927 0
-19924 -19925 19928 0
-19917 19929 0
-19923 19929 0
-19917 -19923 19930 0
-19918 19931 0
-19927 19931 0
-19918 -19927 19932 0
-19930 19933 0
-19931 19933 0
-19930 -19931 19934 0
-19915 19935 0
-19929 19935 0
-19915 -19929 19936 0
-19916 19937 0
-19933 19937 0
-19916 -19933 19938 0
-19936 19939 0
-19937 19939 0
-19936 -19937 19940 0
-19939 0
-19941 0
-10861 19942 0
-11001 19942 0
-10861 -11001 19943 0
-11141 19944 0
-11281 19944 0
-11141 -11281 19945 0
-11421 19946 0
-11561 19946 0
-11421 -11561 19947 0
-11701 19948 0
-19941 19948 0
-11701 -19941 19949 0
-19946 19950 0
-19948 19950 0
-19946 -19948 19951 0
-19947 19952 0
-19949 19952 0
-19947 -19949 19953 0
-19951 19954 0
-19952 19954 0
-19951 -19952 19955 0
-19944 19956 0
-19950 19956 0
-19944 -19950 19957 0
-19945 19958 0
-19954 19958 0
-19945 -19954 19959 0
-19957 19960 0
-19958 19960 0
-19957 -19958 19961 0
-19942 19962 0
-19956 19962 0
-19942 -19956 19963 0
-19943 19964 0
-19960 19964 0
-19943 -19960 19965 0
-19963 19966 0
-19964 19966 0
-19963 -19964 19967 0
-19966 0
-19968 0
-10862 19969 0
-11002 19969 0
-10862 -11002 19970 0
-11142 19971 0
-11282 19971 0
-11142 -11282 19972 0
-11422 19973 0
-11562 19973 0
-11422 -11562 19974 0
-11702 19975 0
-19968 19975 0
-11702 -19968 19976 0
-19973 19977 0
-19975 19977 0
-19973 -19975 19978 0
-19974 19979 0
-19976 19979 0
-19974 -19976 19980 0
-19978 19981 0
-19979 19981 0
-19978 -19979 19982 0
-19971 19983 0
-19977 19983 0
-19971 -19977 19984 0
-19972 19985 0
-19981 19985 0
-19972 -19981 19986 0
-19984 19987 0
-19985 19987 0
-19984 -19985 19988 0
-19969 19989 0
-19983 19989 0
-19969 -19983 19990 0
-19970 19991 0
-19987 19991 0
-19970 -19987 19992 0
-19990 19993 0
-19991 19993 0
-19990 -19991 19994 0
-19993 0
-19995 0
-10863 19996 0
-11003 19996 0
-10863 -11003 19997 0
-11143 19998 0
-11283 19998 0
-11143 -11283 19999 0
-11423 20000 0
-11563 20000 0
-11423 -11563 20001 0
-11703 20002 0
-19995 20002 0
-11703 -19995 20003 0
-20000 20004 0
-20002 20004 0
-20000 -20002 20005 0
-20001 20006 0
-20003 20006 0
-20001 -20003 20007 0
-20005 20008 0
-20006 20008 0
-20005 -20006 20009 0
-19998 20010 0
-20004 20010 0
-19998 -20004 20011 0
-19999 20012 0
-20008 20012 0
-19999 -20008 20013 0
-20011 20014 0
-20012 20014 0
-20011 -20012 20015 0
-19996 20016 0
-20010 20016 0
-19996 -20010 20017 0
-19997 20018 0
-20014 20018 0
-19997 -20014 20019 0
-20017 20020 0
-20018 20020 0
-20017 -20018 20021 0
-20020 0
-20022 0
-10864 20023 0
-11004 20023 0
-10864 -11004 20024 0
-11144 20025 0
-11284 20025 0
-11144 -11284 20026 0
-11424 20027 0
-11564 20027 0
-11424 -11564 20028 0
-11704 20029 0
-20022 20029 0
-11704 -20022 20030 0
-20027 20031 0
-20029 20031 0
-20027 -20029 20032 0
-20028 20033 0
-20030 20033 0
-20028 -20030 20034 0
-20032 20035 0
-20033 20035 0
-20032 -20033 20036 0
-20025 20037 0
-20031 20037 0
-20025 -20031 20038 0
-20026 20039 0
-20035 20039 0
-20026 -20035 20040 0
-20038 20041 0
-20039 20041 0
-20038 -20039 20042 0
-20023 20043 0
-20037 20043 0
-20023 -20037 20044 0
-20024 20045 0
-20041 20045 0
-20024 -20041 20046 0
-20044 20047 0
-20045 20047 0
-20044 -20045 20048 0
-20047 0
-20049 0
-10865 20050 0
-11005 20050 0
-10865 -11005 20051 0
-11145 20052 0
-11285 20052 0
-11145 -11285 20053 0
-11425 20054 0
-11565 20054 0
-11425 -11565 20055 0
-11705 20056 0
-20049 20056 0
-11705 -20049 20057 0
-20054 20058 0
-20056 20058 0
-20054 -20056 20059 0
-20055 20060 0
-20057 20060 0
-20055 -20057 20061 0
-20059 20062 0
-20060 20062 0
-20059 -20060 20063 0
-20052 20064 0
-20058 20064 0
-20052 -20058 20065 0
-20053 20066 0
-20062 20066 0
-20053 -20062 20067 0
-20065 20068 0
-20066 20068 0
-20065 -20066 20069 0
-20050 20070 0
-20064 20070 0
-20050 -20064 20071 0
-20051 20072 0
-20068 20072 0
-20051 -20068 20073 0
-20071 20074 0
-20072 20074 0
-20071 -20072 20075 0
-20074 0
-20076 0
-10866 20077 0
-11006 20077 0
-10866 -11006 20078 0
-11146 20079 0
-11286 20079 0
-11146 -11286 20080 0
-11426 20081 0
-11566 20081 0
-11426 -11566 20082 0
-11706 20083 0
-20076 20083 0
-11706 -20076 20084 0
-20081 20085 0
-20083 20085 0
-20081 -20083 20086 0
-20082 20087 0
-20084 20087 0
-20082 -20084 20088 0
-20086 20089 0
-20087 20089 0
-20086 -20087 20090 0
-20079 20091 0
-20085 20091 0
-20079 -20085 20092 0
-20080 20093 0
-20089 20093 0
-20080 -20089 20094 0
-20092 20095 0
-20093 20095 0
-20092 -20093 20096 0
-20077 20097 0
-20091 20097 0
-20077 -20091 20098 0
-20078 20099 0
-20095 20099 0
-20078 -20095 20100 0
-20098 20101 0
-20099 20101 0
-20098 -20099 20102 0
-20101 0
-20103 0
-10867 20104 0
-11007 20104 0
-10867 -11007 20105 0
-11147 20106 0
-11287 20106 0
-11147 -11287 20107 0
-11427 20108 0
-11567 20108 0
-11427 -11567 20109 0
-11707 20110 0
-20103 20110 0
-11707 -20103 20111 0
-20108 20112 0
-20110 20112 0
-20108 -20110 20113 0
-20109 20114 0
-20111 20114 0
-20109 -20111 20115 0
-20113 20116 0
-20114 20116 0
-20113 -20114 20117 0
-20106 20118 0
-20112 20118 0
-20106 -20112 20119 0
-20107 20120 0
-20116 20120 0
-20107 -20116 20121 0
-20119 20122 0
-20120 20122 0
-20119 -20120 20123 0
-20104 20124 0
-20118 20124 0
-20104 -20118 20125 0
-20105 20126 0
-20122 20126 0
-20105 -20122 20127 0
-20125 20128 0
-20126 20128 0
-20125 -20126 20129 0
-20128 0
-20130 0
-10868 20131 0
-11008 20131 0
-10868 -11008 20132 0
-11148 20133 0
-11288 20133 0
-11148 -11288 20134 0
-11428 20135 0
-11568 20135 0
-11428 -11568 20136 0
-11708 20137 0
-20130 20137 0
-11708 -20130 20138 0
-20135 20139 0
-20137 20139 0
-20135 -20137 20140 0
-20136 20141 0
-20138 20141 0
-20136 -20138 20142 0
-20140 20143 0
-20141 20143 0
-20140 -20141 20144 0
-20133 20145 0
-20139 20145 0
-20133 -20139 20146 0
-20134 20147 0
-20143 20147 0
-20134 -20143 20148 0
-20146 20149 0
-20147 20149 0
-20146 -20147 20150 0
-20131 20151 0
-20145 20151 0
-20131 -20145 20152 0
-20132 20153 0
-20149 20153 0
-20132 -20149 20154 0
-20152 20155 0
-20153 20155 0
-20152 -20153 20156 0
-20155 0
-20157 0
-10869 20158 0
-11009 20158 0
-10869 -11009 20159 0
-11149 20160 0
-11289 20160 0
-11149 -11289 20161 0
-11429 20162 0
-11569 20162 0
-11429 -11569 20163 0
-11709 20164 0
-20157 20164 0
-11709 -20157 20165 0
-20162 20166 0
-20164 20166 0
-20162 -20164 20167 0
-20163 20168 0
-20165 20168 0
-20163 -20165 20169 0
-20167 20170 0
-20168 20170 0
-20167 -20168 20171 0
-20160 20172 0
-20166 20172 0
-20160 -20166 20173 0
-20161 20174 0
-20170 20174 0
-20161 -20170 20175 0
-20173 20176 0
-20174 20176 0
-20173 -20174 20177 0
-20158 20178 0
-20172 20178 0
-20158 -20172 20179 0
-20159 20180 0
-20176 20180 0
-20159 -20176 20181 0
-20179 20182 0
-20180 20182 0
-20179 -20180 20183 0
-20182 0
-20184 0
-10870 20185 0
-11010 20185 0
-10870 -11010 20186 0
-11150 20187 0
-11290 20187 0
-11150 -11290 20188 0
-11430 20189 0
-11570 20189 0
-11430 -11570 20190 0
-11710 20191 0
-20184 20191 0
-11710 -20184 20192 0
-20189 20193 0
-20191 20193 0
-20189 -20191 20194 0
-20190 20195 0
-20192 20195 0
-20190 -20192 20196 0
-20194 20197 0
-20195 20197 0
-20194 -20195 20198 0
-20187 20199 0
-20193 20199 0
-20187 -20193 20200 0
-20188 20201 0
-20197 20201 0
-20188 -20197 20202 0
-20200 20203 0
-20201 20203 0
-20200 -20201 20204 0
-20185 20205 0
-20199 20205 0
-20185 -20199 20206 0
-20186 20207 0
-20203 20207 0
-20186 -20203 20208 0
-20206 20209 0
-20207 20209 0
-20206 -20207 20210 0
-20209 0
-20211 0
-10871 20212 0
-11011 20212 0
-10871 -11011 20213 0
-11151 20214 0
-11291 20214 0
-11151 -11291 20215 0
-11431 20216 0
-11571 20216 0
-11431 -11571 20217 0
-11711 20218 0
-20211 20218 0
-11711 -20211 20219 0
-20216 20220 0
-20218 20220 0
-20216 -20218 20221 0
-20217 20222 0
-20219 20222 0
-20217 -20219 20223 0
-20221 20224 0
-20222 20224 0
-20221 -20222 20225 0
-20214 20226 0
-20220 20226 0
-20214 -20220 20227 0
-20215 20228 0
-20224 20228 0
-20215 -20224 20229 0
-20227 20230 0
-20228 20230 0
-20227 -20228 20231 0
-20212 20232 0
-20226 20232 0
-20212 -20226 20233 0
-20213 20234 0
-20230 20234 0
-20213 -20230 20235 0
-20233 20236 0
-20234 20236 0
-20233 -20234 20237 0
-20236 0
-20238 0
-10872 20239 0
-11012 20239 0
-10872 -11012 20240 0
-11152 20241 0
-11292 20241 0
-11152 -11292 20242 0
-11432 20243 0
-11572 20243 0
-11432 -11572 20244 0
-11712 20245 0
-20238 20245 0
-11712 -20238 20246 0
-20243 20247 0
-20245 20247 0
-20243 -20245 20248 0
-20244 20249 0
-20246 20249 0
-20244 -20246 20250 0
-20248 20251 0
-20249 20251 0
-20248 -20249 20252 0
-20241 20253 0
-20247 20253 0
-20241 -20247 20254 0
-20242 20255 0
-20251 20255 0
-20242 -20251 20256 0
-20254 20257 0
-20255 20257 0
-20254 -20255 20258 0
-20239 20259 0
-20253 20259 0
-20239 -20253 20260 0
-20240 20261 0
-20257 20261 0
-20240 -20257 20262 0
-20260 20263 0
-20261 20263 0
-20260 -20261 20264 0
-20263 0
-20265 0
-10873 20266 0
-11013 20266 0
-10873 -11013 20267 0
-11153 20268 0
-11293 20268 0
-11153 -11293 20269 0
-11433 20270 0
-11573 20270 0
-11433 -11573 20271 0
-11713 20272 0
-20265 20272 0
-11713 -20265 20273 0
-20270 20274 0
-20272 20274 0
-20270 -20272 20275 0
-20271 20276 0
-20273 20276 0
-20271 -20273 20277 0
-20275 20278 0
-20276 20278 0
-20275 -20276 20279 0
-20268 20280 0
-20274 20280 0
-20268 -20274 20281 0
-20269 20282 0
-20278 20282 0
-20269 -20278 20283 0
-20281 20284 0
-20282 20284 0
-20281 -20282 20285 0
-20266 20286 0
-20280 20286 0
-20266 -20280 20287 0
-20267 20288 0
-20284 20288 0
-20267 -20284 20289 0
-20287 20290 0
-20288 20290 0
-20287 -20288 20291 0
-20290 0
-20292 0
-10874 20293 0
-11014 20293 0
-10874 -11014 20294 0
-11154 20295 0
-11294 20295 0
-11154 -11294 20296 0
-11434 20297 0
-11574 20297 0
-11434 -11574 20298 0
-11714 20299 0
-20292 20299 0
-11714 -20292 20300 0
-20297 20301 0
-20299 20301 0
-20297 -20299 20302 0
-20298 20303 0
-20300 20303 0
-20298 -20300 20304 0
-20302 20305 0
-20303 20305 0
-20302 -20303 20306 0
-20295 20307 0
-20301 20307 0
-20295 -20301 20308 0
-20296 20309 0
-20305 20309 0
-20296 -20305 20310 0
-20308 20311 0
-20309 20311 0
-20308 -20309 20312 0
-20293 20313 0
-20307 20313 0
-20293 -20307 20314 0
-20294 20315 0
-20311 20315 0
-20294 -20311 20316 0
-20314 20317 0
-20315 20317 0
-20314 -20315 20318 0
-20317 0
-20319 0
-10875 20320 0
-11015 20320 0
-10875 -11015 20321 0
-11155 20322 0
-11295 20322 0
-11155 -11295 20323 0
-11435 20324 0
-11575 20324 0
-11435 -11575 20325 0
-11715 20326 0
-20319 20326 0
-11715 -20319 20327 0
-20324 20328 0
-20326 20328 0
-20324 -20326 20329 0
-20325 20330 0
-20327 20330 0
-20325 -20327 20331 0
-20329 20332 0
-20330 20332 0
-20329 -20330 20333 0
-20322 20334 0
-20328 20334 0
-20322 -20328 20335 0
-20323 20336 0
-20332 20336 0
-20323 -20332 20337 0
-20335 20338 0
-20336 20338 0
-20335 -20336 20339 0
-20320 20340 0
-20334 20340 0
-20320 -20334 20341 0
-20321 20342 0
-20338 20342 0
-20321 -20338 20343 0
-20341 20344 0
-20342 20344 0
-20341 -20342 20345 0
-20344 0
-20346 0
-10876 20347 0
-11016 20347 0
-10876 -11016 20348 0
-11156 20349 0
-11296 20349 0
-11156 -11296 20350 0
-11436 20351 0
-11576 20351 0
-11436 -11576 20352 0
-11716 20353 0
-20346 20353 0
-11716 -20346 20354 0
-20351 20355 0
-20353 20355 0
-20351 -20353 20356 0
-20352 20357 0
-20354 20357 0
-20352 -20354 20358 0
-20356 20359 0
-20357 20359 0
-20356 -20357 20360 0
-20349 20361 0
-20355 20361 0
-20349 -20355 20362 0
-20350 20363 0
-20359 20363 0
-20350 -20359 20364 0
-20362 20365 0
-20363 20365 0
-20362 -20363 20366 0
-20347 20367 0
-20361 20367 0
-20347 -20361 20368 0
-20348 20369 0
-20365 20369 0
-20348 -20365 20370 0
-20368 20371 0
-20369 20371 0
-20368 -20369 20372 0
-20371 0
-20373 0
-10877 20374 0
-11017 20374 0
-10877 -11017 20375 0
-11157 20376 0
-11297 20376 0
-11157 -11297 20377 0
-11437 20378 0
-11577 20378 0
-11437 -11577 20379 0
-11717 20380 0
-20373 20380 0
-11717 -20373 20381 0
-20378 20382 0
-20380 20382 0
-20378 -20380 20383 0
-20379 20384 0
-20381 20384 0
-20379 -20381 20385 0
-20383 20386 0
-20384 20386 0
-20383 -20384 20387 0
-20376 20388 0
-20382 20388 0
-20376 -20382 20389 0
-20377 20390 0
-20386 20390 0
-20377 -20386 20391 0
-20389 20392 0
-20390 20392 0
-20389 -20390 20393 0
-20374 20394 0
-20388 20394 0
-20374 -20388 20395 0
-20375 20396 0
-20392 20396 0
-20375 -20392 20397 0
-20395 20398 0
-20396 20398 0
-20395 -20396 20399 0
-20398 0
-20400 0
-10878 20401 0
-11018 20401 0
-10878 -11018 20402 0
-11158 20403 0
-11298 20403 0
-11158 -11298 20404 0
-11438 20405 0
-11578 20405 0
-11438 -11578 20406 0
-11718 20407 0
-20400 20407 0
-11718 -20400 20408 0
-20405 20409 0
-20407 20409 0
-20405 -20407 20410 0
-20406 20411 0
-20408 20411 0
-20406 -20408 20412 0
-20410 20413 0
-20411 20413 0
-20410 -20411 20414 0
-20403 20415 0
-20409 20415 0
-20403 -20409 20416 0
-20404 20417 0
-20413 20417 0
-20404 -20413 20418 0
-20416 20419 0
-20417 20419 0
-20416 -20417 20420 0
-20401 20421 0
-20415 20421 0
-20401 -20415 20422 0
-20402 20423 0
-20419 20423 0
-20402 -20419 20424 0
-20422 20425 0
-20423 20425 0
-20422 -20423 20426 0
-20425 0
-20427 0
-10879 20428 0
-11019 20428 0
-10879 -11019 20429 0
-11159 20430 0
-11299 20430 0
-11159 -11299 20431 0
-11439 20432 0
-11579 20432 0
-11439 -11579 20433 0
-11719 20434 0
-20427 20434 0
-11719 -20427 20435 0
-20432 20436 0
-20434 20436 0
-20432 -20434 20437 0
-20433 20438 0
-20435 20438 0
-20433 -20435 20439 0
-20437 20440 0
-20438 20440 0
-20437 -20438 20441 0
-20430 20442 0
-20436 20442 0
-20430 -20436 20443 0
-20431 20444 0
-20440 20444 0
-20431 -20440 20445 0
-20443 20446 0
-20444 20446 0
-20443 -20444 20447 0
-20428 20448 0
-20442 20448 0
-20428 -20442 20449 0
-20429 20450 0
-20446 20450 0
-20429 -20446 20451 0
-20449 20452 0
-20450 20452 0
-20449 -20450 20453 0
-20452 0
-20454 0
-10880 20455 0
-11020 20455 0
-10880 -11020 20456 0
-11160 20457 0
-11300 20457 0
-11160 -11300 20458 0
-11440 20459 0
-11580 20459 0
-11440 -11580 20460 0
-11720 20461 0
-20454 20461 0
-11720 -20454 20462 0
-20459 20463 0
-20461 20463 0
-20459 -20461 20464 0
-20460 20465 0
-20462 20465 0
-20460 -20462 20466 0
-20464 20467 0
-20465 20467 0
-20464 -20465 20468 0
-20457 20469 0
-20463 20469 0
-20457 -20463 20470 0
-20458 20471 0
-20467 20471 0
-20458 -20467 20472 0
-20470 20473 0
-20471 20473 0
-20470 -20471 20474 0
-20455 20475 0
-20469 20475 0
-20455 -20469 20476 0
-20456 20477 0
-20473 20477 0
-20456 -20473 20478 0
-20476 20479 0
-20477 20479 0
-20476 -20477 20480 0
-20479 0
-20481 0
-10881 20482 0
-11021 20482 0
-10881 -11021 20483 0
-11161 20484 0
-11301 20484 0
-11161 -11301 20485 0
-11441 20486 0
-11581 20486 0
-11441 -11581 20487 0
-11721 20488 0
-20481 20488 0
-11721 -20481 20489 0
-20486 20490 0
-20488 20490 0
-20486 -20488 20491 0
-20487 20492 0
-20489 20492 0
-20487 -20489 20493 0
-20491 20494 0
-20492 20494 0
-20491 -20492 20495 0
-20484 20496 0
-20490 20496 0
-20484 -20490 20497 0
-20485 20498 0
-20494 20498 0
-20485 -20494 20499 0
-20497 20500 0
-20498 20500 0
-20497 -20498 20501 0
-20482 20502 0
-20496 20502 0
-20482 -20496 20503 0
-20483 20504 0
-20500 20504 0
-20483 -20500 20505 0
-20503 20506 0
-20504 20506 0
-20503 -20504 20507 0
-20506 0
-20508 0
-10882 20509 0
-11022 20509 0
-10882 -11022 20510 0
-11162 20511 0
-11302 20511 0
-11162 -11302 20512 0
-11442 20513 0
-11582 20513 0
-11442 -11582 20514 0
-11722 20515 0
-20508 20515 0
-11722 -20508 20516 0
-20513 20517 0
-20515 20517 0
-20513 -20515 20518 0
-20514 20519 0
-20516 20519 0
-20514 -20516 20520 0
-20518 20521 0
-20519 20521 0
-20518 -20519 20522 0
-20511 20523 0
-20517 20523 0
-20511 -20517 20524 0
-20512 20525 0
-20521 20525 0
-20512 -20521 20526 0
-20524 20527 0
-20525 20527 0
-20524 -20525 20528 0
-20509 20529 0
-20523 20529 0
-20509 -20523 20530 0
-20510 20531 0
-20527 20531 0
-20510 -20527 20532 0
-20530 20533 0
-20531 20533 0
-20530 -20531 20534 0
-20533 0
-20535 0
-10883 20536 0
-11023 20536 0
-10883 -11023 20537 0
-11163 20538 0
-11303 20538 0
-11163 -11303 20539 0
-11443 20540 0
-11583 20540 0
-11443 -11583 20541 0
-11723 20542 0
-20535 20542 0
-11723 -20535 20543 0
-20540 20544 0
-20542 20544 0
-20540 -20542 20545 0
-20541 20546 0
-20543 20546 0
-20541 -20543 20547 0
-20545 20548 0
-20546 20548 0
-20545 -20546 20549 0
-20538 20550 0
-20544 20550 0
-20538 -20544 20551 0
-20539 20552 0
-20548 20552 0
-20539 -20548 20553 0
-20551 20554 0
-20552 20554 0
-20551 -20552 20555 0
-20536 20556 0
-20550 20556 0
-20536 -20550 20557 0
-20537 20558 0
-20554 20558 0
-20537 -20554 20559 0
-20557 20560 0
-20558 20560 0
-20557 -20558 20561 0
-20560 0
-20562 0
-10884 20563 0
-11024 20563 0
-10884 -11024 20564 0
-11164 20565 0
-11304 20565 0
-11164 -11304 20566 0
-11444 20567 0
-11584 20567 0
-11444 -11584 20568 0
-11724 20569 0
-20562 20569 0
-11724 -20562 20570 0
-20567 20571 0
-20569 20571 0
-20567 -20569 20572 0
-20568 20573 0
-20570 20573 0
-20568 -20570 20574 0
-20572 20575 0
-20573 20575 0
-20572 -20573 20576 0
-20565 20577 0
-20571 20577 0
-20565 -20571 20578 0
-20566 20579 0
-20575 20579 0
-20566 -20575 20580 0
-20578 20581 0
-20579 20581 0
-20578 -20579 20582 0
-20563 20583 0
-20577 20583 0
-20563 -20577 20584 0
-20564 20585 0
-20581 20585 0
-20564 -20581 20586 0
-20584 20587 0
-20585 20587 0
-20584 -20585 20588 0
-20587 0
-20589 0
-10885 20590 0
-11025 20590 0
-10885 -11025 20591 0
-11165 20592 0
-11305 20592 0
-11165 -11305 20593 0
-11445 20594 0
-11585 20594 0
-11445 -11585 20595 0
-11725 20596 0
-20589 20596 0
-11725 -20589 20597 0
-20594 20598 0
-20596 20598 0
-20594 -20596 20599 0
-20595 20600 0
-20597 20600 0
-20595 -20597 20601 0
-20599 20602 0
-20600 20602 0
-20599 -20600 20603 0
-20592 20604 0
-20598 20604 0
-20592 -20598 20605 0
-20593 20606 0
-20602 20606 0
-20593 -20602 20607 0
-20605 20608 0
-20606 20608 0
-20605 -20606 20609 0
-20590 20610 0
-20604 20610 0
-20590 -20604 20611 0
-20591 20612 0
-20608 20612 0
-20591 -20608 20613 0
-20611 20614 0
-20612 20614 0
-20611 -20612 20615 0
-20614 0
-20616 0
-10886 20617 0
-11026 20617 0
-10886 -11026 20618 0
-11166 20619 0
-11306 20619 0
-11166 -11306 20620 0
-11446 20621 0
-11586 20621 0
-11446 -11586 20622 0
-11726 20623 0
-20616 20623 0
-11726 -20616 20624 0
-20621 20625 0
-20623 20625 0
-20621 -20623 20626 0
-20622 20627 0
-20624 20627 0
-20622 -20624 20628 0
-20626 20629 0
-20627 20629 0
-20626 -20627 20630 0
-20619 20631 0
-20625 20631 0
-20619 -20625 20632 0
-20620 20633 0
-20629 20633 0
-20620 -20629 20634 0
-20632 20635 0
-20633 20635 0
-20632 -20633 20636 0
-20617 20637 0
-20631 20637 0
-20617 -20631 20638 0
-20618 20639 0
-20635 20639 0
-20618 -20635 20640 0
-20638 20641 0
-20639 20641 0
-20638 -20639 20642 0
-20641 0
-20643 0
-10887 20644 0
-11027 20644 0
-10887 -11027 20645 0
-11167 20646 0
-11307 20646 0
-11167 -11307 20647 0
-11447 20648 0
-11587 20648 0
-11447 -11587 20649 0
-11727 20650 0
-20643 20650 0
-11727 -20643 20651 0
-20648 20652 0
-20650 20652 0
-20648 -20650 20653 0
-20649 20654 0
-20651 20654 0
-20649 -20651 20655 0
-20653 20656 0
-20654 20656 0
-20653 -20654 20657 0
-20646 20658 0
-20652 20658 0
-20646 -20652 20659 0
-20647 20660 0
-20656 20660 0
-20647 -20656 20661 0
-20659 20662 0
-20660 20662 0
-20659 -20660 20663 0
-20644 20664 0
-20658 20664 0
-20644 -20658 20665 0
-20645 20666 0
-20662 20666 0
-20645 -20662 20667 0
-20665 20668 0
-20666 20668 0
-20665 -20666 20669 0
-20668 0
-20670 0
-10888 20671 0
-11028 20671 0
-10888 -11028 20672 0
-11168 20673 0
-11308 20673 0
-11168 -11308 20674 0
-11448 20675 0
-11588 20675 0
-11448 -11588 20676 0
-11728 20677 0
-20670 20677 0
-11728 -20670 20678 0
-20675 20679 0
-20677 20679 0
-20675 -20677 20680 0
-20676 20681 0
-20678 20681 0
-20676 -20678 20682 0
-20680 20683 0
-20681 20683 0
-20680 -20681 20684 0
-20673 20685 0
-20679 20685 0
-20673 -20679 20686 0
-20674 20687 0
-20683 20687 0
-20674 -20683 20688 0
-20686 20689 0
-20687 20689 0
-20686 -20687 20690 0
-20671 20691 0
-20685 20691 0
-20671 -20685 20692 0
-20672 20693 0
-20689 20693 0
-20672 -20689 20694 0
-20692 20695 0
-20693 20695 0
-20692 -20693 20696 0
-20695 0
-20697 0
-10889 20698 0
-11029 20698 0
-10889 -11029 20699 0
-11169 20700 0
-11309 20700 0
-11169 -11309 20701 0
-11449 20702 0
-11589 20702 0
-11449 -11589 20703 0
-11729 20704 0
-20697 20704 0
-11729 -20697 20705 0
-20702 20706 0
-20704 20706 0
-20702 -20704 20707 0
-20703 20708 0
-20705 20708 0
-20703 -20705 20709 0
-20707 20710 0
-20708 20710 0
-20707 -20708 20711 0
-20700 20712 0
-20706 20712 0
-20700 -20706 20713 0
-20701 20714 0
-20710 20714 0
-20701 -20710 20715 0
-20713 20716 0
-20714 20716 0
-20713 -20714 20717 0
-20698 20718 0
-20712 20718 0
-20698 -20712 20719 0
-20699 20720 0
-20716 20720 0
-20699 -20716 20721 0
-20719 20722 0
-20720 20722 0
-20719 -20720 20723 0
-20722 0
-20724 0
-10890 20725 0
-11030 20725 0
-10890 -11030 20726 0
-11170 20727 0
-11310 20727 0
-11170 -11310 20728 0
-11450 20729 0
-11590 20729 0
-11450 -11590 20730 0
-11730 20731 0
-20724 20731 0
-11730 -20724 20732 0
-20729 20733 0
-20731 20733 0
-20729 -20731 20734 0
-20730 20735 0
-20732 20735 0
-20730 -20732 20736 0
-20734 20737 0
-20735 20737 0
-20734 -20735 20738 0
-20727 20739 0
-20733 20739 0
-20727 -20733 20740 0
-20728 20741 0
-20737 20741 0
-20728 -20737 20742 0
-20740 20743 0
-20741 20743 0
-20740 -20741 20744 0
-20725 20745 0
-20739 20745 0
-20725 -20739 20746 0
-20726 20747 0
-20743 20747 0
-20726 -20743 20748 0
-20746 20749 0
-20747 20749 0
-20746 -20747 20750 0
-20749 0
-20751 0
-10891 20752 0
-11031 20752 0
-10891 -11031 20753 0
-11171 20754 0
-11311 20754 0
-11171 -11311 20755 0
-11451 20756 0
-11591 20756 0
-11451 -11591 20757 0
-11731 20758 0
-20751 20758 0
-11731 -20751 20759 0
-20756 20760 0
-20758 20760 0
-20756 -20758 20761 0
-20757 20762 0
-20759 20762 0
-20757 -20759 20763 0
-20761 20764 0
-20762 20764 0
-20761 -20762 20765 0
-20754 20766 0
-20760 20766 0
-20754 -20760 20767 0
-20755 20768 0
-20764 20768 0
-20755 -20764 20769 0
-20767 20770 0
-20768 20770 0
-20767 -20768 20771 0
-20752 20772 0
-20766 20772 0
-20752 -20766 20773 0
-20753 20774 0
-20770 20774 0
-20753 -20770 20775 0
-20773 20776 0
-20774 20776 0
-20773 -20774 20777 0
-20776 0
-20778 0
-10892 20779 0
-11032 20779 0
-10892 -11032 20780 0
-11172 20781 0
-11312 20781 0
-11172 -11312 20782 0
-11452 20783 0
-11592 20783 0
-11452 -11592 20784 0
-11732 20785 0
-20778 20785 0
-11732 -20778 20786 0
-20783 20787 0
-20785 20787 0
-20783 -20785 20788 0
-20784 20789 0
-20786 20789 0
-20784 -20786 20790 0
-20788 20791 0
-20789 20791 0
-20788 -20789 20792 0
-20781 20793 0
-20787 20793 0
-20781 -20787 20794 0
-20782 20795 0
-20791 20795 0
-20782 -20791 20796 0
-20794 20797 0
-20795 20797 0
-20794 -20795 20798 0
-20779 20799 0
-20793 20799 0
-20779 -20793 20800 0
-20780 20801 0
-20797 20801 0
-20780 -20797 20802 0
-20800 20803 0
-20801 20803 0
-20800 -20801 20804 0
-20803 0
-20805 0
-10893 20806 0
-11033 20806 0
-10893 -11033 20807 0
-11173 20808 0
-11313 20808 0
-11173 -11313 20809 0
-11453 20810 0
-11593 20810 0
-11453 -11593 20811 0
-11733 20812 0
-20805 20812 0
-11733 -20805 20813 0
-20810 20814 0
-20812 20814 0
-20810 -20812 20815 0
-20811 20816 0
-20813 20816 0
-20811 -20813 20817 0
-20815 20818 0
-20816 20818 0
-20815 -20816 20819 0
-20808 20820 0
-20814 20820 0
-20808 -20814 20821 0
-20809 20822 0
-20818 20822 0
-20809 -20818 20823 0
-20821 20824 0
-20822 20824 0
-20821 -20822 20825 0
-20806 20826 0
-20820 20826 0
-20806 -20820 20827 0
-20807 20828 0
-20824 20828 0
-20807 -20824 20829 0
-20827 20830 0
-20828 20830 0
-20827 -20828 20831 0
-20830 0
-20832 0
-10894 20833 0
-11034 20833 0
-10894 -11034 20834 0
-11174 20835 0
-11314 20835 0
-11174 -11314 20836 0
-11454 20837 0
-11594 20837 0
-11454 -11594 20838 0
-11734 20839 0
-20832 20839 0
-11734 -20832 20840 0
-20837 20841 0
-20839 20841 0
-20837 -20839 20842 0
-20838 20843 0
-20840 20843 0
-20838 -20840 20844 0
-20842 20845 0
-20843 20845 0
-20842 -20843 20846 0
-20835 20847 0
-20841 20847 0
-20835 -20841 20848 0
-20836 20849 0
-20845 20849 0
-20836 -20845 20850 0
-20848 20851 0
-20849 20851 0
-20848 -20849 20852 0
-20833 20853 0
-20847 20853 0
-20833 -20847 20854 0
-20834 20855 0
-20851 20855 0
-20834 -20851 20856 0
-20854 20857 0
-20855 20857 0
-20854 -20855 20858 0
-20857 0
-20859 0
-10895 20860 0
-11035 20860 0
-10895 -11035 20861 0
-11175 20862 0
-11315 20862 0
-11175 -11315 20863 0
-11455 20864 0
-11595 20864 0
-11455 -11595 20865 0
-11735 20866 0
-20859 20866 0
-11735 -20859 20867 0
-20864 20868 0
-20866 20868 0
-20864 -20866 20869 0
-20865 20870 0
-20867 20870 0
-20865 -20867 20871 0
-20869 20872 0
-20870 20872 0
-20869 -20870 20873 0
-20862 20874 0
-20868 20874 0
-20862 -20868 20875 0
-20863 20876 0
-20872 20876 0
-20863 -20872 20877 0
-20875 20878 0
-20876 20878 0
-20875 -20876 20879 0
-20860 20880 0
-20874 20880 0
-20860 -20874 20881 0
-20861 20882 0
-20878 20882 0
-20861 -20878 20883 0
-20881 20884 0
-20882 20884 0
-20881 -20882 20885 0
-20884 0
-20886 0
-10896 20887 0
-11036 20887 0
-10896 -11036 20888 0
-11176 20889 0
-11316 20889 0
-11176 -11316 20890 0
-11456 20891 0
-11596 20891 0
-11456 -11596 20892 0
-11736 20893 0
-20886 20893 0
-11736 -20886 20894 0
-20891 20895 0
-20893 20895 0
-20891 -20893 20896 0
-20892 20897 0
-20894 20897 0
-20892 -20894 20898 0
-20896 20899 0
-20897 20899 0
-20896 -20897 20900 0
-20889 20901 0
-20895 20901 0
-20889 -20895 20902 0
-20890 20903 0
-20899 20903 0
-20890 -20899 20904 0
-20902 20905 0
-20903 20905 0
-20902 -20903 20906 0
-20887 20907 0
-20901 20907 0
-20887 -20901 20908 0
-20888 20909 0
-20905 20909 0
-20888 -20905 20910 0
-20908 20911 0
-20909 20911 0
-20908 -20909 20912 0
-20911 0
-20913 0
-10897 20914 0
-11037 20914 0
-10897 -11037 20915 0
-11177 20916 0
-11317 20916 0
-11177 -11317 20917 0
-11457 20918 0
-11597 20918 0
-11457 -11597 20919 0
-11737 20920 0
-20913 20920 0
-11737 -20913 20921 0
-20918 20922 0
-20920 20922 0
-20918 -20920 20923 0
-20919 20924 0
-20921 20924 0
-20919 -20921 20925 0
-20923 20926 0
-20924 20926 0
-20923 -20924 20927 0
-20916 20928 0
-20922 20928 0
-20916 -20922 20929 0
-20917 20930 0
-20926 20930 0
-20917 -20926 20931 0
-20929 20932 0
-20930 20932 0
-20929 -20930 20933 0
-20914 20934 0
-20928 20934 0
-20914 -20928 20935 0
-20915 20936 0
-20932 20936 0
-20915 -20932 20937 0
-20935 20938 0
-20936 20938 0
-20935 -20936 20939 0
-20938 0
-20940 0
-10898 20941 0
-11038 20941 0
-10898 -11038 20942 0
-11178 20943 0
-11318 20943 0
-11178 -11318 20944 0
-11458 20945 0
-11598 20945 0
-11458 -11598 20946 0
-11738 20947 0
-20940 20947 0
-11738 -20940 20948 0
-20945 20949 0
-20947 20949 0
-20945 -20947 20950 0
-20946 20951 0
-20948 20951 0
-20946 -20948 20952 0
-20950 20953 0
-20951 20953 0
-20950 -20951 20954 0
-20943 20955 0
-20949 20955 0
-20943 -20949 20956 0
-20944 20957 0
-20953 20957 0
-20944 -20953 20958 0
-20956 20959 0
-20957 20959 0
-20956 -20957 20960 0
-20941 20961 0
-20955 20961 0
-20941 -20955 20962 0
-20942 20963 0
-20959 20963 0
-20942 -20959 20964 0
-20962 20965 0
-20963 20965 0
-20962 -20963 20966 0
-20965 0
-20967 0
-10899 20968 0
-11039 20968 0
-10899 -11039 20969 0
-11179 20970 0
-11319 20970 0
-11179 -11319 20971 0
-11459 20972 0
-11599 20972 0
-11459 -11599 20973 0
-11739 20974 0
-20967 20974 0
-11739 -20967 20975 0
-20972 20976 0
-20974 20976 0
-20972 -20974 20977 0
-20973 20978 0
-20975 20978 0
-20973 -20975 20979 0
-20977 20980 0
-20978 20980 0
-20977 -20978 20981 0
-20970 20982 0
-20976 20982 0
-20970 -20976 20983 0
-20971 20984 0
-20980 20984 0
-20971 -20980 20985 0
-20983 20986 0
-20984 20986 0
-20983 -20984 20987 0
-20968 20988 0
-20982 20988 0
-20968 -20982 20989 0
-20969 20990 0
-20986 20990 0
-20969 -20986 20991 0
-20989 20992 0
-20990 20992 0
-20989 -20990 20993 0
-20992 0
-20994 0
-10900 20995 0
-11040 20995 0
-10900 -11040 20996 0
-11180 20997 0
-11320 20997 0
-11180 -11320 20998 0
-11460 20999 0
-11600 20999 0
-11460 -11600 21000 0
-11740 21001 0
-20994 21001 0
-11740 -20994 21002 0
-20999 21003 0
-21001 21003 0
-20999 -21001 21004 0
-21000 21005 0
-21002 21005 0
-21000 -21002 21006 0
-21004 21007 0
-21005 21007 0
-21004 -21005 21008 0
-20997 21009 0
-21003 21009 0
-20997 -21003 21010 0
-20998 21011 0
-21007 21011 0
-20998 -21007 21012 0
-21010 21013 0
-21011 21013 0
-21010 -21011 21014 0
-20995 21015 0
-21009 21015 0
-20995 -21009 21016 0
-20996 21017 0
-21013 21017 0
-20996 -21013 21018 0
-21016 21019 0
-21017 21019 0
-21016 -21017 21020 0
-21019 0
-21021 0
-10901 21022 0
-11041 21022 0
-10901 -11041 21023 0
-11181 21024 0
-11321 21024 0
-11181 -11321 21025 0
-11461 21026 0
-11601 21026 0
-11461 -11601 21027 0
-11741 21028 0
-21021 21028 0
-11741 -21021 21029 0
-21026 21030 0
-21028 21030 0
-21026 -21028 21031 0
-21027 21032 0
-21029 21032 0
-21027 -21029 21033 0
-21031 21034 0
-21032 21034 0
-21031 -21032 21035 0
-21024 21036 0
-21030 21036 0
-21024 -21030 21037 0
-21025 21038 0
-21034 21038 0
-21025 -21034 21039 0
-21037 21040 0
-21038 21040 0
-21037 -21038 21041 0
-21022 21042 0
-21036 21042 0
-21022 -21036 21043 0
-21023 21044 0
-21040 21044 0
-21023 -21040 21045 0
-21043 21046 0
-21044 21046 0
-21043 -21044 21047 0
-21046 0
-21048 0
-10902 21049 0
-11042 21049 0
-10902 -11042 21050 0
-11182 21051 0
-11322 21051 0
-11182 -11322 21052 0
-11462 21053 0
-11602 21053 0
-11462 -11602 21054 0
-11742 21055 0
-21048 21055 0
-11742 -21048 21056 0
-21053 21057 0
-21055 21057 0
-21053 -21055 21058 0
-21054 21059 0
-21056 21059 0
-21054 -21056 21060 0
-21058 21061 0
-21059 21061 0
-21058 -21059 21062 0
-21051 21063 0
-21057 21063 0
-21051 -21057 21064 0
-21052 21065 0
-21061 21065 0
-21052 -21061 21066 0
-21064 21067 0
-21065 21067 0
-21064 -21065 21068 0
-21049 21069 0
-21063 21069 0
-21049 -21063 21070 0
-21050 21071 0
-21067 21071 0
-21050 -21067 21072 0
-21070 21073 0
-21071 21073 0
-21070 -21071 21074 0
-21073 0
-21075 0
-10903 21076 0
-11043 21076 0
-10903 -11043 21077 0
-11183 21078 0
-11323 21078 0
-11183 -11323 21079 0
-11463 21080 0
-11603 21080 0
-11463 -11603 21081 0
-11743 21082 0
-21075 21082 0
-11743 -21075 21083 0
-21080 21084 0
-21082 21084 0
-21080 -21082 21085 0
-21081 21086 0
-21083 21086 0
-21081 -21083 21087 0
-21085 21088 0
-21086 21088 0
-21085 -21086 21089 0
-21078 21090 0
-21084 21090 0
-21078 -21084 21091 0
-21079 21092 0
-21088 21092 0
-21079 -21088 21093 0
-21091 21094 0
-21092 21094 0
-21091 -21092 21095 0
-21076 21096 0
-21090 21096 0
-21076 -21090 21097 0
-21077 21098 0
-21094 21098 0
-21077 -21094 21099 0
-21097 21100 0
-21098 21100 0
-21097 -21098 21101 0
-21100 0
-21102 0
-10904 21103 0
-11044 21103 0
-10904 -11044 21104 0
-11184 21105 0
-11324 21105 0
-11184 -11324 21106 0
-11464 21107 0
-11604 21107 0
-11464 -11604 21108 0
-11744 21109 0
-21102 21109 0
-11744 -21102 21110 0
-21107 21111 0
-21109 21111 0
-21107 -21109 21112 0
-21108 21113 0
-21110 21113 0
-21108 -21110 21114 0
-21112 21115 0
-21113 21115 0
-21112 -21113 21116 0
-21105 21117 0
-21111 21117 0
-21105 -21111 21118 0
-21106 21119 0
-21115 21119 0
-21106 -21115 21120 0
-21118 21121 0
-21119 21121 0
-21118 -21119 21122 0
-21103 21123 0
-21117 21123 0
-21103 -21117 21124 0
-21104 21125 0
-21121 21125 0
-21104 -21121 21126 0
-21124 21127 0
-21125 21127 0
-21124 -21125 21128 0
-21127 0
-21129 0
-10905 21130 0
-11045 21130 0
-10905 -11045 21131 0
-11185 21132 0
-11325 21132 0
-11185 -11325 21133 0
-11465 21134 0
-11605 21134 0
-11465 -11605 21135 0
-11745 21136 0
-21129 21136 0
-11745 -21129 21137 0
-21134 21138 0
-21136 21138 0
-21134 -21136 21139 0
-21135 21140 0
-21137 21140 0
-21135 -21137 21141 0
-21139 21142 0
-21140 21142 0
-21139 -21140 21143 0
-21132 21144 0
-21138 21144 0
-21132 -21138 21145 0
-21133 21146 0
-21142 21146 0
-21133 -21142 21147 0
-21145 21148 0
-21146 21148 0
-21145 -21146 21149 0
-21130 21150 0
-21144 21150 0
-21130 -21144 21151 0
-21131 21152 0
-21148 21152 0
-21131 -21148 21153 0
-21151 21154 0
-21152 21154 0
-21151 -21152 21155 0
-21154 0
-21156 0
-10906 21157 0
-11046 21157 0
-10906 -11046 21158 0
-11186 21159 0
-11326 21159 0
-11186 -11326 21160 0
-11466 21161 0
-11606 21161 0
-11466 -11606 21162 0
-11746 21163 0
-21156 21163 0
-11746 -21156 21164 0
-21161 21165 0
-21163 21165 0
-21161 -21163 21166 0
-21162 21167 0
-21164 21167 0
-21162 -21164 21168 0
-21166 21169 0
-21167 21169 0
-21166 -21167 21170 0
-21159 21171 0
-21165 21171 0
-21159 -21165 21172 0
-21160 21173 0
-21169 21173 0
-21160 -21169 21174 0
-21172 21175 0
-21173 21175 0
-21172 -21173 21176 0
-21157 21177 0
-21171 21177 0
-21157 -21171 21178 0
-21158 21179 0
-21175 21179 0
-21158 -21175 21180 0
-21178 21181 0
-21179 21181 0
-21178 -21179 21182 0
-21181 0
-21183 0
-10907 21184 0
-11047 21184 0
-10907 -11047 21185 0
-11187 21186 0
-11327 21186 0
-11187 -11327 21187 0
-11467 21188 0
-11607 21188 0
-11467 -11607 21189 0
-11747 21190 0
-21183 21190 0
-11747 -21183 21191 0
-21188 21192 0
-21190 21192 0
-21188 -21190 21193 0
-21189 21194 0
-21191 21194 0
-21189 -21191 21195 0
-21193 21196 0
-21194 21196 0
-21193 -21194 21197 0
-21186 21198 0
-21192 21198 0
-21186 -21192 21199 0
-21187 21200 0
-21196 21200 0
-21187 -21196 21201 0
-21199 21202 0
-21200 21202 0
-21199 -21200 21203 0
-21184 21204 0
-21198 21204 0
-21184 -21198 21205 0
-21185 21206 0
-21202 21206 0
-21185 -21202 21207 0
-21205 21208 0
-21206 21208 0
-21205 -21206 21209 0
-21208 0
-21210 0
-10908 21211 0
-11048 21211 0
-10908 -11048 21212 0
-11188 21213 0
-11328 21213 0
-11188 -11328 21214 0
-11468 21215 0
-11608 21215 0
-11468 -11608 21216 0
-11748 21217 0
-21210 21217 0
-11748 -21210 21218 0
-21215 21219 0
-21217 21219 0
-21215 -21217 21220 0
-21216 21221 0
-21218 21221 0
-21216 -21218 21222 0
-21220 21223 0
-21221 21223 0
-21220 -21221 21224 0
-21213 21225 0
-21219 21225 0
-21213 -21219 21226 0
-21214 21227 0
-21223 21227 0
-21214 -21223 21228 0
-21226 21229 0
-21227 21229 0
-21226 -21227 21230 0
-21211 21231 0
-21225 21231 0
-21211 -21225 21232 0
-21212 21233 0
-21229 21233 0
-21212 -21229 21234 0
-21232 21235 0
-21233 21235 0
-21232 -21233 21236 0
-21235 0
-21237 0
-10909 21238 0
-11049 21238 0
-10909 -11049 21239 0
-11189 21240 0
-11329 21240 0
-11189 -11329 21241 0
-11469 21242 0
-11609 21242 0
-11469 -11609 21243 0
-11749 21244 0
-21237 21244 0
-11749 -21237 21245 0
-21242 21246 0
-21244 21246 0
-21242 -21244 21247 0
-21243 21248 0
-21245 21248 0
-21243 -21245 21249 0
-21247 21250 0
-21248 21250 0
-21247 -21248 21251 0
-21240 21252 0
-21246 21252 0
-21240 -21246 21253 0
-21241 21254 0
-21250 21254 0
-21241 -21250 21255 0
-21253 21256 0
-21254 21256 0
-21253 -21254 21257 0
-21238 21258 0
-21252 21258 0
-21238 -21252 21259 0
-21239 21260 0
-21256 21260 0
-21239 -21256 21261 0
-21259 21262 0
-21260 21262 0
-21259 -21260 21263 0
-21262 0
-21264 0
-10910 21265 0
-11050 21265 0
-10910 -11050 21266 0
-11190 21267 0
-11330 21267 0
-11190 -11330 21268 0
-11470 21269 0
-11610 21269 0
-11470 -11610 21270 0
-11750 21271 0
-21264 21271 0
-11750 -21264 21272 0
-21269 21273 0
-21271 21273 0
-21269 -21271 21274 0
-21270 21275 0
-21272 21275 0
-21270 -21272 21276 0
-21274 21277 0
-21275 21277 0
-21274 -21275 21278 0
-21267 21279 0
-21273 21279 0
-21267 -21273 21280 0
-21268 21281 0
-21277 21281 0
-21268 -21277 21282 0
-21280 21283 0
-21281 21283 0
-21280 -21281 21284 0
-21265 21285 0
-21279 21285 0
-21265 -21279 21286 0
-21266 21287 0
-21283 21287 0
-21266 -21283 21288 0
-21286 21289 0
-21287 21289 0
-21286 -21287 21290 0
-21289 0
-21291 0
-10911 21292 0
-11051 21292 0
-10911 -11051 21293 0
-11191 21294 0
-11331 21294 0
-11191 -11331 21295 0
-11471 21296 0
-11611 21296 0
-11471 -11611 21297 0
-11751 21298 0
-21291 21298 0
-11751 -21291 21299 0
-21296 21300 0
-21298 21300 0
-21296 -21298 21301 0
-21297 21302 0
-21299 21302 0
-21297 -21299 21303 0
-21301 21304 0
-21302 21304 0
-21301 -21302 21305 0
-21294 21306 0
-21300 21306 0
-21294 -21300 21307 0
-21295 21308 0
-21304 21308 0
-21295 -21304 21309 0
-21307 21310 0
-21308 21310 0
-21307 -21308 21311 0
-21292 21312 0
-21306 21312 0
-21292 -21306 21313 0
-21293 21314 0
-21310 21314 0
-21293 -21310 21315 0
-21313 21316 0
-21314 21316 0
-21313 -21314 21317 0
-21316 0
-21318 0
-10912 21319 0
-11052 21319 0
-10912 -11052 21320 0
-11192 21321 0
-11332 21321 0
-11192 -11332 21322 0
-11472 21323 0
-11612 21323 0
-11472 -11612 21324 0
-11752 21325 0
-21318 21325 0
-11752 -21318 21326 0
-21323 21327 0
-21325 21327 0
-21323 -21325 21328 0
-21324 21329 0
-21326 21329 0
-21324 -21326 21330 0
-21328 21331 0
-21329 21331 0
-21328 -21329 21332 0
-21321 21333 0
-21327 21333 0
-21321 -21327 21334 0
-21322 21335 0
-21331 21335 0
-21322 -21331 21336 0
-21334 21337 0
-21335 21337 0
-21334 -21335 21338 0
-21319 21339 0
-21333 21339 0
-21319 -21333 21340 0
-21320 21341 0
-21337 21341 0
-21320 -21337 21342 0
-21340 21343 0
-21341 21343 0
-21340 -21341 21344 0
-21343 0
-21345 0
-10913 21346 0
-11053 21346 0
-10913 -11053 21347 0
-11193 21348 0
-11333 21348 0
-11193 -11333 21349 0
-11473 21350 0
-11613 21350 0
-11473 -11613 21351 0
-11753 21352 0
-21345 21352 0
-11753 -21345 21353 0
-21350 21354 0
-21352 21354 0
-21350 -21352 21355 0
-21351 21356 0
-21353 21356 0
-21351 -21353 21357 0
-21355 21358 0
-21356 21358 0
-21355 -21356 21359 0
-21348 21360 0
-21354 21360 0
-21348 -21354 21361 0
-21349 21362 0
-21358 21362 0
-21349 -21358 21363 0
-21361 21364 0
-21362 21364 0
-21361 -21362 21365 0
-21346 21366 0
-21360 21366 0
-21346 -21360 21367 0
-21347 21368 0
-21364 21368 0
-21347 -21364 21369 0
-21367 21370 0
-21368 21370 0
-21367 -21368 21371 0
-21370 0
-21372 0
-10914 21373 0
-11054 21373 0
-10914 -11054 21374 0
-11194 21375 0
-11334 21375 0
-11194 -11334 21376 0
-11474 21377 0
-11614 21377 0
-11474 -11614 21378 0
-11754 21379 0
-21372 21379 0
-11754 -21372 21380 0
-21377 21381 0
-21379 21381 0
-21377 -21379 21382 0
-21378 21383 0
-21380 21383 0
-21378 -21380 21384 0
-21382 21385 0
-21383 21385 0
-21382 -21383 21386 0
-21375 21387 0
-21381 21387 0
-21375 -21381 21388 0
-21376 21389 0
-21385 21389 0
-21376 -21385 21390 0
-21388 21391 0
-21389 21391 0
-21388 -21389 21392 0
-21373 21393 0
-21387 21393 0
-21373 -21387 21394 0
-21374 21395 0
-21391 21395 0
-21374 -21391 21396 0
-21394 21397 0
-21395 21397 0
-21394 -21395 21398 0
-21397 0
-21399 0
-10915 21400 0
-11055 21400 0
-10915 -11055 21401 0
-11195 21402 0
-11335 21402 0
-11195 -11335 21403 0
-11475 21404 0
-11615 21404 0
-11475 -11615 21405 0
-11755 21406 0
-21399 21406 0
-11755 -21399 21407 0
-21404 21408 0
-21406 21408 0
-21404 -21406 21409 0
-21405 21410 0
-21407 21410 0
-21405 -21407 21411 0
-21409 21412 0
-21410 21412 0
-21409 -21410 21413 0
-21402 21414 0
-21408 21414 0
-21402 -21408 21415 0
-21403 21416 0
-21412 21416 0
-21403 -21412 21417 0
-21415 21418 0
-21416 21418 0
-21415 -21416 21419 0
-21400 21420 0
-21414 21420 0
-21400 -21414 21421 0
-21401 21422 0
-21418 21422 0
-21401 -21418 21423 0
-21421 21424 0
-21422 21424 0
-21421 -21422 21425 0
-21424 0
-21426 0
-10916 21427 0
-11056 21427 0
-10916 -11056 21428 0
-11196 21429 0
-11336 21429 0
-11196 -11336 21430 0
-11476 21431 0
-11616 21431 0
-11476 -11616 21432 0
-11756 21433 0
-21426 21433 0
-11756 -21426 21434 0
-21431 21435 0
-21433 21435 0
-21431 -21433 21436 0
-21432 21437 0
-21434 21437 0
-21432 -21434 21438 0
-21436 21439 0
-21437 21439 0
-21436 -21437 21440 0
-21429 21441 0
-21435 21441 0
-21429 -21435 21442 0
-21430 21443 0
-21439 21443 0
-21430 -21439 21444 0
-21442 21445 0
-21443 21445 0
-21442 -21443 21446 0
-21427 21447 0
-21441 21447 0
-21427 -21441 21448 0
-21428 21449 0
-21445 21449 0
-21428 -21445 21450 0
-21448 21451 0
-21449 21451 0
-21448 -21449 21452 0
-21451 0
-21453 0
-10917 21454 0
-11057 21454 0
-10917 -11057 21455 0
-11197 21456 0
-11337 21456 0
-11197 -11337 21457 0
-11477 21458 0
-11617 21458 0
-11477 -11617 21459 0
-11757 21460 0
-21453 21460 0
-11757 -21453 21461 0
-21458 21462 0
-21460 21462 0
-21458 -21460 21463 0
-21459 21464 0
-21461 21464 0
-21459 -21461 21465 0
-21463 21466 0
-21464 21466 0
-21463 -21464 21467 0
-21456 21468 0
-21462 21468 0
-21456 -21462 21469 0
-21457 21470 0
-21466 21470 0
-21457 -21466 21471 0
-21469 21472 0
-21470 21472 0
-21469 -21470 21473 0
-21454 21474 0
-21468 21474 0
-21454 -21468 21475 0
-21455 21476 0
-21472 21476 0
-21455 -21472 21477 0
-21475 21478 0
-21476 21478 0
-21475 -21476 21479 0
-21478 0
-21480 0
-10918 21481 0
-11058 21481 0
-10918 -11058 21482 0
-11198 21483 0
-11338 21483 0
-11198 -11338 21484 0
-11478 21485 0
-11618 21485 0
-11478 -11618 21486 0
-11758 21487 0
-21480 21487 0
-11758 -21480 21488 0
-21485 21489 0
-21487 21489 0
-21485 -21487 21490 0
-21486 21491 0
-21488 21491 0
-21486 -21488 21492 0
-21490 21493 0
-21491 21493 0
-21490 -21491 21494 0
-21483 21495 0
-21489 21495 0
-21483 -21489 21496 0
-21484 21497 0
-21493 21497 0
-21484 -21493 21498 0
-21496 21499 0
-21497 21499 0
-21496 -21497 21500 0
-21481 21501 0
-21495 21501 0
-21481 -21495 21502 0
-21482 21503 0
-21499 21503 0
-21482 -21499 21504 0
-21502 21505 0
-21503 21505 0
-21502 -21503 21506 0
-21505 0
-21507 0
-10919 21508 0
-11059 21508 0
-10919 -11059 21509 0
-11199 21510 0
-11339 21510 0
-11199 -11339 21511 0
-11479 21512 0
-11619 21512 0
-11479 -11619 21513 0
-11759 21514 0
-21507 21514 0
-11759 -21507 21515 0
-21512 21516 0
-21514 21516 0
-21512 -21514 21517 0
-21513 21518 0
-21515 21518 0
-21513 -21515 21519 0
-21517 21520 0
-21518 21520 0
-21517 -21518 21521 0
-21510 21522 0
-21516 21522 0
-21510 -21516 21523 0
-21511 21524 0
-21520 21524 0
-21511 -21520 21525 0
-21523 21526 0
-21524 21526 0
-21523 -21524 21527 0
-21508 21528 0
-21522 21528 0
-21508 -21522 21529 0
-21509 21530 0
-21526 21530 0
-21509 -21526 21531 0
-21529 21532 0
-21530 21532 0
-21529 -21530 21533 0
-21532 0
