p cnf 2170 5376
1981 -1 2 0
1981 1 -2 0
1981 -181 182 0
1981 181 -182 0
2041 -61 62 0
2041 61 -62 0
2041 -241 242 0
2041 241 -242 0
2101 -121 122 0
2101 121 -122 0
2101 -301 302 0
2101 301 -302 0
-1 -1441 -2 0
1 -1441 2 0
-1501 -242 0
-61 -1501 62 0
61 -1501 -62 0
-1681 242 0
-61 -1681 -62 0
61 -1681 62 0
-121 -1741 -122 0
121 -1741 122 0
1982 -2 3 0
1982 2 -3 0
1982 -182 183 0
1982 182 -183 0
2042 -62 63 0
2042 62 -63 0
2042 -242 243 0
2042 242 -243 0
2102 -122 123 0
2102 122 -123 0
2102 -302 303 0
2102 302 -303 0
-2 -1442 -3 0
2 -1442 3 0
-1502 -243 0
-62 -1502 63 0
62 -1502 -63 0
-1682 243 0
-62 -1682 -63 0
62 -1682 63 0
-122 -1742 -123 0
122 -1742 123 0
1983 -3 4 0
1983 3 -4 0
1983 -183 184 0
1983 183 -184 0
2043 -63 64 0
2043 63 -64 0
2043 -243 244 0
2043 243 -244 0
2103 -123 124 0
2103 123 -124 0
2103 -303 304 0
2103 303 -304 0
-3 -1443 -4 0
3 -1443 4 0
-1503 -244 0
-63 -1503 64 0
63 -1503 -64 0
-1683 244 0
-63 -1683 -64 0
63 -1683 64 0
-123 -1743 -124 0
123 -1743 124 0
1984 -4 5 0
1984 4 -5 0
1984 -184 185 0
1984 184 -185 0
2044 -64 65 0
2044 64 -65 0
2044 -244 245 0
2044 244 -245 0
2104 -124 125 0
2104 124 -125 0
2104 -304 305 0
2104 304 -305 0
-4 -1444 -5 0
4 -1444 5 0
-1504 -245 0
-64 -1504 65 0
64 -1504 -65 0
-1684 245 0
-64 -1684 -65 0
64 -1684 65 0
-124 -1744 -125 0
124 -1744 125 0
1985 -5 6 0
1985 5 -6 0
1985 -185 186 0
1985 185 -186 0
2045 -65 66 0
2045 65 -66 0
2045 -245 246 0
2045 245 -246 0
2105 -125 126 0
2105 125 -126 0
2105 -305 306 0
2105 305 -306 0
-5 -1445 -6 0
5 -1445 6 0
-1505 -246 0
-65 -1505 66 0
65 -1505 -66 0
-1685 246 0
-65 -1685 -66 0
65 -1685 66 0
-125 -1745 -126 0
125 -1745 126 0
1986 -6 7 0
1986 6 -7 0
1986 -186 187 0
1986 186 -187 0
2046 -66 67 0
2046 66 -67 0
2046 -246 247 0
2046 246 -247 0
2106 -126 127 0
2106 126 -127 0
2106 -306 307 0
2106 306 -307 0
-6 -1446 -7 0
6 -1446 7 0
-1506 -247 0
-66 -1506 67 0
66 -1506 -67 0
-1686 247 0
-66 -1686 -67 0
66 -1686 67 0
-126 -1746 -127 0
126 -1746 127 0
1987 -7 8 0
1987 7 -8 0
1987 -187 188 0
1987 187 -188 0
2047 -67 68 0
2047 67 -68 0
2047 -247 248 0
2047 247 -248 0
2107 -127 128 0
2107 127 -128 0
2107 -307 308 0
2107 307 -308 0
-7 -1447 -8 0
7 -1447 8 0
-1507 -248 0
-67 -1507 68 0
67 -1507 -68 0
-1687 248 0
-67 -1687 -68 0
67 -1687 68 0
-127 -1747 -128 0
127 -1747 128 0
1988 -8 9 0
1988 8 -9 0
1988 -188 189 0
1988 188 -189 0
2048 -68 69 0
2048 68 -69 0
2048 -248 249 0
2048 248 -249 0
2108 -128 129 0
2108 128 -129 0
2108 -308 309 0
2108 308 -309 0
-8 -1448 -9 0
8 -1448 9 0
-1508 -249 0
-68 -1508 69 0
68 -1508 -69 0
-1688 249 0
-68 -1688 -69 0
68 -1688 69 0
-128 -1748 -129 0
128 -1748 129 0
1989 -9 10 0
1989 9 -10 0
1989 -189 190 0
1989 189 -190 0
2049 -69 70 0
2049 69 -70 0
2049 -249 250 0
2049 249 -250 0
2109 -129 130 0
2109 129 -130 0
2109 -309 310 0
2109 309 -310 0
-9 -1449 -10 0
9 -1449 10 0
-1509 -250 0
-69 -1509 70 0
69 -1509 -70 0
-1689 250 0
-69 -1689 -70 0
69 -1689 70 0
-129 -1749 -130 0
129 -1749 130 0
1990 -10 11 0
1990 10 -11 0
1990 -190 191 0
1990 190 -191 0
2050 -70 71 0
2050 70 -71 0
2050 -250 251 0
2050 250 -251 0
2110 -130 131 0
2110 130 -131 0
2110 -310 311 0
2110 310 -311 0
-10 -1450 -11 0
10 -1450 11 0
-1510 -251 0
-70 -1510 71 0
70 -1510 -71 0
-1690 251 0
-70 -1690 -71 0
70 -1690 71 0
-130 -1750 -131 0
130 -1750 131 0
1991 -11 12 0
1991 11 -12 0
1991 -191 192 0
1991 191 -192 0
2051 -71 72 0
2051 71 -72 0
2051 -251 252 0
2051 251 -252 0
2111 -131 132 0
2111 131 -132 0
2111 -311 312 0
2111 311 -312 0
-11 -1451 -12 0
11 -1451 12 0
-1511 -252 0
-71 -1511 72 0
71 -1511 -72 0
-1691 252 0
-71 -1691 -72 0
71 -1691 72 0
-131 -1751 -132 0
131 -1751 132 0
1992 -12 13 0
1992 12 -13 0
1992 -192 193 0
1992 192 -193 0
2052 -72 73 0
2052 72 -73 0
2052 -252 253 0
2052 252 -253 0
2112 -132 133 0
2112 132 -133 0
2112 -312 313 0
2112 312 -313 0
-12 -1452 -13 0
12 -1452 13 0
-1512 -253 0
-72 -1512 73 0
72 -1512 -73 0
-1692 253 0
-72 -1692 -73 0
72 -1692 73 0
-132 -1752 -133 0
132 -1752 133 0
1993 -13 14 0
1993 13 -14 0
1993 -193 194 0
1993 193 -194 0
2053 -73 74 0
2053 73 -74 0
2053 -253 254 0
2053 253 -254 0
2113 -133 134 0
2113 133 -134 0
2113 -313 314 0
2113 313 -314 0
-13 -1453 -14 0
13 -1453 14 0
-1513 -254 0
-73 -1513 74 0
73 -1513 -74 0
-1693 254 0
-73 -1693 -74 0
73 -1693 74 0
-133 -1753 -134 0
133 -1753 134 0
1994 -14 15 0
1994 14 -15 0
1994 -194 195 0
1994 194 -195 0
2054 -74 75 0
2054 74 -75 0
2054 -254 255 0
2054 254 -255 0
2114 -134 135 0
2114 134 -135 0
2114 -314 315 0
2114 314 -315 0
-14 -1454 -15 0
14 -1454 15 0
-1514 -255 0
-74 -1514 75 0
74 -1514 -75 0
-1694 255 0
-74 -1694 -75 0
74 -1694 75 0
-134 -1754 -135 0
134 -1754 135 0
1995 -15 16 0
1995 15 -16 0
1995 -195 196 0
1995 195 -196 0
2055 -75 76 0
2055 75 -76 0
2055 -255 256 0
2055 255 -256 0
2115 -135 136 0
2115 135 -136 0
2115 -315 316 0
2115 315 -316 0
-15 -1455 -16 0
15 -1455 16 0
-1515 -256 0
-75 -1515 76 0
75 -1515 -76 0
-1695 256 0
-75 -1695 -76 0
75 -1695 76 0
-135 -1755 -136 0
135 -1755 136 0
1996 -16 17 0
1996 16 -17 0
1996 -196 197 0
1996 196 -197 0
2056 -76 77 0
2056 76 -77 0
2056 -256 257 0
2056 256 -257 0
2116 -136 137 0
2116 136 -137 0
2116 -316 317 0
2116 316 -317 0
-16 -1456 -17 0
16 -1456 17 0
-1516 -257 0
-76 -1516 77 0
76 -1516 -77 0
-1696 257 0
-76 -1696 -77 0
76 -1696 77 0
-136 -1756 -137 0
136 -1756 137 0
1997 -17 18 0
1997 17 -18 0
1997 -197 198 0
1997 197 -198 0
2057 -77 78 0
2057 77 -78 0
2057 -257 258 0
2057 257 -258 0
2117 -137 138 0
2117 137 -138 0
2117 -317 318 0
2117 317 -318 0
-17 -1457 -18 0
17 -1457 18 0
-1517 -258 0
-77 -1517 78 0
77 -1517 -78 0
-1697 258 0
-77 -1697 -78 0
77 -1697 78 0
-137 -1757 -138 0
137 -1757 138 0
1998 -18 19 0
1998 18 -19 0
1998 -198 199 0
1998 198 -199 0
2058 -78 79 0
2058 78 -79 0
2058 -258 259 0
2058 258 -259 0
2118 -138 139 0
2118 138 -139 0
2118 -318 319 0
2118 318 -319 0
-18 -1458 -19 0
18 -1458 19 0
-1518 -259 0
-78 -1518 79 0
78 -1518 -79 0
-1698 259 0
-78 -1698 -79 0
78 -1698 79 0
-138 -1758 -139 0
138 -1758 139 0
1999 -19 20 0
1999 19 -20 0
1999 -199 200 0
1999 199 -200 0
2059 -79 80 0
2059 79 -80 0
2059 -259 260 0
2059 259 -260 0
2119 -139 140 0
2119 139 -140 0
2119 -319 320 0
2119 319 -320 0
-19 -1459 -20 0
19 -1459 20 0
-1519 -260 0
-79 -1519 80 0
79 -1519 -80 0
-1699 260 0
-79 -1699 -80 0
79 -1699 80 0
-139 -1759 -140 0
139 -1759 140 0
2000 -20 21 0
2000 20 -21 0
2000 -200 201 0
2000 200 -201 0
2060 -80 81 0
2060 80 -81 0
2060 -260 261 0
2060 260 -261 0
2120 -140 141 0
2120 140 -141 0
2120 -320 321 0
2120 320 -321 0
-20 -1460 -21 0
20 -1460 21 0
-1520 -261 0
-80 -1520 81 0
80 -1520 -81 0
-1700 261 0
-80 -1700 -81 0
80 -1700 81 0
-140 -1760 -141 0
140 -1760 141 0
2001 -21 22 0
2001 21 -22 0
2001 -201 202 0
2001 201 -202 0
2061 -81 82 0
2061 81 -82 0
2061 -261 262 0
2061 261 -262 0
2121 -141 142 0
2121 141 -142 0
2121 -321 322 0
2121 321 -322 0
-21 -1461 -22 0
21 -1461 22 0
-1521 -262 0
-81 -1521 82 0
81 -1521 -82 0
-1701 262 0
-81 -1701 -82 0
81 -1701 82 0
-141 -1761 -142 0
141 -1761 142 0
2002 -22 23 0
2002 22 -23 0
2002 -202 203 0
2002 202 -203 0
2062 -82 83 0
2062 82 -83 0
2062 -262 263 0
2062 262 -263 0
2122 -142 143 0
2122 142 -143 0
2122 -322 323 0
2122 322 -323 0
-22 -1462 -23 0
22 -1462 23 0
-1522 -263 0
-82 -1522 83 0
82 -1522 -83 0
-1702 263 0
-82 -1702 -83 0
82 -1702 83 0
-142 -1762 -143 0
142 -1762 143 0
2003 -23 24 0
2003 23 -24 0
2003 -203 204 0
2003 203 -204 0
2063 -83 84 0
2063 83 -84 0
2063 -263 264 0
2063 263 -264 0
2123 -143 144 0
2123 143 -144 0
2123 -323 324 0
2123 323 -324 0
-23 -1463 -24 0
23 -1463 24 0
-1523 -264 0
-83 -1523 84 0
83 -1523 -84 0
-1703 264 0
-83 -1703 -84 0
83 -1703 84 0
-143 -1763 -144 0
143 -1763 144 0
2004 -24 25 0
2004 24 -25 0
2004 -204 205 0
2004 204 -205 0
2064 -84 85 0
2064 84 -85 0
2064 -264 265 0
2064 264 -265 0
2124 -144 145 0
2124 144 -145 0
2124 -324 325 0
2124 324 -325 0
-24 -1464 -25 0
24 -1464 25 0
-1524 -265 0
-84 -1524 85 0
84 -1524 -85 0
-1704 265 0
-84 -1704 -85 0
84 -1704 85 0
-144 -1764 -145 0
144 -1764 145 0
2005 -25 26 0
2005 25 -26 0
2005 -205 206 0
2005 205 -206 0
2065 -85 86 0
2065 85 -86 0
2065 -265 266 0
2065 265 -266 0
2125 -145 146 0
2125 145 -146 0
2125 -325 326 0
2125 325 -326 0
-25 -1465 -26 0
25 -1465 26 0
-1525 -266 0
-85 -1525 86 0
85 -1525 -86 0
-1705 266 0
-85 -1705 -86 0
85 -1705 86 0
-145 -1765 -146 0
145 -1765 146 0
2006 -26 27 0
2006 26 -27 0
2006 -206 207 0
2006 206 -207 0
2066 -86 87 0
2066 86 -87 0
2066 -266 267 0
2066 266 -267 0
2126 -146 147 0
2126 146 -147 0
2126 -326 327 0
2126 326 -327 0
-26 -1466 -27 0
26 -1466 27 0
-1526 -267 0
-86 -1526 87 0
86 -1526 -87 0
-1706 267 0
-86 -1706 -87 0
86 -1706 87 0
-146 -1766 -147 0
146 -1766 147 0
2007 -27 28 0
2007 27 -28 0
2007 -207 208 0
2007 207 -208 0
2067 -87 88 0
2067 87 -88 0
2067 -267 268 0
2067 267 -268 0
2127 -147 148 0
2127 147 -148 0
2127 -327 328 0
2127 327 -328 0
-27 -1467 -28 0
27 -1467 28 0
-1527 -268 0
-87 -1527 88 0
87 -1527 -88 0
-1707 268 0
-87 -1707 -88 0
87 -1707 88 0
-147 -1767 -148 0
147 -1767 148 0
2008 -28 29 0
2008 28 -29 0
2008 -208 209 0
2008 208 -209 0
2068 -88 89 0
2068 88 -89 0
2068 -268 269 0
2068 268 -269 0
2128 -148 149 0
2128 148 -149 0
2128 -328 329 0
2128 328 -329 0
-28 -1468 -29 0
28 -1468 29 0
-1528 -269 0
-88 -1528 89 0
88 -1528 -89 0
-1708 269 0
-88 -1708 -89 0
88 -1708 89 0
-148 -1768 -149 0
148 -1768 149 0
2009 -29 30 0
2009 29 -30 0
2009 -209 210 0
2009 209 -210 0
2069 -89 90 0
2069 89 -90 0
2069 -269 270 0
2069 269 -270 0
2129 -149 150 0
2129 149 -150 0
2129 -329 330 0
2129 329 -330 0
-29 -1469 -30 0
29 -1469 30 0
-1529 -270 0
-89 -1529 90 0
89 -1529 -90 0
-1709 270 0
-89 -1709 -90 0
89 -1709 90 0
-149 -1769 -150 0
149 -1769 150 0
2010 -30 31 0
2010 30 -31 0
2010 -210 211 0
2010 210 -211 0
2070 -90 91 0
2070 90 -91 0
2070 -270 271 0
2070 270 -271 0
2130 -150 151 0
2130 150 -151 0
2130 -330 331 0
2130 330 -331 0
-30 -1470 -31 0
30 -1470 31 0
-1530 -271 0
-90 -1530 91 0
90 -1530 -91 0
-1710 271 0
-90 -1710 -91 0
90 -1710 91 0
-150 -1770 -151 0
150 -1770 151 0
2011 -31 32 0
2011 31 -32 0
2011 -211 212 0
2011 211 -212 0
2071 -91 92 0
2071 91 -92 0
2071 -271 272 0
2071 271 -272 0
2131 -151 152 0
2131 151 -152 0
2131 -331 332 0
2131 331 -332 0
-31 -1471 -32 0
31 -1471 32 0
-1531 -272 0
-91 -1531 92 0
91 -1531 -92 0
-1711 272 0
-91 -1711 -92 0
91 -1711 92 0
-151 -1771 -152 0
151 -1771 152 0
2012 -32 33 0
2012 32 -33 0
2012 -212 213 0
2012 212 -213 0
2072 -92 93 0
2072 92 -93 0
2072 -272 273 0
2072 272 -273 0
2132 -152 153 0
2132 152 -153 0
2132 -332 333 0
2132 332 -333 0
-32 -1472 -33 0
32 -1472 33 0
-1532 -273 0
-92 -1532 93 0
92 -1532 -93 0
-1712 273 0
-92 -1712 -93 0
92 -1712 93 0
-152 -1772 -153 0
152 -1772 153 0
2013 -33 34 0
2013 33 -34 0
2013 -213 214 0
2013 213 -214 0
2073 -93 94 0
2073 93 -94 0
2073 -273 274 0
2073 273 -274 0
2133 -153 154 0
2133 153 -154 0
2133 -333 334 0
2133 333 -334 0
-33 -1473 -34 0
33 -1473 34 0
-1533 -274 0
-93 -1533 94 0
93 -1533 -94 0
-1713 274 0
-93 -1713 -94 0
93 -1713 94 0
-153 -1773 -154 0
153 -1773 154 0
2014 -34 35 0
2014 34 -35 0
2014 -214 215 0
2014 214 -215 0
2074 -94 95 0
2074 94 -95 0
2074 -274 275 0
2074 274 -275 0
2134 -154 155 0
2134 154 -155 0
2134 -334 335 0
2134 334 -335 0
-34 -1474 -35 0
34 -1474 35 0
-1534 -275 0
-94 -1534 95 0
94 -1534 -95 0
-1714 275 0
-94 -1714 -95 0
94 -1714 95 0
-154 -1774 -155 0
154 -1774 155 0
2015 -35 36 0
2015 35 -36 0
2015 -215 216 0
2015 215 -216 0
2075 -95 96 0
2075 95 -96 0
2075 -275 276 0
2075 275 -276 0
2135 -155 156 0
2135 155 -156 0
2135 -335 336 0
2135 335 -336 0
-35 -1475 -36 0
35 -1475 36 0
-1535 -276 0
-95 -1535 96 0
95 -1535 -96 0
-1715 276 0
-95 -1715 -96 0
95 -1715 96 0
-155 -1775 -156 0
155 -1775 156 0
2016 -36 37 0
2016 36 -37 0
2016 -216 217 0
2016 216 -217 0
2076 -96 97 0
2076 96 -97 0
2076 -276 277 0
2076 276 -277 0
2136 -156 157 0
2136 156 -157 0
2136 -336 337 0
2136 336 -337 0
-36 -1476 -37 0
36 -1476 37 0
-1536 -277 0
-96 -1536 97 0
96 -1536 -97 0
-1716 277 0
-96 -1716 -97 0
96 -1716 97 0
-156 -1776 -157 0
156 -1776 157 0
2017 -37 38 0
2017 37 -38 0
2017 -217 218 0
2017 217 -218 0
2077 -97 98 0
2077 97 -98 0
2077 -277 278 0
2077 277 -278 0
2137 -157 158 0
2137 157 -158 0
2137 -337 338 0
2137 337 -338 0
-37 -1477 -38 0
37 -1477 38 0
-1537 -278 0
-97 -1537 98 0
97 -1537 -98 0
-1717 278 0
-97 -1717 -98 0
97 -1717 98 0
-157 -1777 -158 0
157 -1777 158 0
2018 -38 39 0
2018 38 -39 0
2018 -218 219 0
2018 218 -219 0
2078 -98 99 0
2078 98 -99 0
2078 -278 279 0
2078 278 -279 0
2138 -158 159 0
2138 158 -159 0
2138 -338 339 0
2138 338 -339 0
-38 -1478 -39 0
38 -1478 39 0
-1538 -279 0
-98 -1538 99 0
98 -1538 -99 0
-1718 279 0
-98 -1718 -99 0
98 -1718 99 0
-158 -1778 -159 0
158 -1778 159 0
2019 -39 40 0
2019 39 -40 0
2019 -219 220 0
2019 219 -220 0
2079 -99 100 0
2079 99 -100 0
2079 -279 280 0
2079 279 -280 0
2139 -159 160 0
2139 159 -160 0
2139 -339 340 0
2139 339 -340 0
-39 -1479 -40 0
39 -1479 40 0
-1539 -280 0
-99 -1539 100 0
99 -1539 -100 0
-1719 280 0
-99 -1719 -100 0
99 -1719 100 0
-159 -1779 -160 0
159 -1779 160 0
2020 -40 41 0
2020 40 -41 0
2020 -220 221 0
2020 220 -221 0
2080 -100 101 0
2080 100 -101 0
2080 -280 281 0
2080 280 -281 0
2140 -160 161 0
2140 160 -161 0
2140 -340 341 0
2140 340 -341 0
-40 -1480 -41 0
40 -1480 41 0
-1540 -281 0
-100 -1540 101 0
100 -1540 -101 0
-1720 281 0
-100 -1720 -101 0
100 -1720 101 0
-160 -1780 -161 0
160 -1780 161 0
2021 -41 42 0
2021 41 -42 0
2021 -221 222 0
2021 221 -222 0
2081 -101 102 0
2081 101 -102 0
2081 -281 282 0
2081 281 -282 0
2141 -161 162 0
2141 161 -162 0
2141 -341 342 0
2141 341 -342 0
-41 -1481 -42 0
41 -1481 42 0
-1541 -282 0
-101 -1541 102 0
101 -1541 -102 0
-1721 282 0
-101 -1721 -102 0
101 -1721 102 0
-161 -1781 -162 0
161 -1781 162 0
2022 -42 43 0
2022 42 -43 0
2022 -222 223 0
2022 222 -223 0
2082 -102 103 0
2082 102 -103 0
2082 -282 283 0
2082 282 -283 0
2142 -162 163 0
2142 162 -163 0
2142 -342 343 0
2142 342 -343 0
-42 -1482 -43 0
42 -1482 43 0
-1542 -283 0
-102 -1542 103 0
102 -1542 -103 0
-1722 283 0
-102 -1722 -103 0
102 -1722 103 0
-162 -1782 -163 0
162 -1782 163 0
2023 -43 44 0
2023 43 -44 0
2023 -223 224 0
2023 223 -224 0
2083 -103 104 0
2083 103 -104 0
2083 -283 284 0
2083 283 -284 0
2143 -163 164 0
2143 163 -164 0
2143 -343 344 0
2143 343 -344 0
-43 -1483 -44 0
43 -1483 44 0
-1543 -284 0
-103 -1543 104 0
103 -1543 -104 0
-1723 284 0
-103 -1723 -104 0
103 -1723 104 0
-163 -1783 -164 0
163 -1783 164 0
2024 -44 45 0
2024 44 -45 0
2024 -224 225 0
2024 224 -225 0
2084 -104 105 0
2084 104 -105 0
2084 -284 285 0
2084 284 -285 0
2144 -164 165 0
2144 164 -165 0
2144 -344 345 0
2144 344 -345 0
-44 -1484 -45 0
44 -1484 45 0
-1544 -285 0
-104 -1544 105 0
104 -1544 -105 0
-1724 285 0
-104 -1724 -105 0
104 -1724 105 0
-164 -1784 -165 0
164 -1784 165 0
2025 -45 46 0
2025 45 -46 0
2025 -225 226 0
2025 225 -226 0
2085 -105 106 0
2085 105 -106 0
2085 -285 286 0
2085 285 -286 0
2145 -165 166 0
2145 165 -166 0
2145 -345 346 0
2145 345 -346 0
-45 -1485 -46 0
45 -1485 46 0
-1545 -286 0
-105 -1545 106 0
105 -1545 -106 0
-1725 286 0
-105 -1725 -106 0
105 -1725 106 0
-165 -1785 -166 0
165 -1785 166 0
2026 -46 47 0
2026 46 -47 0
2026 -226 227 0
2026 226 -227 0
2086 -106 107 0
2086 106 -107 0
2086 -286 287 0
2086 286 -287 0
2146 -166 167 0
2146 166 -167 0
2146 -346 347 0
2146 346 -347 0
-46 -1486 -47 0
46 -1486 47 0
-1546 -287 0
-106 -1546 107 0
106 -1546 -107 0
-1726 287 0
-106 -1726 -107 0
106 -1726 107 0
-166 -1786 -167 0
166 -1786 167 0
2027 -47 48 0
2027 47 -48 0
2027 -227 228 0
2027 227 -228 0
2087 -107 108 0
2087 107 -108 0
2087 -287 288 0
2087 287 -288 0
2147 -167 168 0
2147 167 -168 0
2147 -347 348 0
2147 347 -348 0
-47 -1487 -48 0
47 -1487 48 0
-1547 -288 0
-107 -1547 108 0
107 -1547 -108 0
-1727 288 0
-107 -1727 -108 0
107 -1727 108 0
-167 -1787 -168 0
167 -1787 168 0
2028 -48 49 0
2028 48 -49 0
2028 -228 229 0
2028 228 -229 0
2088 -108 109 0
2088 108 -109 0
2088 -288 289 0
2088 288 -289 0
2148 -168 169 0
2148 168 -169 0
2148 -348 349 0
2148 348 -349 0
-48 -1488 -49 0
48 -1488 49 0
-1548 -289 0
-108 -1548 109 0
108 -1548 -109 0
-1728 289 0
-108 -1728 -109 0
108 -1728 109 0
-168 -1788 -169 0
168 -1788 169 0
2029 -49 50 0
2029 49 -50 0
2029 -229 230 0
2029 229 -230 0
2089 -109 110 0
2089 109 -110 0
2089 -289 290 0
2089 289 -290 0
2149 -169 170 0
2149 169 -170 0
2149 -349 350 0
2149 349 -350 0
-49 -1489 -50 0
49 -1489 50 0
-1549 -290 0
-109 -1549 110 0
109 -1549 -110 0
-1729 290 0
-109 -1729 -110 0
109 -1729 110 0
-169 -1789 -170 0
169 -1789 170 0
2030 -50 51 0
2030 50 -51 0
2030 -230 231 0
2030 230 -231 0
2090 -110 111 0
2090 110 -111 0
2090 -290 291 0
2090 290 -291 0
2150 -170 171 0
2150 170 -171 0
2150 -350 351 0
2150 350 -351 0
-50 -1490 -51 0
50 -1490 51 0
-1550 -291 0
-110 -1550 111 0
110 -1550 -111 0
-1730 291 0
-110 -1730 -111 0
110 -1730 111 0
-170 -1790 -171 0
170 -1790 171 0
2031 -51 52 0
2031 51 -52 0
2031 -231 232 0
2031 231 -232 0
2091 -111 112 0
2091 111 -112 0
2091 -291 292 0
2091 291 -292 0
2151 -171 172 0
2151 171 -172 0
2151 -351 352 0
2151 351 -352 0
-51 -1491 -52 0
51 -1491 52 0
-1551 -292 0
-111 -1551 112 0
111 -1551 -112 0
-1731 292 0
-111 -1731 -112 0
111 -1731 112 0
-171 -1791 -172 0
171 -1791 172 0
2032 -52 53 0
2032 52 -53 0
2032 -232 233 0
2032 232 -233 0
2092 -112 113 0
2092 112 -113 0
2092 -292 293 0
2092 292 -293 0
2152 -172 173 0
2152 172 -173 0
2152 -352 353 0
2152 352 -353 0
-52 -1492 -53 0
52 -1492 53 0
-1552 -293 0
-112 -1552 113 0
112 -1552 -113 0
-1732 293 0
-112 -1732 -113 0
112 -1732 113 0
-172 -1792 -173 0
172 -1792 173 0
2033 -53 54 0
2033 53 -54 0
2033 -233 234 0
2033 233 -234 0
2093 -113 114 0
2093 113 -114 0
2093 -293 294 0
2093 293 -294 0
2153 -173 174 0
2153 173 -174 0
2153 -353 354 0
2153 353 -354 0
-53 -1493 -54 0
53 -1493 54 0
-1553 -294 0
-113 -1553 114 0
113 -1553 -114 0
-1733 294 0
-113 -1733 -114 0
113 -1733 114 0
-173 -1793 -174 0
173 -1793 174 0
2034 -54 55 0
2034 54 -55 0
2034 -234 235 0
2034 234 -235 0
2094 -114 115 0
2094 114 -115 0
2094 -294 295 0
2094 294 -295 0
2154 -174 175 0
2154 174 -175 0
2154 -354 355 0
2154 354 -355 0
-54 -1494 -55 0
54 -1494 55 0
-1554 -295 0
-114 -1554 115 0
114 -1554 -115 0
-1734 295 0
-114 -1734 -115 0
114 -1734 115 0
-174 -1794 -175 0
174 -1794 175 0
2035 -55 56 0
2035 55 -56 0
2035 -235 236 0
2035 235 -236 0
2095 -115 116 0
2095 115 -116 0
2095 -295 296 0
2095 295 -296 0
2155 -175 176 0
2155 175 -176 0
2155 -355 356 0
2155 355 -356 0
-55 -1495 -56 0
55 -1495 56 0
-1555 -296 0
-115 -1555 116 0
115 -1555 -116 0
-1735 296 0
-115 -1735 -116 0
115 -1735 116 0
-175 -1795 -176 0
175 -1795 176 0
2036 -56 57 0
2036 56 -57 0
2036 -236 237 0
2036 236 -237 0
2096 -116 117 0
2096 116 -117 0
2096 -296 297 0
2096 296 -297 0
2156 -176 177 0
2156 176 -177 0
2156 -356 357 0
2156 356 -357 0
-56 -1496 -57 0
56 -1496 57 0
-1556 -297 0
-116 -1556 117 0
116 -1556 -117 0
-1736 297 0
-116 -1736 -117 0
116 -1736 117 0
-176 -1796 -177 0
176 -1796 177 0
2037 -57 58 0
2037 57 -58 0
2037 -237 238 0
2037 237 -238 0
2097 -117 118 0
2097 117 -118 0
2097 -297 298 0
2097 297 -298 0
2157 -177 178 0
2157 177 -178 0
2157 -357 358 0
2157 357 -358 0
-57 -1497 -58 0
57 -1497 58 0
-1557 -298 0
-117 -1557 118 0
117 -1557 -118 0
-1737 298 0
-117 -1737 -118 0
117 -1737 118 0
-177 -1797 -178 0
177 -1797 178 0
2038 -58 59 0
2038 58 -59 0
2038 -238 239 0
2038 238 -239 0
2098 -118 119 0
2098 118 -119 0
2098 -298 299 0
2098 298 -299 0
2158 -178 179 0
2158 178 -179 0
2158 -358 359 0
2158 358 -359 0
-58 -1498 -59 0
58 -1498 59 0
-1558 -299 0
-118 -1558 119 0
118 -1558 -119 0
-1738 299 0
-118 -1738 -119 0
118 -1738 119 0
-178 -1798 -179 0
178 -1798 179 0
2039 -59 60 0
2039 59 -60 0
2039 -239 240 0
2039 239 -240 0
2099 -119 120 0
2099 119 -120 0
2099 -299 300 0
2099 299 -300 0
2159 -179 180 0
2159 179 -180 0
2159 -359 360 0
2159 359 -360 0
-59 -1499 -60 0
59 -1499 60 0
-1559 -300 0
-119 -1559 120 0
119 -1559 -120 0
-1739 300 0
-119 -1739 -120 0
119 -1739 120 0
-179 -1799 -180 0
179 -1799 180 0
181 0
-301 0
-361 541 0
-361 721 0
-361 181 0
-361 -241 0
361 -541 -721 -181 241 0
-1 61 -541 0
1 541 0
-61 541 0
1 -61 -721 0
-1 721 0
61 721 0
-421 601 0
-421 781 0
-421 241 0
-421 -301 0
421 -601 -781 -241 301 0
-61 121 -601 0
61 601 0
-121 601 0
61 -121 -781 0
-61 781 0
121 781 0
961 1141 0
961 1321 0
-961 -1141 -1321 0
-61 1 -1141 0
61 1141 0
-1 1141 0
61 -1 -1321 0
-61 1321 0
1 1321 0
1021 1201 0
1021 1381 0
-1021 -1201 -1381 0
-121 61 -1201 0
121 1201 0
-61 1201 0
121 -61 -1381 0
-121 1381 0
61 1381 0
182 0
-302 0
-362 542 0
-362 722 0
-362 182 0
-362 -242 0
362 -542 -722 -182 242 0
-2 62 -542 0
2 542 0
-62 542 0
2 -62 -722 0
-2 722 0
62 722 0
-422 602 0
-422 782 0
-422 242 0
-422 -302 0
422 -602 -782 -242 302 0
-62 122 -602 0
62 602 0
-122 602 0
62 -122 -782 0
-62 782 0
122 782 0
962 1142 0
962 1322 0
-962 -1142 -1322 0
-62 2 -1142 0
62 1142 0
-2 1142 0
62 -2 -1322 0
-62 1322 0
2 1322 0
1022 1202 0
1022 1382 0
-1022 -1202 -1382 0
-122 62 -1202 0
122 1202 0
-62 1202 0
122 -62 -1382 0
-122 1382 0
62 1382 0
183 0
-303 0
-363 543 0
-363 723 0
-363 183 0
-363 -243 0
363 -543 -723 -183 243 0
-3 63 -543 0
3 543 0
-63 543 0
3 -63 -723 0
-3 723 0
63 723 0
-423 603 0
-423 783 0
-423 243 0
-423 -303 0
423 -603 -783 -243 303 0
-63 123 -603 0
63 603 0
-123 603 0
63 -123 -783 0
-63 783 0
123 783 0
963 1143 0
963 1323 0
-963 -1143 -1323 0
-63 3 -1143 0
63 1143 0
-3 1143 0
63 -3 -1323 0
-63 1323 0
3 1323 0
1023 1203 0
1023 1383 0
-1023 -1203 -1383 0
-123 63 -1203 0
123 1203 0
-63 1203 0
123 -63 -1383 0
-123 1383 0
63 1383 0
184 0
-304 0
-364 544 0
-364 724 0
-364 184 0
-364 -244 0
364 -544 -724 -184 244 0
-4 64 -544 0
4 544 0
-64 544 0
4 -64 -724 0
-4 724 0
64 724 0
-424 604 0
-424 784 0
-424 244 0
-424 -304 0
424 -604 -784 -244 304 0
-64 124 -604 0
64 604 0
-124 604 0
64 -124 -784 0
-64 784 0
124 784 0
964 1144 0
964 1324 0
-964 -1144 -1324 0
-64 4 -1144 0
64 1144 0
-4 1144 0
64 -4 -1324 0
-64 1324 0
4 1324 0
1024 1204 0
1024 1384 0
-1024 -1204 -1384 0
-124 64 -1204 0
124 1204 0
-64 1204 0
124 -64 -1384 0
-124 1384 0
64 1384 0
185 0
-305 0
-365 545 0
-365 725 0
-365 185 0
-365 -245 0
365 -545 -725 -185 245 0
-5 65 -545 0
5 545 0
-65 545 0
5 -65 -725 0
-5 725 0
65 725 0
-425 605 0
-425 785 0
-425 245 0
-425 -305 0
425 -605 -785 -245 305 0
-65 125 -605 0
65 605 0
-125 605 0
65 -125 -785 0
-65 785 0
125 785 0
965 1145 0
965 1325 0
-965 -1145 -1325 0
-65 5 -1145 0
65 1145 0
-5 1145 0
65 -5 -1325 0
-65 1325 0
5 1325 0
1025 1205 0
1025 1385 0
-1025 -1205 -1385 0
-125 65 -1205 0
125 1205 0
-65 1205 0
125 -65 -1385 0
-125 1385 0
65 1385 0
186 0
-306 0
-366 546 0
-366 726 0
-366 186 0
-366 -246 0
366 -546 -726 -186 246 0
-6 66 -546 0
6 546 0
-66 546 0
6 -66 -726 0
-6 726 0
66 726 0
-426 606 0
-426 786 0
-426 246 0
-426 -306 0
426 -606 -786 -246 306 0
-66 126 -606 0
66 606 0
-126 606 0
66 -126 -786 0
-66 786 0
126 786 0
966 1146 0
966 1326 0
-966 -1146 -1326 0
-66 6 -1146 0
66 1146 0
-6 1146 0
66 -6 -1326 0
-66 1326 0
6 1326 0
1026 1206 0
1026 1386 0
-1026 -1206 -1386 0
-126 66 -1206 0
126 1206 0
-66 1206 0
126 -66 -1386 0
-126 1386 0
66 1386 0
187 0
-307 0
-367 547 0
-367 727 0
-367 187 0
-367 -247 0
367 -547 -727 -187 247 0
-7 67 -547 0
7 547 0
-67 547 0
7 -67 -727 0
-7 727 0
67 727 0
-427 607 0
-427 787 0
-427 247 0
-427 -307 0
427 -607 -787 -247 307 0
-67 127 -607 0
67 607 0
-127 607 0
67 -127 -787 0
-67 787 0
127 787 0
967 1147 0
967 1327 0
-967 -1147 -1327 0
-67 7 -1147 0
67 1147 0
-7 1147 0
67 -7 -1327 0
-67 1327 0
7 1327 0
1027 1207 0
1027 1387 0
-1027 -1207 -1387 0
-127 67 -1207 0
127 1207 0
-67 1207 0
127 -67 -1387 0
-127 1387 0
67 1387 0
188 0
-308 0
-368 548 0
-368 728 0
-368 188 0
-368 -248 0
368 -548 -728 -188 248 0
-8 68 -548 0
8 548 0
-68 548 0
8 -68 -728 0
-8 728 0
68 728 0
-428 608 0
-428 788 0
-428 248 0
-428 -308 0
428 -608 -788 -248 308 0
-68 128 -608 0
68 608 0
-128 608 0
68 -128 -788 0
-68 788 0
128 788 0
968 1148 0
968 1328 0
-968 -1148 -1328 0
-68 8 -1148 0
68 1148 0
-8 1148 0
68 -8 -1328 0
-68 1328 0
8 1328 0
1028 1208 0
1028 1388 0
-1028 -1208 -1388 0
-128 68 -1208 0
128 1208 0
-68 1208 0
128 -68 -1388 0
-128 1388 0
68 1388 0
189 0
-309 0
-369 549 0
-369 729 0
-369 189 0
-369 -249 0
369 -549 -729 -189 249 0
-9 69 -549 0
9 549 0
-69 549 0
9 -69 -729 0
-9 729 0
69 729 0
-429 609 0
-429 789 0
-429 249 0
-429 -309 0
429 -609 -789 -249 309 0
-69 129 -609 0
69 609 0
-129 609 0
69 -129 -789 0
-69 789 0
129 789 0
969 1149 0
969 1329 0
-969 -1149 -1329 0
-69 9 -1149 0
69 1149 0
-9 1149 0
69 -9 -1329 0
-69 1329 0
9 1329 0
1029 1209 0
1029 1389 0
-1029 -1209 -1389 0
-129 69 -1209 0
129 1209 0
-69 1209 0
129 -69 -1389 0
-129 1389 0
69 1389 0
190 0
-310 0
-370 550 0
-370 730 0
-370 190 0
-370 -250 0
370 -550 -730 -190 250 0
-10 70 -550 0
10 550 0
-70 550 0
10 -70 -730 0
-10 730 0
70 730 0
-430 610 0
-430 790 0
-430 250 0
-430 -310 0
430 -610 -790 -250 310 0
-70 130 -610 0
70 610 0
-130 610 0
70 -130 -790 0
-70 790 0
130 790 0
970 1150 0
970 1330 0
-970 -1150 -1330 0
-70 10 -1150 0
70 1150 0
-10 1150 0
70 -10 -1330 0
-70 1330 0
10 1330 0
1030 1210 0
1030 1390 0
-1030 -1210 -1390 0
-130 70 -1210 0
130 1210 0
-70 1210 0
130 -70 -1390 0
-130 1390 0
70 1390 0
191 0
-311 0
-371 551 0
-371 731 0
-371 191 0
-371 -251 0
371 -551 -731 -191 251 0
-11 71 -551 0
11 551 0
-71 551 0
11 -71 -731 0
-11 731 0
71 731 0
-431 611 0
-431 791 0
-431 251 0
-431 -311 0
431 -611 -791 -251 311 0
-71 131 -611 0
71 611 0
-131 611 0
71 -131 -791 0
-71 791 0
131 791 0
971 1151 0
971 1331 0
-971 -1151 -1331 0
-71 11 -1151 0
71 1151 0
-11 1151 0
71 -11 -1331 0
-71 1331 0
11 1331 0
1031 1211 0
1031 1391 0
-1031 -1211 -1391 0
-131 71 -1211 0
131 1211 0
-71 1211 0
131 -71 -1391 0
-131 1391 0
71 1391 0
192 0
-312 0
-372 552 0
-372 732 0
-372 192 0
-372 -252 0
372 -552 -732 -192 252 0
-12 72 -552 0
12 552 0
-72 552 0
12 -72 -732 0
-12 732 0
72 732 0
-432 612 0
-432 792 0
-432 252 0
-432 -312 0
432 -612 -792 -252 312 0
-72 132 -612 0
72 612 0
-132 612 0
72 -132 -792 0
-72 792 0
132 792 0
972 1152 0
972 1332 0
-972 -1152 -1332 0
-72 12 -1152 0
72 1152 0
-12 1152 0
72 -12 -1332 0
-72 1332 0
12 1332 0
1032 1212 0
1032 1392 0
-1032 -1212 -1392 0
-132 72 -1212 0
132 1212 0
-72 1212 0
132 -72 -1392 0
-132 1392 0
72 1392 0
193 0
-313 0
-373 553 0
-373 733 0
-373 193 0
-373 -253 0
373 -553 -733 -193 253 0
-13 73 -553 0
13 553 0
-73 553 0
13 -73 -733 0
-13 733 0
73 733 0
-433 613 0
-433 793 0
-433 253 0
-433 -313 0
433 -613 -793 -253 313 0
-73 133 -613 0
73 613 0
-133 613 0
73 -133 -793 0
-73 793 0
133 793 0
973 1153 0
973 1333 0
-973 -1153 -1333 0
-73 13 -1153 0
73 1153 0
-13 1153 0
73 -13 -1333 0
-73 1333 0
13 1333 0
1033 1213 0
1033 1393 0
-1033 -1213 -1393 0
-133 73 -1213 0
133 1213 0
-73 1213 0
133 -73 -1393 0
-133 1393 0
73 1393 0
194 0
-314 0
-374 554 0
-374 734 0
-374 194 0
-374 -254 0
374 -554 -734 -194 254 0
-14 74 -554 0
14 554 0
-74 554 0
14 -74 -734 0
-14 734 0
74 734 0
-434 614 0
-434 794 0
-434 254 0
-434 -314 0
434 -614 -794 -254 314 0
-74 134 -614 0
74 614 0
-134 614 0
74 -134 -794 0
-74 794 0
134 794 0
974 1154 0
974 1334 0
-974 -1154 -1334 0
-74 14 -1154 0
74 1154 0
-14 1154 0
74 -14 -1334 0
-74 1334 0
14 1334 0
1034 1214 0
1034 1394 0
-1034 -1214 -1394 0
-134 74 -1214 0
134 1214 0
-74 1214 0
134 -74 -1394 0
-134 1394 0
74 1394 0
195 0
-315 0
-375 555 0
-375 735 0
-375 195 0
-375 -255 0
375 -555 -735 -195 255 0
-15 75 -555 0
15 555 0
-75 555 0
15 -75 -735 0
-15 735 0
75 735 0
-435 615 0
-435 795 0
-435 255 0
-435 -315 0
435 -615 -795 -255 315 0
-75 135 -615 0
75 615 0
-135 615 0
75 -135 -795 0
-75 795 0
135 795 0
975 1155 0
975 1335 0
-975 -1155 -1335 0
-75 15 -1155 0
75 1155 0
-15 1155 0
75 -15 -1335 0
-75 1335 0
15 1335 0
1035 1215 0
1035 1395 0
-1035 -1215 -1395 0
-135 75 -1215 0
135 1215 0
-75 1215 0
135 -75 -1395 0
-135 1395 0
75 1395 0
196 0
-316 0
-376 556 0
-376 736 0
-376 196 0
-376 -256 0
376 -556 -736 -196 256 0
-16 76 -556 0
16 556 0
-76 556 0
16 -76 -736 0
-16 736 0
76 736 0
-436 616 0
-436 796 0
-436 256 0
-436 -316 0
436 -616 -796 -256 316 0
-76 136 -616 0
76 616 0
-136 616 0
76 -136 -796 0
-76 796 0
136 796 0
976 1156 0
976 1336 0
-976 -1156 -1336 0
-76 16 -1156 0
76 1156 0
-16 1156 0
76 -16 -1336 0
-76 1336 0
16 1336 0
1036 1216 0
1036 1396 0
-1036 -1216 -1396 0
-136 76 -1216 0
136 1216 0
-76 1216 0
136 -76 -1396 0
-136 1396 0
76 1396 0
197 0
-317 0
-377 557 0
-377 737 0
-377 197 0
-377 -257 0
377 -557 -737 -197 257 0
-17 77 -557 0
17 557 0
-77 557 0
17 -77 -737 0
-17 737 0
77 737 0
-437 617 0
-437 797 0
-437 257 0
-437 -317 0
437 -617 -797 -257 317 0
-77 137 -617 0
77 617 0
-137 617 0
77 -137 -797 0
-77 797 0
137 797 0
977 1157 0
977 1337 0
-977 -1157 -1337 0
-77 17 -1157 0
77 1157 0
-17 1157 0
77 -17 -1337 0
-77 1337 0
17 1337 0
1037 1217 0
1037 1397 0
-1037 -1217 -1397 0
-137 77 -1217 0
137 1217 0
-77 1217 0
137 -77 -1397 0
-137 1397 0
77 1397 0
198 0
-318 0
-378 558 0
-378 738 0
-378 198 0
-378 -258 0
378 -558 -738 -198 258 0
-18 78 -558 0
18 558 0
-78 558 0
18 -78 -738 0
-18 738 0
78 738 0
-438 618 0
-438 798 0
-438 258 0
-438 -318 0
438 -618 -798 -258 318 0
-78 138 -618 0
78 618 0
-138 618 0
78 -138 -798 0
-78 798 0
138 798 0
978 1158 0
978 1338 0
-978 -1158 -1338 0
-78 18 -1158 0
78 1158 0
-18 1158 0
78 -18 -1338 0
-78 1338 0
18 1338 0
1038 1218 0
1038 1398 0
-1038 -1218 -1398 0
-138 78 -1218 0
138 1218 0
-78 1218 0
138 -78 -1398 0
-138 1398 0
78 1398 0
199 0
-319 0
-379 559 0
-379 739 0
-379 199 0
-379 -259 0
379 -559 -739 -199 259 0
-19 79 -559 0
19 559 0
-79 559 0
19 -79 -739 0
-19 739 0
79 739 0
-439 619 0
-439 799 0
-439 259 0
-439 -319 0
439 -619 -799 -259 319 0
-79 139 -619 0
79 619 0
-139 619 0
79 -139 -799 0
-79 799 0
139 799 0
979 1159 0
979 1339 0
-979 -1159 -1339 0
-79 19 -1159 0
79 1159 0
-19 1159 0
79 -19 -1339 0
-79 1339 0
19 1339 0
1039 1219 0
1039 1399 0
-1039 -1219 -1399 0
-139 79 -1219 0
139 1219 0
-79 1219 0
139 -79 -1399 0
-139 1399 0
79 1399 0
200 0
-320 0
-380 560 0
-380 740 0
-380 200 0
-380 -260 0
380 -560 -740 -200 260 0
-20 80 -560 0
20 560 0
-80 560 0
20 -80 -740 0
-20 740 0
80 740 0
-440 620 0
-440 800 0
-440 260 0
-440 -320 0
440 -620 -800 -260 320 0
-80 140 -620 0
80 620 0
-140 620 0
80 -140 -800 0
-80 800 0
140 800 0
980 1160 0
980 1340 0
-980 -1160 -1340 0
-80 20 -1160 0
80 1160 0
-20 1160 0
80 -20 -1340 0
-80 1340 0
20 1340 0
1040 1220 0
1040 1400 0
-1040 -1220 -1400 0
-140 80 -1220 0
140 1220 0
-80 1220 0
140 -80 -1400 0
-140 1400 0
80 1400 0
201 0
-321 0
-381 561 0
-381 741 0
-381 201 0
-381 -261 0
381 -561 -741 -201 261 0
-21 81 -561 0
21 561 0
-81 561 0
21 -81 -741 0
-21 741 0
81 741 0
-441 621 0
-441 801 0
-441 261 0
-441 -321 0
441 -621 -801 -261 321 0
-81 141 -621 0
81 621 0
-141 621 0
81 -141 -801 0
-81 801 0
141 801 0
981 1161 0
981 1341 0
-981 -1161 -1341 0
-81 21 -1161 0
81 1161 0
-21 1161 0
81 -21 -1341 0
-81 1341 0
21 1341 0
1041 1221 0
1041 1401 0
-1041 -1221 -1401 0
-141 81 -1221 0
141 1221 0
-81 1221 0
141 -81 -1401 0
-141 1401 0
81 1401 0
202 0
-322 0
-382 562 0
-382 742 0
-382 202 0
-382 -262 0
382 -562 -742 -202 262 0
-22 82 -562 0
22 562 0
-82 562 0
22 -82 -742 0
-22 742 0
82 742 0
-442 622 0
-442 802 0
-442 262 0
-442 -322 0
442 -622 -802 -262 322 0
-82 142 -622 0
82 622 0
-142 622 0
82 -142 -802 0
-82 802 0
142 802 0
982 1162 0
982 1342 0
-982 -1162 -1342 0
-82 22 -1162 0
82 1162 0
-22 1162 0
82 -22 -1342 0
-82 1342 0
22 1342 0
1042 1222 0
1042 1402 0
-1042 -1222 -1402 0
-142 82 -1222 0
142 1222 0
-82 1222 0
142 -82 -1402 0
-142 1402 0
82 1402 0
203 0
-323 0
-383 563 0
-383 743 0
-383 203 0
-383 -263 0
383 -563 -743 -203 263 0
-23 83 -563 0
23 563 0
-83 563 0
23 -83 -743 0
-23 743 0
83 743 0
-443 623 0
-443 803 0
-443 263 0
-443 -323 0
443 -623 -803 -263 323 0
-83 143 -623 0
83 623 0
-143 623 0
83 -143 -803 0
-83 803 0
143 803 0
983 1163 0
983 1343 0
-983 -1163 -1343 0
-83 23 -1163 0
83 1163 0
-23 1163 0
83 -23 -1343 0
-83 1343 0
23 1343 0
1043 1223 0
1043 1403 0
-1043 -1223 -1403 0
-143 83 -1223 0
143 1223 0
-83 1223 0
143 -83 -1403 0
-143 1403 0
83 1403 0
204 0
-324 0
-384 564 0
-384 744 0
-384 204 0
-384 -264 0
384 -564 -744 -204 264 0
-24 84 -564 0
24 564 0
-84 564 0
24 -84 -744 0
-24 744 0
84 744 0
-444 624 0
-444 804 0
-444 264 0
-444 -324 0
444 -624 -804 -264 324 0
-84 144 -624 0
84 624 0
-144 624 0
84 -144 -804 0
-84 804 0
144 804 0
984 1164 0
984 1344 0
-984 -1164 -1344 0
-84 24 -1164 0
84 1164 0
-24 1164 0
84 -24 -1344 0
-84 1344 0
24 1344 0
1044 1224 0
1044 1404 0
-1044 -1224 -1404 0
-144 84 -1224 0
144 1224 0
-84 1224 0
144 -84 -1404 0
-144 1404 0
84 1404 0
205 0
-325 0
-385 565 0
-385 745 0
-385 205 0
-385 -265 0
385 -565 -745 -205 265 0
-25 85 -565 0
25 565 0
-85 565 0
25 -85 -745 0
-25 745 0
85 745 0
-445 625 0
-445 805 0
-445 265 0
-445 -325 0
445 -625 -805 -265 325 0
-85 145 -625 0
85 625 0
-145 625 0
85 -145 -805 0
-85 805 0
145 805 0
985 1165 0
985 1345 0
-985 -1165 -1345 0
-85 25 -1165 0
85 1165 0
-25 1165 0
85 -25 -1345 0
-85 1345 0
25 1345 0
1045 1225 0
1045 1405 0
-1045 -1225 -1405 0
-145 85 -1225 0
145 1225 0
-85 1225 0
145 -85 -1405 0
-145 1405 0
85 1405 0
206 0
-326 0
-386 566 0
-386 746 0
-386 206 0
-386 -266 0
386 -566 -746 -206 266 0
-26 86 -566 0
26 566 0
-86 566 0
26 -86 -746 0
-26 746 0
86 746 0
-446 626 0
-446 806 0
-446 266 0
-446 -326 0
446 -626 -806 -266 326 0
-86 146 -626 0
86 626 0
-146 626 0
86 -146 -806 0
-86 806 0
146 806 0
986 1166 0
986 1346 0
-986 -1166 -1346 0
-86 26 -1166 0
86 1166 0
-26 1166 0
86 -26 -1346 0
-86 1346 0
26 1346 0
1046 1226 0
1046 1406 0
-1046 -1226 -1406 0
-146 86 -1226 0
146 1226 0
-86 1226 0
146 -86 -1406 0
-146 1406 0
86 1406 0
207 0
-327 0
-387 567 0
-387 747 0
-387 207 0
-387 -267 0
387 -567 -747 -207 267 0
-27 87 -567 0
27 567 0
-87 567 0
27 -87 -747 0
-27 747 0
87 747 0
-447 627 0
-447 807 0
-447 267 0
-447 -327 0
447 -627 -807 -267 327 0
-87 147 -627 0
87 627 0
-147 627 0
87 -147 -807 0
-87 807 0
147 807 0
987 1167 0
987 1347 0
-987 -1167 -1347 0
-87 27 -1167 0
87 1167 0
-27 1167 0
87 -27 -1347 0
-87 1347 0
27 1347 0
1047 1227 0
1047 1407 0
-1047 -1227 -1407 0
-147 87 -1227 0
147 1227 0
-87 1227 0
147 -87 -1407 0
-147 1407 0
87 1407 0
208 0
-328 0
-388 568 0
-388 748 0
-388 208 0
-388 -268 0
388 -568 -748 -208 268 0
-28 88 -568 0
28 568 0
-88 568 0
28 -88 -748 0
-28 748 0
88 748 0
-448 628 0
-448 808 0
-448 268 0
-448 -328 0
448 -628 -808 -268 328 0
-88 148 -628 0
88 628 0
-148 628 0
88 -148 -808 0
-88 808 0
148 808 0
988 1168 0
988 1348 0
-988 -1168 -1348 0
-88 28 -1168 0
88 1168 0
-28 1168 0
88 -28 -1348 0
-88 1348 0
28 1348 0
1048 1228 0
1048 1408 0
-1048 -1228 -1408 0
-148 88 -1228 0
148 1228 0
-88 1228 0
148 -88 -1408 0
-148 1408 0
88 1408 0
209 0
-329 0
-389 569 0
-389 749 0
-389 209 0
-389 -269 0
389 -569 -749 -209 269 0
-29 89 -569 0
29 569 0
-89 569 0
29 -89 -749 0
-29 749 0
89 749 0
-449 629 0
-449 809 0
-449 269 0
-449 -329 0
449 -629 -809 -269 329 0
-89 149 -629 0
89 629 0
-149 629 0
89 -149 -809 0
-89 809 0
149 809 0
989 1169 0
989 1349 0
-989 -1169 -1349 0
-89 29 -1169 0
89 1169 0
-29 1169 0
89 -29 -1349 0
-89 1349 0
29 1349 0
1049 1229 0
1049 1409 0
-1049 -1229 -1409 0
-149 89 -1229 0
149 1229 0
-89 1229 0
149 -89 -1409 0
-149 1409 0
89 1409 0
210 0
-330 0
-390 570 0
-390 750 0
-390 210 0
-390 -270 0
390 -570 -750 -210 270 0
-30 90 -570 0
30 570 0
-90 570 0
30 -90 -750 0
-30 750 0
90 750 0
-450 630 0
-450 810 0
-450 270 0
-450 -330 0
450 -630 -810 -270 330 0
-90 150 -630 0
90 630 0
-150 630 0
90 -150 -810 0
-90 810 0
150 810 0
990 1170 0
990 1350 0
-990 -1170 -1350 0
-90 30 -1170 0
90 1170 0
-30 1170 0
90 -30 -1350 0
-90 1350 0
30 1350 0
1050 1230 0
1050 1410 0
-1050 -1230 -1410 0
-150 90 -1230 0
150 1230 0
-90 1230 0
150 -90 -1410 0
-150 1410 0
90 1410 0
211 0
-331 0
-391 571 0
-391 751 0
-391 211 0
-391 -271 0
391 -571 -751 -211 271 0
-31 91 -571 0
31 571 0
-91 571 0
31 -91 -751 0
-31 751 0
91 751 0
-451 631 0
-451 811 0
-451 271 0
-451 -331 0
451 -631 -811 -271 331 0
-91 151 -631 0
91 631 0
-151 631 0
91 -151 -811 0
-91 811 0
151 811 0
991 1171 0
991 1351 0
-991 -1171 -1351 0
-91 31 -1171 0
91 1171 0
-31 1171 0
91 -31 -1351 0
-91 1351 0
31 1351 0
1051 1231 0
1051 1411 0
-1051 -1231 -1411 0
-151 91 -1231 0
151 1231 0
-91 1231 0
151 -91 -1411 0
-151 1411 0
91 1411 0
212 0
-332 0
-392 572 0
-392 752 0
-392 212 0
-392 -272 0
392 -572 -752 -212 272 0
-32 92 -572 0
32 572 0
-92 572 0
32 -92 -752 0
-32 752 0
92 752 0
-452 632 0
-452 812 0
-452 272 0
-452 -332 0
452 -632 -812 -272 332 0
-92 152 -632 0
92 632 0
-152 632 0
92 -152 -812 0
-92 812 0
152 812 0
992 1172 0
992 1352 0
-992 -1172 -1352 0
-92 32 -1172 0
92 1172 0
-32 1172 0
92 -32 -1352 0
-92 1352 0
32 1352 0
1052 1232 0
1052 1412 0
-1052 -1232 -1412 0
-152 92 -1232 0
152 1232 0
-92 1232 0
152 -92 -1412 0
-152 1412 0
92 1412 0
213 0
-333 0
-393 573 0
-393 753 0
-393 213 0
-393 -273 0
393 -573 -753 -213 273 0
-33 93 -573 0
33 573 0
-93 573 0
33 -93 -753 0
-33 753 0
93 753 0
-453 633 0
-453 813 0
-453 273 0
-453 -333 0
453 -633 -813 -273 333 0
-93 153 -633 0
93 633 0
-153 633 0
93 -153 -813 0
-93 813 0
153 813 0
993 1173 0
993 1353 0
-993 -1173 -1353 0
-93 33 -1173 0
93 1173 0
-33 1173 0
93 -33 -1353 0
-93 1353 0
33 1353 0
1053 1233 0
1053 1413 0
-1053 -1233 -1413 0
-153 93 -1233 0
153 1233 0
-93 1233 0
153 -93 -1413 0
-153 1413 0
93 1413 0
214 0
-334 0
-394 574 0
-394 754 0
-394 214 0
-394 -274 0
394 -574 -754 -214 274 0
-34 94 -574 0
34 574 0
-94 574 0
34 -94 -754 0
-34 754 0
94 754 0
-454 634 0
-454 814 0
-454 274 0
-454 -334 0
454 -634 -814 -274 334 0
-94 154 -634 0
94 634 0
-154 634 0
94 -154 -814 0
-94 814 0
154 814 0
994 1174 0
994 1354 0
-994 -1174 -1354 0
-94 34 -1174 0
94 1174 0
-34 1174 0
94 -34 -1354 0
-94 1354 0
34 1354 0
1054 1234 0
1054 1414 0
-1054 -1234 -1414 0
-154 94 -1234 0
154 1234 0
-94 1234 0
154 -94 -1414 0
-154 1414 0
94 1414 0
215 0
-335 0
-395 575 0
-395 755 0
-395 215 0
-395 -275 0
395 -575 -755 -215 275 0
-35 95 -575 0
35 575 0
-95 575 0
35 -95 -755 0
-35 755 0
95 755 0
-455 635 0
-455 815 0
-455 275 0
-455 -335 0
455 -635 -815 -275 335 0
-95 155 -635 0
95 635 0
-155 635 0
95 -155 -815 0
-95 815 0
155 815 0
995 1175 0
995 1355 0
-995 -1175 -1355 0
-95 35 -1175 0
95 1175 0
-35 1175 0
95 -35 -1355 0
-95 1355 0
35 1355 0
1055 1235 0
1055 1415 0
-1055 -1235 -1415 0
-155 95 -1235 0
155 1235 0
-95 1235 0
155 -95 -1415 0
-155 1415 0
95 1415 0
216 0
-336 0
-396 576 0
-396 756 0
-396 216 0
-396 -276 0
396 -576 -756 -216 276 0
-36 96 -576 0
36 576 0
-96 576 0
36 -96 -756 0
-36 756 0
96 756 0
-456 636 0
-456 816 0
-456 276 0
-456 -336 0
456 -636 -816 -276 336 0
-96 156 -636 0
96 636 0
-156 636 0
96 -156 -816 0
-96 816 0
156 816 0
996 1176 0
996 1356 0
-996 -1176 -1356 0
-96 36 -1176 0
96 1176 0
-36 1176 0
96 -36 -1356 0
-96 1356 0
36 1356 0
1056 1236 0
1056 1416 0
-1056 -1236 -1416 0
-156 96 -1236 0
156 1236 0
-96 1236 0
156 -96 -1416 0
-156 1416 0
96 1416 0
217 0
-337 0
-397 577 0
-397 757 0
-397 217 0
-397 -277 0
397 -577 -757 -217 277 0
-37 97 -577 0
37 577 0
-97 577 0
37 -97 -757 0
-37 757 0
97 757 0
-457 637 0
-457 817 0
-457 277 0
-457 -337 0
457 -637 -817 -277 337 0
-97 157 -637 0
97 637 0
-157 637 0
97 -157 -817 0
-97 817 0
157 817 0
997 1177 0
997 1357 0
-997 -1177 -1357 0
-97 37 -1177 0
97 1177 0
-37 1177 0
97 -37 -1357 0
-97 1357 0
37 1357 0
1057 1237 0
1057 1417 0
-1057 -1237 -1417 0
-157 97 -1237 0
157 1237 0
-97 1237 0
157 -97 -1417 0
-157 1417 0
97 1417 0
218 0
-338 0
-398 578 0
-398 758 0
-398 218 0
-398 -278 0
398 -578 -758 -218 278 0
-38 98 -578 0
38 578 0
-98 578 0
38 -98 -758 0
-38 758 0
98 758 0
-458 638 0
-458 818 0
-458 278 0
-458 -338 0
458 -638 -818 -278 338 0
-98 158 -638 0
98 638 0
-158 638 0
98 -158 -818 0
-98 818 0
158 818 0
998 1178 0
998 1358 0
-998 -1178 -1358 0
-98 38 -1178 0
98 1178 0
-38 1178 0
98 -38 -1358 0
-98 1358 0
38 1358 0
1058 1238 0
1058 1418 0
-1058 -1238 -1418 0
-158 98 -1238 0
158 1238 0
-98 1238 0
158 -98 -1418 0
-158 1418 0
98 1418 0
219 0
-339 0
-399 579 0
-399 759 0
-399 219 0
-399 -279 0
399 -579 -759 -219 279 0
-39 99 -579 0
39 579 0
-99 579 0
39 -99 -759 0
-39 759 0
99 759 0
-459 639 0
-459 819 0
-459 279 0
-459 -339 0
459 -639 -819 -279 339 0
-99 159 -639 0
99 639 0
-159 639 0
99 -159 -819 0
-99 819 0
159 819 0
999 1179 0
999 1359 0
-999 -1179 -1359 0
-99 39 -1179 0
99 1179 0
-39 1179 0
99 -39 -1359 0
-99 1359 0
39 1359 0
1059 1239 0
1059 1419 0
-1059 -1239 -1419 0
-159 99 -1239 0
159 1239 0
-99 1239 0
159 -99 -1419 0
-159 1419 0
99 1419 0
220 0
-340 0
-400 580 0
-400 760 0
-400 220 0
-400 -280 0
400 -580 -760 -220 280 0
-40 100 -580 0
40 580 0
-100 580 0
40 -100 -760 0
-40 760 0
100 760 0
-460 640 0
-460 820 0
-460 280 0
-460 -340 0
460 -640 -820 -280 340 0
-100 160 -640 0
100 640 0
-160 640 0
100 -160 -820 0
-100 820 0
160 820 0
1000 1180 0
1000 1360 0
-1000 -1180 -1360 0
-100 40 -1180 0
100 1180 0
-40 1180 0
100 -40 -1360 0
-100 1360 0
40 1360 0
1060 1240 0
1060 1420 0
-1060 -1240 -1420 0
-160 100 -1240 0
160 1240 0
-100 1240 0
160 -100 -1420 0
-160 1420 0
100 1420 0
221 0
-341 0
-401 581 0
-401 761 0
-401 221 0
-401 -281 0
401 -581 -761 -221 281 0
-41 101 -581 0
41 581 0
-101 581 0
41 -101 -761 0
-41 761 0
101 761 0
-461 641 0
-461 821 0
-461 281 0
-461 -341 0
461 -641 -821 -281 341 0
-101 161 -641 0
101 641 0
-161 641 0
101 -161 -821 0
-101 821 0
161 821 0
1001 1181 0
1001 1361 0
-1001 -1181 -1361 0
-101 41 -1181 0
101 1181 0
-41 1181 0
101 -41 -1361 0
-101 1361 0
41 1361 0
1061 1241 0
1061 1421 0
-1061 -1241 -1421 0
-161 101 -1241 0
161 1241 0
-101 1241 0
161 -101 -1421 0
-161 1421 0
101 1421 0
222 0
-342 0
-402 582 0
-402 762 0
-402 222 0
-402 -282 0
402 -582 -762 -222 282 0
-42 102 -582 0
42 582 0
-102 582 0
42 -102 -762 0
-42 762 0
102 762 0
-462 642 0
-462 822 0
-462 282 0
-462 -342 0
462 -642 -822 -282 342 0
-102 162 -642 0
102 642 0
-162 642 0
102 -162 -822 0
-102 822 0
162 822 0
1002 1182 0
1002 1362 0
-1002 -1182 -1362 0
-102 42 -1182 0
102 1182 0
-42 1182 0
102 -42 -1362 0
-102 1362 0
42 1362 0
1062 1242 0
1062 1422 0
-1062 -1242 -1422 0
-162 102 -1242 0
162 1242 0
-102 1242 0
162 -102 -1422 0
-162 1422 0
102 1422 0
223 0
-343 0
-403 583 0
-403 763 0
-403 223 0
-403 -283 0
403 -583 -763 -223 283 0
-43 103 -583 0
43 583 0
-103 583 0
43 -103 -763 0
-43 763 0
103 763 0
-463 643 0
-463 823 0
-463 283 0
-463 -343 0
463 -643 -823 -283 343 0
-103 163 -643 0
103 643 0
-163 643 0
103 -163 -823 0
-103 823 0
163 823 0
1003 1183 0
1003 1363 0
-1003 -1183 -1363 0
-103 43 -1183 0
103 1183 0
-43 1183 0
103 -43 -1363 0
-103 1363 0
43 1363 0
1063 1243 0
1063 1423 0
-1063 -1243 -1423 0
-163 103 -1243 0
163 1243 0
-103 1243 0
163 -103 -1423 0
-163 1423 0
103 1423 0
224 0
-344 0
-404 584 0
-404 764 0
-404 224 0
-404 -284 0
404 -584 -764 -224 284 0
-44 104 -584 0
44 584 0
-104 584 0
44 -104 -764 0
-44 764 0
104 764 0
-464 644 0
-464 824 0
-464 284 0
-464 -344 0
464 -644 -824 -284 344 0
-104 164 -644 0
104 644 0
-164 644 0
104 -164 -824 0
-104 824 0
164 824 0
1004 1184 0
1004 1364 0
-1004 -1184 -1364 0
-104 44 -1184 0
104 1184 0
-44 1184 0
104 -44 -1364 0
-104 1364 0
44 1364 0
1064 1244 0
1064 1424 0
-1064 -1244 -1424 0
-164 104 -1244 0
164 1244 0
-104 1244 0
164 -104 -1424 0
-164 1424 0
104 1424 0
225 0
-345 0
-405 585 0
-405 765 0
-405 225 0
-405 -285 0
405 -585 -765 -225 285 0
-45 105 -585 0
45 585 0
-105 585 0
45 -105 -765 0
-45 765 0
105 765 0
-465 645 0
-465 825 0
-465 285 0
-465 -345 0
465 -645 -825 -285 345 0
-105 165 -645 0
105 645 0
-165 645 0
105 -165 -825 0
-105 825 0
165 825 0
1005 1185 0
1005 1365 0
-1005 -1185 -1365 0
-105 45 -1185 0
105 1185 0
-45 1185 0
105 -45 -1365 0
-105 1365 0
45 1365 0
1065 1245 0
1065 1425 0
-1065 -1245 -1425 0
-165 105 -1245 0
165 1245 0
-105 1245 0
165 -105 -1425 0
-165 1425 0
105 1425 0
226 0
-346 0
-406 586 0
-406 766 0
-406 226 0
-406 -286 0
406 -586 -766 -226 286 0
-46 106 -586 0
46 586 0
-106 586 0
46 -106 -766 0
-46 766 0
106 766 0
-466 646 0
-466 826 0
-466 286 0
-466 -346 0
466 -646 -826 -286 346 0
-106 166 -646 0
106 646 0
-166 646 0
106 -166 -826 0
-106 826 0
166 826 0
1006 1186 0
1006 1366 0
-1006 -1186 -1366 0
-106 46 -1186 0
106 1186 0
-46 1186 0
106 -46 -1366 0
-106 1366 0
46 1366 0
1066 1246 0
1066 1426 0
-1066 -1246 -1426 0
-166 106 -1246 0
166 1246 0
-106 1246 0
166 -106 -1426 0
-166 1426 0
106 1426 0
227 0
-347 0
-407 587 0
-407 767 0
-407 227 0
-407 -287 0
407 -587 -767 -227 287 0
-47 107 -587 0
47 587 0
-107 587 0
47 -107 -767 0
-47 767 0
107 767 0
-467 647 0
-467 827 0
-467 287 0
-467 -347 0
467 -647 -827 -287 347 0
-107 167 -647 0
107 647 0
-167 647 0
107 -167 -827 0
-107 827 0
167 827 0
1007 1187 0
1007 1367 0
-1007 -1187 -1367 0
-107 47 -1187 0
107 1187 0
-47 1187 0
107 -47 -1367 0
-107 1367 0
47 1367 0
1067 1247 0
1067 1427 0
-1067 -1247 -1427 0
-167 107 -1247 0
167 1247 0
-107 1247 0
167 -107 -1427 0
-167 1427 0
107 1427 0
228 0
-348 0
-408 588 0
-408 768 0
-408 228 0
-408 -288 0
408 -588 -768 -228 288 0
-48 108 -588 0
48 588 0
-108 588 0
48 -108 -768 0
-48 768 0
108 768 0
-468 648 0
-468 828 0
-468 288 0
-468 -348 0
468 -648 -828 -288 348 0
-108 168 -648 0
108 648 0
-168 648 0
108 -168 -828 0
-108 828 0
168 828 0
1008 1188 0
1008 1368 0
-1008 -1188 -1368 0
-108 48 -1188 0
108 1188 0
-48 1188 0
108 -48 -1368 0
-108 1368 0
48 1368 0
1068 1248 0
1068 1428 0
-1068 -1248 -1428 0
-168 108 -1248 0
168 1248 0
-108 1248 0
168 -108 -1428 0
-168 1428 0
108 1428 0
229 0
-349 0
-409 589 0
-409 769 0
-409 229 0
-409 -289 0
409 -589 -769 -229 289 0
-49 109 -589 0
49 589 0
-109 589 0
49 -109 -769 0
-49 769 0
109 769 0
-469 649 0
-469 829 0
-469 289 0
-469 -349 0
469 -649 -829 -289 349 0
-109 169 -649 0
109 649 0
-169 649 0
109 -169 -829 0
-109 829 0
169 829 0
1009 1189 0
1009 1369 0
-1009 -1189 -1369 0
-109 49 -1189 0
109 1189 0
-49 1189 0
109 -49 -1369 0
-109 1369 0
49 1369 0
1069 1249 0
1069 1429 0
-1069 -1249 -1429 0
-169 109 -1249 0
169 1249 0
-109 1249 0
169 -109 -1429 0
-169 1429 0
109 1429 0
230 0
-350 0
-410 590 0
-410 770 0
-410 230 0
-410 -290 0
410 -590 -770 -230 290 0
-50 110 -590 0
50 590 0
-110 590 0
50 -110 -770 0
-50 770 0
110 770 0
-470 650 0
-470 830 0
-470 290 0
-470 -350 0
470 -650 -830 -290 350 0
-110 170 -650 0
110 650 0
-170 650 0
110 -170 -830 0
-110 830 0
170 830 0
1010 1190 0
1010 1370 0
-1010 -1190 -1370 0
-110 50 -1190 0
110 1190 0
-50 1190 0
110 -50 -1370 0
-110 1370 0
50 1370 0
1070 1250 0
1070 1430 0
-1070 -1250 -1430 0
-170 110 -1250 0
170 1250 0
-110 1250 0
170 -110 -1430 0
-170 1430 0
110 1430 0
231 0
-351 0
-411 591 0
-411 771 0
-411 231 0
-411 -291 0
411 -591 -771 -231 291 0
-51 111 -591 0
51 591 0
-111 591 0
51 -111 -771 0
-51 771 0
111 771 0
-471 651 0
-471 831 0
-471 291 0
-471 -351 0
471 -651 -831 -291 351 0
-111 171 -651 0
111 651 0
-171 651 0
111 -171 -831 0
-111 831 0
171 831 0
1011 1191 0
1011 1371 0
-1011 -1191 -1371 0
-111 51 -1191 0
111 1191 0
-51 1191 0
111 -51 -1371 0
-111 1371 0
51 1371 0
1071 1251 0
1071 1431 0
-1071 -1251 -1431 0
-171 111 -1251 0
171 1251 0
-111 1251 0
171 -111 -1431 0
-171 1431 0
111 1431 0
232 0
-352 0
-412 592 0
-412 772 0
-412 232 0
-412 -292 0
412 -592 -772 -232 292 0
-52 112 -592 0
52 592 0
-112 592 0
52 -112 -772 0
-52 772 0
112 772 0
-472 652 0
-472 832 0
-472 292 0
-472 -352 0
472 -652 -832 -292 352 0
-112 172 -652 0
112 652 0
-172 652 0
112 -172 -832 0
-112 832 0
172 832 0
1012 1192 0
1012 1372 0
-1012 -1192 -1372 0
-112 52 -1192 0
112 1192 0
-52 1192 0
112 -52 -1372 0
-112 1372 0
52 1372 0
1072 1252 0
1072 1432 0
-1072 -1252 -1432 0
-172 112 -1252 0
172 1252 0
-112 1252 0
172 -112 -1432 0
-172 1432 0
112 1432 0
233 0
-353 0
-413 593 0
-413 773 0
-413 233 0
-413 -293 0
413 -593 -773 -233 293 0
-53 113 -593 0
53 593 0
-113 593 0
53 -113 -773 0
-53 773 0
113 773 0
-473 653 0
-473 833 0
-473 293 0
-473 -353 0
473 -653 -833 -293 353 0
-113 173 -653 0
113 653 0
-173 653 0
113 -173 -833 0
-113 833 0
173 833 0
1013 1193 0
1013 1373 0
-1013 -1193 -1373 0
-113 53 -1193 0
113 1193 0
-53 1193 0
113 -53 -1373 0
-113 1373 0
53 1373 0
1073 1253 0
1073 1433 0
-1073 -1253 -1433 0
-173 113 -1253 0
173 1253 0
-113 1253 0
173 -113 -1433 0
-173 1433 0
113 1433 0
234 0
-354 0
-414 594 0
-414 774 0
-414 234 0
-414 -294 0
414 -594 -774 -234 294 0
-54 114 -594 0
54 594 0
-114 594 0
54 -114 -774 0
-54 774 0
114 774 0
-474 654 0
-474 834 0
-474 294 0
-474 -354 0
474 -654 -834 -294 354 0
-114 174 -654 0
114 654 0
-174 654 0
114 -174 -834 0
-114 834 0
174 834 0
1014 1194 0
1014 1374 0
-1014 -1194 -1374 0
-114 54 -1194 0
114 1194 0
-54 1194 0
114 -54 -1374 0
-114 1374 0
54 1374 0
1074 1254 0
1074 1434 0
-1074 -1254 -1434 0
-174 114 -1254 0
174 1254 0
-114 1254 0
174 -114 -1434 0
-174 1434 0
114 1434 0
235 0
-355 0
-415 595 0
-415 775 0
-415 235 0
-415 -295 0
415 -595 -775 -235 295 0
-55 115 -595 0
55 595 0
-115 595 0
55 -115 -775 0
-55 775 0
115 775 0
-475 655 0
-475 835 0
-475 295 0
-475 -355 0
475 -655 -835 -295 355 0
-115 175 -655 0
115 655 0
-175 655 0
115 -175 -835 0
-115 835 0
175 835 0
1015 1195 0
1015 1375 0
-1015 -1195 -1375 0
-115 55 -1195 0
115 1195 0
-55 1195 0
115 -55 -1375 0
-115 1375 0
55 1375 0
1075 1255 0
1075 1435 0
-1075 -1255 -1435 0
-175 115 -1255 0
175 1255 0
-115 1255 0
175 -115 -1435 0
-175 1435 0
115 1435 0
236 0
-356 0
-416 596 0
-416 776 0
-416 236 0
-416 -296 0
416 -596 -776 -236 296 0
-56 116 -596 0
56 596 0
-116 596 0
56 -116 -776 0
-56 776 0
116 776 0
-476 656 0
-476 836 0
-476 296 0
-476 -356 0
476 -656 -836 -296 356 0
-116 176 -656 0
116 656 0
-176 656 0
116 -176 -836 0
-116 836 0
176 836 0
1016 1196 0
1016 1376 0
-1016 -1196 -1376 0
-116 56 -1196 0
116 1196 0
-56 1196 0
116 -56 -1376 0
-116 1376 0
56 1376 0
1076 1256 0
1076 1436 0
-1076 -1256 -1436 0
-176 116 -1256 0
176 1256 0
-116 1256 0
176 -116 -1436 0
-176 1436 0
116 1436 0
237 0
-357 0
-417 597 0
-417 777 0
-417 237 0
-417 -297 0
417 -597 -777 -237 297 0
-57 117 -597 0
57 597 0
-117 597 0
57 -117 -777 0
-57 777 0
117 777 0
-477 657 0
-477 837 0
-477 297 0
-477 -357 0
477 -657 -837 -297 357 0
-117 177 -657 0
117 657 0
-177 657 0
117 -177 -837 0
-117 837 0
177 837 0
1017 1197 0
1017 1377 0
-1017 -1197 -1377 0
-117 57 -1197 0
117 1197 0
-57 1197 0
117 -57 -1377 0
-117 1377 0
57 1377 0
1077 1257 0
1077 1437 0
-1077 -1257 -1437 0
-177 117 -1257 0
177 1257 0
-117 1257 0
177 -117 -1437 0
-177 1437 0
117 1437 0
238 0
-358 0
-418 598 0
-418 778 0
-418 238 0
-418 -298 0
418 -598 -778 -238 298 0
-58 118 -598 0
58 598 0
-118 598 0
58 -118 -778 0
-58 778 0
118 778 0
-478 658 0
-478 838 0
-478 298 0
-478 -358 0
478 -658 -838 -298 358 0
-118 178 -658 0
118 658 0
-178 658 0
118 -178 -838 0
-118 838 0
178 838 0
1018 1198 0
1018 1378 0
-1018 -1198 -1378 0
-118 58 -1198 0
118 1198 0
-58 1198 0
118 -58 -1378 0
-118 1378 0
58 1378 0
1078 1258 0
1078 1438 0
-1078 -1258 -1438 0
-178 118 -1258 0
178 1258 0
-118 1258 0
178 -118 -1438 0
-178 1438 0
118 1438 0
239 0
-359 0
-419 599 0
-419 779 0
-419 239 0
-419 -299 0
419 -599 -779 -239 299 0
-59 119 -599 0
59 599 0
-119 599 0
59 -119 -779 0
-59 779 0
119 779 0
-479 659 0
-479 839 0
-479 299 0
-479 -359 0
479 -659 -839 -299 359 0
-119 179 -659 0
119 659 0
-179 659 0
119 -179 -839 0
-119 839 0
179 839 0
1019 1199 0
1019 1379 0
-1019 -1199 -1379 0
-119 59 -1199 0
119 1199 0
-59 1199 0
119 -59 -1379 0
-119 1379 0
59 1379 0
1079 1259 0
1079 1439 0
-1079 -1259 -1439 0
-179 119 -1259 0
179 1259 0
-119 1259 0
179 -119 -1439 0
-179 1439 0
119 1439 0
240 0
-360 0
-420 600 0
-420 780 0
-420 240 0
-420 -300 0
420 -600 -780 -240 300 0
-60 120 -600 0
60 600 0
-120 600 0
60 -120 -780 0
-60 780 0
120 780 0
-480 660 0
-480 840 0
-480 300 0
-480 -360 0
480 -660 -840 -300 360 0
-120 180 -660 0
120 660 0
-180 660 0
120 -180 -840 0
-120 840 0
180 840 0
1020 1200 0
1020 1380 0
-1020 -1200 -1380 0
-120 60 -1200 0
120 1200 0
-60 1200 0
120 -60 -1380 0
-120 1380 0
60 1380 0
1080 1260 0
1080 1440 0
-1080 -1260 -1440 0
-180 120 -1260 0
180 1260 0
-120 1260 0
180 -120 -1440 0
-180 1440 0
120 1440 0
-1921 1021 0
1921 -1021 0
-1801 361 0
1801 -361 0
-1922 1022 0
1922 -1022 0
-1802 362 0
1802 -362 0
-1923 1023 0
1923 -1023 0
-1803 363 0
1803 -363 0
-1924 1024 0
1924 -1024 0
-1804 364 0
1804 -364 0
-1925 1025 0
1925 -1025 0
-1805 365 0
1805 -365 0
-1926 1026 0
1926 -1026 0
-1806 366 0
1806 -366 0
-1927 1027 0
1927 -1027 0
-1807 367 0
1807 -367 0
-1928 1028 0
1928 -1028 0
-1808 368 0
1808 -368 0
-1929 1029 0
1929 -1029 0
-1809 369 0
1809 -369 0
-1930 1030 0
1930 -1030 0
-1810 370 0
1810 -370 0
-1931 1031 0
1931 -1031 0
-1811 371 0
1811 -371 0
-1932 1032 0
1932 -1032 0
-1812 372 0
1812 -372 0
-1933 1033 0
1933 -1033 0
-1813 373 0
1813 -373 0
-1934 1034 0
1934 -1034 0
-1814 374 0
1814 -374 0
-1935 1035 0
1935 -1035 0
-1815 375 0
1815 -375 0
-1936 1036 0
1936 -1036 0
-1816 376 0
1816 -376 0
-1937 1037 0
1937 -1037 0
-1817 377 0
1817 -377 0
-1938 1038 0
1938 -1038 0
-1818 378 0
1818 -378 0
-1939 1039 0
1939 -1039 0
-1819 379 0
1819 -379 0
-1940 1040 0
1940 -1040 0
-1820 380 0
1820 -380 0
-1941 1041 0
1941 -1041 0
-1821 381 0
1821 -381 0
-1942 1042 0
1942 -1042 0
-1822 382 0
1822 -382 0
-1943 1043 0
1943 -1043 0
-1823 383 0
1823 -383 0
-1944 1044 0
1944 -1044 0
-1824 384 0
1824 -384 0
-1945 1045 0
1945 -1045 0
-1825 385 0
1825 -385 0
-1946 1046 0
1946 -1046 0
-1826 386 0
1826 -386 0
-1947 1047 0
1947 -1047 0
-1827 387 0
1827 -387 0
-1948 1048 0
1948 -1048 0
-1828 388 0
1828 -388 0
-1949 1049 0
1949 -1049 0
-1829 389 0
1829 -389 0
-1950 1050 0
1950 -1050 0
-1830 390 0
1830 -390 0
-1951 1051 0
1951 -1051 0
-1831 391 0
1831 -391 0
-1952 1052 0
1952 -1052 0
-1832 392 0
1832 -392 0
-1953 1053 0
1953 -1053 0
-1833 393 0
1833 -393 0
-1954 1054 0
1954 -1054 0
-1834 394 0
1834 -394 0
-1955 1055 0
1955 -1055 0
-1835 395 0
1835 -395 0
-1956 1056 0
1956 -1056 0
-1836 396 0
1836 -396 0
-1957 1057 0
1957 -1057 0
-1837 397 0
1837 -397 0
-1958 1058 0
1958 -1058 0
-1838 398 0
1838 -398 0
-1959 1059 0
1959 -1059 0
-1839 399 0
1839 -399 0
-1960 1060 0
1960 -1060 0
-1840 400 0
1840 -400 0
-1961 1061 0
1961 -1061 0
-1841 401 0
1841 -401 0
-1962 1062 0
1962 -1062 0
-1842 402 0
1842 -402 0
-1963 1063 0
1963 -1063 0
-1843 403 0
1843 -403 0
-1964 1064 0
1964 -1064 0
-1844 404 0
1844 -404 0
-1965 1065 0
1965 -1065 0
-1845 405 0
1845 -405 0
-1966 1066 0
1966 -1066 0
-1846 406 0
1846 -406 0
-1967 1067 0
1967 -1067 0
-1847 407 0
1847 -407 0
-1968 1068 0
1968 -1068 0
-1848 408 0
1848 -408 0
-1969 1069 0
1969 -1069 0
-1849 409 0
1849 -409 0
-1970 1070 0
1970 -1070 0
-1850 410 0
1850 -410 0
-1971 1071 0
1971 -1071 0
-1851 411 0
1851 -411 0
-1972 1072 0
1972 -1072 0
-1852 412 0
1852 -412 0
-1973 1073 0
1973 -1073 0
-1853 413 0
1853 -413 0
-1974 1074 0
1974 -1074 0
-1854 414 0
1854 -414 0
-1975 1075 0
1975 -1075 0
-1855 415 0
1855 -415 0
-1976 1076 0
1976 -1076 0
-1856 416 0
1856 -416 0
-1977 1077 0
1977 -1077 0
-1857 417 0
1857 -417 0
-1978 1078 0
1978 -1078 0
-1858 418 0
1858 -418 0
-1979 1079 0
1979 -1079 0
-1859 419 0
1859 -419 0
-1980 1080 0
1980 -1080 0
-1860 420 0
1860 -420 0
-1861 961 421 0
1861 -961 0
1861 -421 0
-1862 962 422 0
1862 -962 0
1862 -422 0
-1863 963 423 0
1863 -963 0
1863 -423 0
-1864 964 424 0
1864 -964 0
1864 -424 0
-1865 965 425 0
1865 -965 0
1865 -425 0
-1866 966 426 0
1866 -966 0
1866 -426 0
-1867 967 427 0
1867 -967 0
1867 -427 0
-1868 968 428 0
1868 -968 0
1868 -428 0
-1869 969 429 0
1869 -969 0
1869 -429 0
-1870 970 430 0
1870 -970 0
1870 -430 0
-1871 971 431 0
1871 -971 0
1871 -431 0
-1872 972 432 0
1872 -972 0
1872 -432 0
-1873 973 433 0
1873 -973 0
1873 -433 0
-1874 974 434 0
1874 -974 0
1874 -434 0
-1875 975 435 0
1875 -975 0
1875 -435 0
-1876 976 436 0
1876 -976 0
1876 -436 0
-1877 977 437 0
1877 -977 0
1877 -437 0
-1878 978 438 0
1878 -978 0
1878 -438 0
-1879 979 439 0
1879 -979 0
1879 -439 0
-1880 980 440 0
1880 -980 0
1880 -440 0
-1881 981 441 0
1881 -981 0
1881 -441 0
-1882 982 442 0
1882 -982 0
1882 -442 0
-1883 983 443 0
1883 -983 0
1883 -443 0
-1884 984 444 0
1884 -984 0
1884 -444 0
-1885 985 445 0
1885 -985 0
1885 -445 0
-1886 986 446 0
1886 -986 0
1886 -446 0
-1887 987 447 0
1887 -987 0
1887 -447 0
-1888 988 448 0
1888 -988 0
1888 -448 0
-1889 989 449 0
1889 -989 0
1889 -449 0
-1890 990 450 0
1890 -990 0
1890 -450 0
-1891 991 451 0
1891 -991 0
1891 -451 0
-1892 992 452 0
1892 -992 0
1892 -452 0
-1893 993 453 0
1893 -993 0
1893 -453 0
-1894 994 454 0
1894 -994 0
1894 -454 0
-1895 995 455 0
1895 -995 0
1895 -455 0
-1896 996 456 0
1896 -996 0
1896 -456 0
-1897 997 457 0
1897 -997 0
1897 -457 0
-1898 998 458 0
1898 -998 0
1898 -458 0
-1899 999 459 0
1899 -999 0
1899 -459 0
-1900 1000 460 0
1900 -1000 0
1900 -460 0
-1901 1001 461 0
1901 -1001 0
1901 -461 0
-1902 1002 462 0
1902 -1002 0
1902 -462 0
-1903 1003 463 0
1903 -1003 0
1903 -463 0
-1904 1004 464 0
1904 -1004 0
1904 -464 0
-1905 1005 465 0
1905 -1005 0
1905 -465 0
-1906 1006 466 0
1906 -1006 0
1906 -466 0
-1907 1007 467 0
1907 -1007 0
1907 -467 0
-1908 1008 468 0
1908 -1008 0
1908 -468 0
-1909 1009 469 0
1909 -1009 0
1909 -469 0
-1910 1010 470 0
1910 -1010 0
1910 -470 0
-1911 1011 471 0
1911 -1011 0
1911 -471 0
-1912 1012 472 0
1912 -1012 0
1912 -472 0
-1913 1013 473 0
1913 -1013 0
1913 -473 0
-1914 1014 474 0
1914 -1014 0
1914 -474 0
-1915 1015 475 0
1915 -1015 0
1915 -475 0
-1916 1016 476 0
1916 -1016 0
1916 -476 0
-1917 1017 477 0
1917 -1017 0
1917 -477 0
-1918 1018 478 0
1918 -1018 0
1918 -478 0
-1919 1019 479 0
1919 -1019 0
1919 -479 0
-1920 1020 480 0
1920 -1020 0
1920 -480 0
1981 2041 2101 0
-1441 361 0
-1501 421 0
-1681 961 0
-1741 1021 0
-1681 -1501 0
-2041 1681 1501 0
2041 -1681 0
2041 -1501 0
-2101 1741 0
2101 -1741 0
-1981 1441 0
1981 -1441 0
1982 2042 2102 0
-1442 362 0
-1502 422 0
-1682 962 0
-1742 1022 0
-1682 -1502 0
-2042 1682 1502 0
2042 -1682 0
2042 -1502 0
-2102 1742 0
2102 -1742 0
-1982 1442 0
1982 -1442 0
1983 2043 2103 0
-1443 363 0
-1503 423 0
-1683 963 0
-1743 1023 0
-1683 -1503 0
-2043 1683 1503 0
2043 -1683 0
2043 -1503 0
-2103 1743 0
2103 -1743 0
-1983 1443 0
1983 -1443 0
1984 2044 2104 0
-1444 364 0
-1504 424 0
-1684 964 0
-1744 1024 0
-1684 -1504 0
-2044 1684 1504 0
2044 -1684 0
2044 -1504 0
-2104 1744 0
2104 -1744 0
-1984 1444 0
1984 -1444 0
1985 2045 2105 0
-1445 365 0
-1505 425 0
-1685 965 0
-1745 1025 0
-1685 -1505 0
-2045 1685 1505 0
2045 -1685 0
2045 -1505 0
-2105 1745 0
2105 -1745 0
-1985 1445 0
1985 -1445 0
1986 2046 2106 0
-1446 366 0
-1506 426 0
-1686 966 0
-1746 1026 0
-1686 -1506 0
-2046 1686 1506 0
2046 -1686 0
2046 -1506 0
-2106 1746 0
2106 -1746 0
-1986 1446 0
1986 -1446 0
1987 2047 2107 0
-1447 367 0
-1507 427 0
-1687 967 0
-1747 1027 0
-1687 -1507 0
-2047 1687 1507 0
2047 -1687 0
2047 -1507 0
-2107 1747 0
2107 -1747 0
-1987 1447 0
1987 -1447 0
1988 2048 2108 0
-1448 368 0
-1508 428 0
-1688 968 0
-1748 1028 0
-1688 -1508 0
-2048 1688 1508 0
2048 -1688 0
2048 -1508 0
-2108 1748 0
2108 -1748 0
-1988 1448 0
1988 -1448 0
1989 2049 2109 0
-1449 369 0
-1509 429 0
-1689 969 0
-1749 1029 0
-1689 -1509 0
-2049 1689 1509 0
2049 -1689 0
2049 -1509 0
-2109 1749 0
2109 -1749 0
-1989 1449 0
1989 -1449 0
1990 2050 2110 0
-1450 370 0
-1510 430 0
-1690 970 0
-1750 1030 0
-1690 -1510 0
-2050 1690 1510 0
2050 -1690 0
2050 -1510 0
-2110 1750 0
2110 -1750 0
-1990 1450 0
1990 -1450 0
1991 2051 2111 0
-1451 371 0
-1511 431 0
-1691 971 0
-1751 1031 0
-1691 -1511 0
-2051 1691 1511 0
2051 -1691 0
2051 -1511 0
-2111 1751 0
2111 -1751 0
-1991 1451 0
1991 -1451 0
1992 2052 2112 0
-1452 372 0
-1512 432 0
-1692 972 0
-1752 1032 0
-1692 -1512 0
-2052 1692 1512 0
2052 -1692 0
2052 -1512 0
-2112 1752 0
2112 -1752 0
-1992 1452 0
1992 -1452 0
1993 2053 2113 0
-1453 373 0
-1513 433 0
-1693 973 0
-1753 1033 0
-1693 -1513 0
-2053 1693 1513 0
2053 -1693 0
2053 -1513 0
-2113 1753 0
2113 -1753 0
-1993 1453 0
1993 -1453 0
1994 2054 2114 0
-1454 374 0
-1514 434 0
-1694 974 0
-1754 1034 0
-1694 -1514 0
-2054 1694 1514 0
2054 -1694 0
2054 -1514 0
-2114 1754 0
2114 -1754 0
-1994 1454 0
1994 -1454 0
1995 2055 2115 0
-1455 375 0
-1515 435 0
-1695 975 0
-1755 1035 0
-1695 -1515 0
-2055 1695 1515 0
2055 -1695 0
2055 -1515 0
-2115 1755 0
2115 -1755 0
-1995 1455 0
1995 -1455 0
1996 2056 2116 0
-1456 376 0
-1516 436 0
-1696 976 0
-1756 1036 0
-1696 -1516 0
-2056 1696 1516 0
2056 -1696 0
2056 -1516 0
-2116 1756 0
2116 -1756 0
-1996 1456 0
1996 -1456 0
1997 2057 2117 0
-1457 377 0
-1517 437 0
-1697 977 0
-1757 1037 0
-1697 -1517 0
-2057 1697 1517 0
2057 -1697 0
2057 -1517 0
-2117 1757 0
2117 -1757 0
-1997 1457 0
1997 -1457 0
1998 2058 2118 0
-1458 378 0
-1518 438 0
-1698 978 0
-1758 1038 0
-1698 -1518 0
-2058 1698 1518 0
2058 -1698 0
2058 -1518 0
-2118 1758 0
2118 -1758 0
-1998 1458 0
1998 -1458 0
1999 2059 2119 0
-1459 379 0
-1519 439 0
-1699 979 0
-1759 1039 0
-1699 -1519 0
-2059 1699 1519 0
2059 -1699 0
2059 -1519 0
-2119 1759 0
2119 -1759 0
-1999 1459 0
1999 -1459 0
2000 2060 2120 0
-1460 380 0
-1520 440 0
-1700 980 0
-1760 1040 0
-1700 -1520 0
-2060 1700 1520 0
2060 -1700 0
2060 -1520 0
-2120 1760 0
2120 -1760 0
-2000 1460 0
2000 -1460 0
2001 2061 2121 0
-1461 381 0
-1521 441 0
-1701 981 0
-1761 1041 0
-1701 -1521 0
-2061 1701 1521 0
2061 -1701 0
2061 -1521 0
-2121 1761 0
2121 -1761 0
-2001 1461 0
2001 -1461 0
2002 2062 2122 0
-1462 382 0
-1522 442 0
-1702 982 0
-1762 1042 0
-1702 -1522 0
-2062 1702 1522 0
2062 -1702 0
2062 -1522 0
-2122 1762 0
2122 -1762 0
-2002 1462 0
2002 -1462 0
2003 2063 2123 0
-1463 383 0
-1523 443 0
-1703 983 0
-1763 1043 0
-1703 -1523 0
-2063 1703 1523 0
2063 -1703 0
2063 -1523 0
-2123 1763 0
2123 -1763 0
-2003 1463 0
2003 -1463 0
2004 2064 2124 0
-1464 384 0
-1524 444 0
-1704 984 0
-1764 1044 0
-1704 -1524 0
-2064 1704 1524 0
2064 -1704 0
2064 -1524 0
-2124 1764 0
2124 -1764 0
-2004 1464 0
2004 -1464 0
2005 2065 2125 0
-1465 385 0
-1525 445 0
-1705 985 0
-1765 1045 0
-1705 -1525 0
-2065 1705 1525 0
2065 -1705 0
2065 -1525 0
-2125 1765 0
2125 -1765 0
-2005 1465 0
2005 -1465 0
2006 2066 2126 0
-1466 386 0
-1526 446 0
-1706 986 0
-1766 1046 0
-1706 -1526 0
-2066 1706 1526 0
2066 -1706 0
2066 -1526 0
-2126 1766 0
2126 -1766 0
-2006 1466 0
2006 -1466 0
2007 2067 2127 0
-1467 387 0
-1527 447 0
-1707 987 0
-1767 1047 0
-1707 -1527 0
-2067 1707 1527 0
2067 -1707 0
2067 -1527 0
-2127 1767 0
2127 -1767 0
-2007 1467 0
2007 -1467 0
2008 2068 2128 0
-1468 388 0
-1528 448 0
-1708 988 0
-1768 1048 0
-1708 -1528 0
-2068 1708 1528 0
2068 -1708 0
2068 -1528 0
-2128 1768 0
2128 -1768 0
-2008 1468 0
2008 -1468 0
2009 2069 2129 0
-1469 389 0
-1529 449 0
-1709 989 0
-1769 1049 0
-1709 -1529 0
-2069 1709 1529 0
2069 -1709 0
2069 -1529 0
-2129 1769 0
2129 -1769 0
-2009 1469 0
2009 -1469 0
2010 2070 2130 0
-1470 390 0
-1530 450 0
-1710 990 0
-1770 1050 0
-1710 -1530 0
-2070 1710 1530 0
2070 -1710 0
2070 -1530 0
-2130 1770 0
2130 -1770 0
-2010 1470 0
2010 -1470 0
2011 2071 2131 0
-1471 391 0
-1531 451 0
-1711 991 0
-1771 1051 0
-1711 -1531 0
-2071 1711 1531 0
2071 -1711 0
2071 -1531 0
-2131 1771 0
2131 -1771 0
-2011 1471 0
2011 -1471 0
2012 2072 2132 0
-1472 392 0
-1532 452 0
-1712 992 0
-1772 1052 0
-1712 -1532 0
-2072 1712 1532 0
2072 -1712 0
2072 -1532 0
-2132 1772 0
2132 -1772 0
-2012 1472 0
2012 -1472 0
2013 2073 2133 0
-1473 393 0
-1533 453 0
-1713 993 0
-1773 1053 0
-1713 -1533 0
-2073 1713 1533 0
2073 -1713 0
2073 -1533 0
-2133 1773 0
2133 -1773 0
-2013 1473 0
2013 -1473 0
2014 2074 2134 0
-1474 394 0
-1534 454 0
-1714 994 0
-1774 1054 0
-1714 -1534 0
-2074 1714 1534 0
2074 -1714 0
2074 -1534 0
-2134 1774 0
2134 -1774 0
-2014 1474 0
2014 -1474 0
2015 2075 2135 0
-1475 395 0
-1535 455 0
-1715 995 0
-1775 1055 0
-1715 -1535 0
-2075 1715 1535 0
2075 -1715 0
2075 -1535 0
-2135 1775 0
2135 -1775 0
-2015 1475 0
2015 -1475 0
2016 2076 2136 0
-1476 396 0
-1536 456 0
-1716 996 0
-1776 1056 0
-1716 -1536 0
-2076 1716 1536 0
2076 -1716 0
2076 -1536 0
-2136 1776 0
2136 -1776 0
-2016 1476 0
2016 -1476 0
2017 2077 2137 0
-1477 397 0
-1537 457 0
-1717 997 0
-1777 1057 0
-1717 -1537 0
-2077 1717 1537 0
2077 -1717 0
2077 -1537 0
-2137 1777 0
2137 -1777 0
-2017 1477 0
2017 -1477 0
2018 2078 2138 0
-1478 398 0
-1538 458 0
-1718 998 0
-1778 1058 0
-1718 -1538 0
-2078 1718 1538 0
2078 -1718 0
2078 -1538 0
-2138 1778 0
2138 -1778 0
-2018 1478 0
2018 -1478 0
2019 2079 2139 0
-1479 399 0
-1539 459 0
-1719 999 0
-1779 1059 0
-1719 -1539 0
-2079 1719 1539 0
2079 -1719 0
2079 -1539 0
-2139 1779 0
2139 -1779 0
-2019 1479 0
2019 -1479 0
2020 2080 2140 0
-1480 400 0
-1540 460 0
-1720 1000 0
-1780 1060 0
-1720 -1540 0
-2080 1720 1540 0
2080 -1720 0
2080 -1540 0
-2140 1780 0
2140 -1780 0
-2020 1480 0
2020 -1480 0
2021 2081 2141 0
-1481 401 0
-1541 461 0
-1721 1001 0
-1781 1061 0
-1721 -1541 0
-2081 1721 1541 0
2081 -1721 0
2081 -1541 0
-2141 1781 0
2141 -1781 0
-2021 1481 0
2021 -1481 0
2022 2082 2142 0
-1482 402 0
-1542 462 0
-1722 1002 0
-1782 1062 0
-1722 -1542 0
-2082 1722 1542 0
2082 -1722 0
2082 -1542 0
-2142 1782 0
2142 -1782 0
-2022 1482 0
2022 -1482 0
2023 2083 2143 0
-1483 403 0
-1543 463 0
-1723 1003 0
-1783 1063 0
-1723 -1543 0
-2083 1723 1543 0
2083 -1723 0
2083 -1543 0
-2143 1783 0
2143 -1783 0
-2023 1483 0
2023 -1483 0
2024 2084 2144 0
-1484 404 0
-1544 464 0
-1724 1004 0
-1784 1064 0
-1724 -1544 0
-2084 1724 1544 0
2084 -1724 0
2084 -1544 0
-2144 1784 0
2144 -1784 0
-2024 1484 0
2024 -1484 0
2025 2085 2145 0
-1485 405 0
-1545 465 0
-1725 1005 0
-1785 1065 0
-1725 -1545 0
-2085 1725 1545 0
2085 -1725 0
2085 -1545 0
-2145 1785 0
2145 -1785 0
-2025 1485 0
2025 -1485 0
2026 2086 2146 0
-1486 406 0
-1546 466 0
-1726 1006 0
-1786 1066 0
-1726 -1546 0
-2086 1726 1546 0
2086 -1726 0
2086 -1546 0
-2146 1786 0
2146 -1786 0
-2026 1486 0
2026 -1486 0
2027 2087 2147 0
-1487 407 0
-1547 467 0
-1727 1007 0
-1787 1067 0
-1727 -1547 0
-2087 1727 1547 0
2087 -1727 0
2087 -1547 0
-2147 1787 0
2147 -1787 0
-2027 1487 0
2027 -1487 0
2028 2088 2148 0
-1488 408 0
-1548 468 0
-1728 1008 0
-1788 1068 0
-1728 -1548 0
-2088 1728 1548 0
2088 -1728 0
2088 -1548 0
-2148 1788 0
2148 -1788 0
-2028 1488 0
2028 -1488 0
2029 2089 2149 0
-1489 409 0
-1549 469 0
-1729 1009 0
-1789 1069 0
-1729 -1549 0
-2089 1729 1549 0
2089 -1729 0
2089 -1549 0
-2149 1789 0
2149 -1789 0
-2029 1489 0
2029 -1489 0
2030 2090 2150 0
-1490 410 0
-1550 470 0
-1730 1010 0
-1790 1070 0
-1730 -1550 0
-2090 1730 1550 0
2090 -1730 0
2090 -1550 0
-2150 1790 0
2150 -1790 0
-2030 1490 0
2030 -1490 0
2031 2091 2151 0
-1491 411 0
-1551 471 0
-1731 1011 0
-1791 1071 0
-1731 -1551 0
-2091 1731 1551 0
2091 -1731 0
2091 -1551 0
-2151 1791 0
2151 -1791 0
-2031 1491 0
2031 -1491 0
2032 2092 2152 0
-1492 412 0
-1552 472 0
-1732 1012 0
-1792 1072 0
-1732 -1552 0
-2092 1732 1552 0
2092 -1732 0
2092 -1552 0
-2152 1792 0
2152 -1792 0
-2032 1492 0
2032 -1492 0
2033 2093 2153 0
-1493 413 0
-1553 473 0
-1733 1013 0
-1793 1073 0
-1733 -1553 0
-2093 1733 1553 0
2093 -1733 0
2093 -1553 0
-2153 1793 0
2153 -1793 0
-2033 1493 0
2033 -1493 0
2034 2094 2154 0
-1494 414 0
-1554 474 0
-1734 1014 0
-1794 1074 0
-1734 -1554 0
-2094 1734 1554 0
2094 -1734 0
2094 -1554 0
-2154 1794 0
2154 -1794 0
-2034 1494 0
2034 -1494 0
2035 2095 2155 0
-1495 415 0
-1555 475 0
-1735 1015 0
-1795 1075 0
-1735 -1555 0
-2095 1735 1555 0
2095 -1735 0
2095 -1555 0
-2155 1795 0
2155 -1795 0
-2035 1495 0
2035 -1495 0
2036 2096 2156 0
-1496 416 0
-1556 476 0
-1736 1016 0
-1796 1076 0
-1736 -1556 0
-2096 1736 1556 0
2096 -1736 0
2096 -1556 0
-2156 1796 0
2156 -1796 0
-2036 1496 0
2036 -1496 0
2037 2097 2157 0
-1497 417 0
-1557 477 0
-1737 1017 0
-1797 1077 0
-1737 -1557 0
-2097 1737 1557 0
2097 -1737 0
2097 -1557 0
-2157 1797 0
2157 -1797 0
-2037 1497 0
2037 -1497 0
2038 2098 2158 0
-1498 418 0
-1558 478 0
-1738 1018 0
-1798 1078 0
-1738 -1558 0
-2098 1738 1558 0
2098 -1738 0
2098 -1558 0
-2158 1798 0
2158 -1798 0
-2038 1498 0
2038 -1498 0
2039 2099 2159 0
-1499 419 0
-1559 479 0
-1739 1019 0
-1799 1079 0
-1739 -1559 0
-2099 1739 1559 0
2099 -1739 0
2099 -1559 0
-2159 1799 0
2159 -1799 0
-2039 1499 0
2039 -1499 0
-2160 0
1860 2161 0
1920 2161 0
1860 1920 2162 0
1980 2163 0
-2160 2163 0
1980 -2160 2164 0
-2161 2165 0
-2163 2165 0
-2161 -2163 2166 0
-2162 2167 0
-2164 2167 0
-2162 -2164 2168 0
-2166 2169 0
-2167 2169 0
-2166 -2167 2170 0
-2169 0
-1981 -2101 0
-1981 -2041 0
-2041 -1981 0
-2041 -2101 0
-2101 -2041 0
-2101 -1981 0
-1982 -2102 0
-1982 -2042 0
-2042 -1982 0
-2042 -2102 0
-2102 -2042 0
-2102 -1982 0
-1983 -2103 0
-1983 -2043 0
-2043 -1983 0
-2043 -2103 0
-2103 -2043 0
-2103 -1983 0
-1984 -2104 0
-1984 -2044 0
-2044 -1984 0
-2044 -2104 0
-2104 -2044 0
-2104 -1984 0
-1985 -2105 0
-1985 -2045 0
-2045 -1985 0
-2045 -2105 0
-2105 -2045 0
-2105 -1985 0
-1986 -2106 0
-1986 -2046 0
-2046 -1986 0
-2046 -2106 0
-2106 -2046 0
-2106 -1986 0
-1987 -2107 0
-1987 -2047 0
-2047 -1987 0
-2047 -2107 0
-2107 -2047 0
-2107 -1987 0
-1988 -2108 0
-1988 -2048 0
-2048 -1988 0
-2048 -2108 0
-2108 -2048 0
-2108 -1988 0
-1989 -2109 0
-1989 -2049 0
-2049 -1989 0
-2049 -2109 0
-2109 -2049 0
-2109 -1989 0
-1990 -2110 0
-1990 -2050 0
-2050 -1990 0
-2050 -2110 0
-2110 -2050 0
-2110 -1990 0
-1991 -2111 0
-1991 -2051 0
-2051 -1991 0
-2051 -2111 0
-2111 -2051 0
-2111 -1991 0
-1992 -2112 0
-1992 -2052 0
-2052 -1992 0
-2052 -2112 0
-2112 -2052 0
-2112 -1992 0
-1993 -2113 0
-1993 -2053 0
-2053 -1993 0
-2053 -2113 0
-2113 -2053 0
-2113 -1993 0
-1994 -2114 0
-1994 -2054 0
-2054 -1994 0
-2054 -2114 0
-2114 -2054 0
-2114 -1994 0
-1995 -2115 0
-1995 -2055 0
-2055 -1995 0
-2055 -2115 0
-2115 -2055 0
-2115 -1995 0
-1996 -2116 0
-1996 -2056 0
-2056 -1996 0
-2056 -2116 0
-2116 -2056 0
-2116 -1996 0
-1997 -2117 0
-1997 -2057 0
-2057 -1997 0
-2057 -2117 0
-2117 -2057 0
-2117 -1997 0
-1998 -2118 0
-1998 -2058 0
-2058 -1998 0
-2058 -2118 0
-2118 -2058 0
-2118 -1998 0
-1999 -2119 0
-1999 -2059 0
-2059 -1999 0
-2059 -2119 0
-2119 -2059 0
-2119 -1999 0
-2000 -2120 0
-2000 -2060 0
-2060 -2000 0
-2060 -2120 0
-2120 -2060 0
-2120 -2000 0
-2001 -2121 0
-2001 -2061 0
-2061 -2001 0
-2061 -2121 0
-2121 -2061 0
-2121 -2001 0
-2002 -2122 0
-2002 -2062 0
-2062 -2002 0
-2062 -2122 0
-2122 -2062 0
-2122 -2002 0
-2003 -2123 0
-2003 -2063 0
-2063 -2003 0
-2063 -2123 0
-2123 -2063 0
-2123 -2003 0
-2004 -2124 0
-2004 -2064 0
-2064 -2004 0
-2064 -2124 0
-2124 -2064 0
-2124 -2004 0
-2005 -2125 0
-2005 -2065 0
-2065 -2005 0
-2065 -2125 0
-2125 -2065 0
-2125 -2005 0
-2006 -2126 0
-2006 -2066 0
-2066 -2006 0
-2066 -2126 0
-2126 -2066 0
-2126 -2006 0
-2007 -2127 0
-2007 -2067 0
-2067 -2007 0
-2067 -2127 0
-2127 -2067 0
-2127 -2007 0
-2008 -2128 0
-2008 -2068 0
-2068 -2008 0
-2068 -2128 0
-2128 -2068 0
-2128 -2008 0
-2009 -2129 0
-2009 -2069 0
-2069 -2009 0
-2069 -2129 0
-2129 -2069 0
-2129 -2009 0
-2010 -2130 0
-2010 -2070 0
-2070 -2010 0
-2070 -2130 0
-2130 -2070 0
-2130 -2010 0
-2011 -2131 0
-2011 -2071 0
-2071 -2011 0
-2071 -2131 0
-2131 -2071 0
-2131 -2011 0
-2012 -2132 0
-2012 -2072 0
-2072 -2012 0
-2072 -2132 0
-2132 -2072 0
-2132 -2012 0
-2013 -2133 0
-2013 -2073 0
-2073 -2013 0
-2073 -2133 0
-2133 -2073 0
-2133 -2013 0
-2014 -2134 0
-2014 -2074 0
-2074 -2014 0
-2074 -2134 0
-2134 -2074 0
-2134 -2014 0
-2015 -2135 0
-2015 -2075 0
-2075 -2015 0
-2075 -2135 0
-2135 -2075 0
-2135 -2015 0
-2016 -2136 0
-2016 -2076 0
-2076 -2016 0
-2076 -2136 0
-2136 -2076 0
-2136 -2016 0
-2017 -2137 0
-2017 -2077 0
-2077 -2017 0
-2077 -2137 0
-2137 -2077 0
-2137 -2017 0
-2018 -2138 0
-2018 -2078 0
-2078 -2018 0
-2078 -2138 0
-2138 -2078 0
-2138 -2018 0
-2019 -2139 0
-2019 -2079 0
-2079 -2019 0
-2079 -2139 0
-2139 -2079 0
-2139 -2019 0
-2020 -2140 0
-2020 -2080 0
-2080 -2020 0
-2080 -2140 0
-2140 -2080 0
-2140 -2020 0
-2021 -2141 0
-2021 -2081 0
-2081 -2021 0
-2081 -2141 0
-2141 -2081 0
-2141 -2021 0
-2022 -2142 0
-2022 -2082 0
-2082 -2022 0
-2082 -2142 0
-2142 -2082 0
-2142 -2022 0
-2023 -2143 0
-2023 -2083 0
-2083 -2023 0
-2083 -2143 0
-2143 -2083 0
-2143 -2023 0
-2024 -2144 0
-2024 -2084 0
-2084 -2024 0
-2084 -2144 0
-2144 -2084 0
-2144 -2024 0
-2025 -2145 0
-2025 -2085 0
-2085 -2025 0
-2085 -2145 0
-2145 -2085 0
-2145 -2025 0
-2026 -2146 0
-2026 -2086 0
-2086 -2026 0
-2086 -2146 0
-2146 -2086 0
-2146 -2026 0
-2027 -2147 0
-2027 -2087 0
-2087 -2027 0
-2087 -2147 0
-2147 -2087 0
-2147 -2027 0
-2028 -2148 0
-2028 -2088 0
-2088 -2028 0
-2088 -2148 0
-2148 -2088 0
-2148 -2028 0
-2029 -2149 0
-2029 -2089 0
-2089 -2029 0
-2089 -2149 0
-2149 -2089 0
-2149 -2029 0
-2030 -2150 0
-2030 -2090 0
-2090 -2030 0
-2090 -2150 0
-2150 -2090 0
-2150 -2030 0
-2031 -2151 0
-2031 -2091 0
-2091 -2031 0
-2091 -2151 0
-2151 -2091 0
-2151 -2031 0
-2032 -2152 0
-2032 -2092 0
-2092 -2032 0
-2092 -2152 0
-2152 -2092 0
-2152 -2032 0
-2033 -2153 0
-2033 -2093 0
-2093 -2033 0
-2093 -2153 0
-2153 -2093 0
-2153 -2033 0
-2034 -2154 0
-2034 -2094 0
-2094 -2034 0
-2094 -2154 0
-2154 -2094 0
-2154 -2034 0
-2035 -2155 0
-2035 -2095 0
-2095 -2035 0
-2095 -2155 0
-2155 -2095 0
-2155 -2035 0
-2036 -2156 0
-2036 -2096 0
-2096 -2036 0
-2096 -2156 0
-2156 -2096 0
-2156 -2036 0
-2037 -2157 0
-2037 -2097 0
-2097 -2037 0
-2097 -2157 0
-2157 -2097 0
-2157 -2037 0
-2038 -2158 0
-2038 -2098 0
-2098 -2038 0
-2098 -2158 0
-2158 -2098 0
-2158 -2038 0
-2039 -2159 0
-2039 -2099 0
-2099 -2039 0
-2099 -2159 0
-2159 -2099 0
-2159 -2039 0
